<?xml version="1.0"?>
<VTKFile type="UnstructuredGrid" version="0.1">
<UnstructuredGrid>
<Piece NumberOfPoints="      1156" NumberOfCells="      1024">
<Points>
<DataArray type="Float64"                                    Name="coordinates"                                                      NumberOfComponents=" 3" format="ascii">
              0.133000000               0.000000000               0.000000000               0.155937500               0.000000000               0.000000000               0.178875000               0.000000000               0.000000000               0.201812500               0.000000000               0.000000000               0.224750000               0.000000000               0.000000000               0.247687500               0.000000000               0.000000000               0.270625000               0.000000000               0.000000000               0.293562500               0.000000000               0.000000000               0.316500000               0.000000000               0.000000000               0.339437500               0.000000000               0.000000000               0.362375000               0.000000000               0.000000000               0.385312500               0.000000000               0.000000000               0.408250000               0.000000000               0.000000000               0.431187500               0.000000000               0.000000000               0.454125000               0.000000000               0.000000000               0.477062500               0.000000000               0.000000000               0.500000000               0.000000000               0.000000000               0.132359569               0.013036280               0.000000000               0.155337096               0.016127762               0.000000000               0.178314623               0.019219245               0.000000000               0.201292150               0.022310727               0.000000000               0.224269676               0.025402210               0.000000000               0.247247203               0.028493692               0.000000000               0.270224730               0.031585175               0.000000000               0.293202257               0.034676657               0.000000000               0.316179784               0.037768140               0.000000000               0.339157311               0.040859622               0.000000000               0.362134838               0.043951105               0.000000000               0.385112365               0.047042587               0.000000000               0.408089892               0.050134070               0.000000000               0.431067419               0.053225552               0.000000000               0.454044946               0.056317035               0.000000000               0.477022473               0.059408517               0.000000000               0.500000000               0.062500000               0.000000000               0.130444442               0.025947013               0.000000000               0.153541665               0.032137825               0.000000000               0.176638887               0.038328636               0.000000000               0.199736109               0.044519448               0.000000000               0.222833332               0.050710260               0.000000000               0.245930554               0.056901071               0.000000000               0.269027776               0.063091883               0.000000000               0.292124999               0.069282695               0.000000000               0.315222221               0.075473506               0.000000000               0.338319444               0.081664318               0.000000000               0.361416666               0.087855130               0.000000000               0.384513888               0.094045942               0.000000000               0.407611111               0.100236753               0.000000000               0.430708333               0.106427565               0.000000000               0.453805555               0.112618377               0.000000000               0.476902778               0.118809188               0.000000000               0.500000000               0.125000000               0.000000000               0.127273065               0.038607862               0.000000000               0.150568498               0.047913621               0.000000000               0.173863932               0.057219379               0.000000000               0.197159365               0.066525138               0.000000000               0.220454798               0.075830897               0.000000000               0.243750232               0.085136655               0.000000000               0.267045665               0.094442414               0.000000000               0.290341099               0.103748172               0.000000000               0.313636532               0.113053931               0.000000000               0.336931966               0.122359690               0.000000000               0.360227399               0.131665448               0.000000000               0.383522833               0.140971207               0.000000000               0.406818266               0.150276966               0.000000000               0.430113700               0.159582724               0.000000000               0.453409133               0.168888483               0.000000000               0.476704567               0.178194241               0.000000000               0.500000000               0.187500000               0.000000000               0.122875978               0.050896897               0.000000000               0.146446229               0.063340840               0.000000000               0.170016481               0.075784784               0.000000000               0.193586732               0.088228728               0.000000000               0.217156983               0.100672672               0.000000000               0.240727235               0.113116616               0.000000000               0.264297486               0.125560560               0.000000000               0.287867738               0.138004504               0.000000000               0.311437989               0.150448448               0.000000000               0.335008240               0.162892392               0.000000000               0.358578492               0.175336336               0.000000000               0.382148743               0.187780280               0.000000000               0.405718994               0.200224224               0.000000000               0.429289246               0.212668168               0.000000000               0.452859497               0.225112112               0.000000000               0.476429749               0.237556056               0.000000000               0.500000000               0.250000000               0.000000000               0.117295528               0.062695766               0.000000000               0.141214558               0.078308531               0.000000000               0.165133587               0.093921295               0.000000000               0.189052617               0.109534060               0.000000000               0.212971646               0.125146824               0.000000000               0.236890676               0.140759589               0.000000000               0.260809705               0.156372354               0.000000000               0.284728735               0.171985118               0.000000000               0.308647764               0.187597883               0.000000000               0.332566794               0.203210648               0.000000000               0.356485823               0.218823412               0.000000000               0.380404853               0.234436177               0.000000000               0.404323882               0.250048941               0.000000000               0.428242912               0.265661706               0.000000000               0.452161941               0.281274471               0.000000000               0.476080971               0.296887235               0.000000000               0.500000000               0.312500000               0.000000000               0.110585458               0.073890841               0.000000000               0.134923867               0.092710163               0.000000000               0.159262276               0.111529486               0.000000000               0.183600685               0.130348808               0.000000000               0.207939094               0.149168131               0.000000000               0.232277503               0.167987453               0.000000000               0.256615912               0.186806776               0.000000000               0.280954320               0.205626098               0.000000000               0.305292729               0.224445420               0.000000000               0.329631138               0.243264743               0.000000000               0.353969547               0.262084065               0.000000000               0.378307956               0.280903388               0.000000000               0.402646365               0.299722710               0.000000000               0.426984773               0.318542033               0.000000000               0.451323182               0.337361355               0.000000000               0.475661591               0.356180678               0.000000000               0.500000000               0.375000000               0.000000000               0.102810390               0.084374307               0.000000000               0.127634741               0.106444663               0.000000000               0.152459092               0.128515018               0.000000000               0.177283442               0.150585374               0.000000000               0.202107793               0.172655730               0.000000000               0.226932143               0.194726086               0.000000000               0.251756494               0.216796442               0.000000000               0.276580845               0.238866798               0.000000000               0.301405195               0.260937153               0.000000000               0.326229546               0.283007509               0.000000000               0.351053896               0.305077865               0.000000000               0.375878247               0.327148221               0.000000000               0.400702598               0.349218577               0.000000000               0.425526948               0.371288933               0.000000000               0.450351299               0.393359288               0.000000000               0.475175649               0.415429644               0.000000000               0.500000000               0.437500000               0.000000000               0.094045202               0.094045202               0.000000000               0.119417377               0.119417377               0.000000000               0.144789552               0.144789552               0.000000000               0.170161727               0.170161727               0.000000000               0.195533901               0.195533901               0.000000000               0.220906076               0.220906076               0.000000000               0.246278251               0.246278251               0.000000000               0.271650426               0.271650426               0.000000000               0.297022601               0.297022601               0.000000000               0.322394776               0.322394776               0.000000000               0.347766951               0.347766951               0.000000000               0.373139126               0.373139126               0.000000000               0.398511300               0.398511300               0.000000000               0.423883475               0.423883475               0.000000000               0.449255650               0.449255650               0.000000000               0.474627825               0.474627825               0.000000000               0.500000000               0.500000000               0.000000000               0.084374307               0.102810390               0.000000000               0.106444663               0.127634741               0.000000000               0.128515018               0.152459092               0.000000000               0.150585374               0.177283442               0.000000000               0.172655730               0.202107793               0.000000000               0.194726086               0.226932143               0.000000000               0.216796442               0.251756494               0.000000000               0.238866798               0.276580845               0.000000000               0.260937153               0.301405195               0.000000000               0.283007509               0.326229546               0.000000000               0.305077865               0.351053896               0.000000000               0.327148221               0.375878247               0.000000000               0.349218577               0.400702598               0.000000000               0.371288933               0.425526948               0.000000000               0.393359288               0.450351299               0.000000000               0.415429644               0.475175649               0.000000000               0.437500000               0.500000000               0.000000000               0.073890841               0.110585458               0.000000000               0.092710163               0.134923867               0.000000000               0.111529486               0.159262276               0.000000000               0.130348808               0.183600685               0.000000000               0.149168131               0.207939094               0.000000000               0.167987453               0.232277503               0.000000000               0.186806776               0.256615912               0.000000000               0.205626098               0.280954320               0.000000000               0.224445420               0.305292729               0.000000000               0.243264743               0.329631138               0.000000000               0.262084065               0.353969547               0.000000000               0.280903388               0.378307956               0.000000000               0.299722710               0.402646365               0.000000000               0.318542033               0.426984773               0.000000000               0.337361355               0.451323182               0.000000000               0.356180678               0.475661591               0.000000000               0.375000000               0.500000000               0.000000000               0.062695766               0.117295528               0.000000000               0.078308531               0.141214558               0.000000000               0.093921295               0.165133587               0.000000000               0.109534060               0.189052617               0.000000000               0.125146824               0.212971646               0.000000000               0.140759589               0.236890676               0.000000000               0.156372354               0.260809705               0.000000000               0.171985118               0.284728735               0.000000000               0.187597883               0.308647764               0.000000000               0.203210648               0.332566794               0.000000000               0.218823412               0.356485823               0.000000000               0.234436177               0.380404853               0.000000000               0.250048941               0.404323882               0.000000000               0.265661706               0.428242912               0.000000000               0.281274471               0.452161941               0.000000000               0.296887235               0.476080971               0.000000000               0.312500000               0.500000000               0.000000000               0.050896897               0.122875978               0.000000000               0.063340840               0.146446229               0.000000000               0.075784784               0.170016481               0.000000000               0.088228728               0.193586732               0.000000000               0.100672672               0.217156983               0.000000000               0.113116616               0.240727235               0.000000000               0.125560560               0.264297486               0.000000000               0.138004504               0.287867738               0.000000000               0.150448448               0.311437989               0.000000000               0.162892392               0.335008240               0.000000000               0.175336336               0.358578492               0.000000000               0.187780280               0.382148743               0.000000000               0.200224224               0.405718994               0.000000000               0.212668168               0.429289246               0.000000000               0.225112112               0.452859497               0.000000000               0.237556056               0.476429749               0.000000000               0.250000000               0.500000000               0.000000000               0.038607862               0.127273065               0.000000000               0.047913621               0.150568498               0.000000000               0.057219379               0.173863932               0.000000000               0.066525138               0.197159365               0.000000000               0.075830897               0.220454798               0.000000000               0.085136655               0.243750232               0.000000000               0.094442414               0.267045665               0.000000000               0.103748172               0.290341099               0.000000000               0.113053931               0.313636532               0.000000000               0.122359690               0.336931966               0.000000000               0.131665448               0.360227399               0.000000000               0.140971207               0.383522833               0.000000000               0.150276966               0.406818266               0.000000000               0.159582724               0.430113700               0.000000000               0.168888483               0.453409133               0.000000000               0.178194241               0.476704567               0.000000000               0.187500000               0.500000000               0.000000000               0.025947013               0.130444442               0.000000000               0.032137825               0.153541665               0.000000000               0.038328636               0.176638887               0.000000000               0.044519448               0.199736109               0.000000000               0.050710260               0.222833332               0.000000000               0.056901071               0.245930554               0.000000000               0.063091883               0.269027776               0.000000000               0.069282695               0.292124999               0.000000000               0.075473506               0.315222221               0.000000000               0.081664318               0.338319444               0.000000000               0.087855130               0.361416666               0.000000000               0.094045942               0.384513888               0.000000000               0.100236753               0.407611111               0.000000000               0.106427565               0.430708333               0.000000000               0.112618377               0.453805555               0.000000000               0.118809188               0.476902778               0.000000000               0.125000000               0.500000000               0.000000000               0.013036280               0.132359569               0.000000000               0.016127762               0.155337096               0.000000000               0.019219245               0.178314623               0.000000000               0.022310727               0.201292150               0.000000000               0.025402210               0.224269676               0.000000000               0.028493692               0.247247203               0.000000000               0.031585175               0.270224730               0.000000000               0.034676657               0.293202257               0.000000000               0.037768140               0.316179784               0.000000000               0.040859622               0.339157311               0.000000000               0.043951105               0.362134838               0.000000000               0.047042587               0.385112365               0.000000000               0.050134070               0.408089892               0.000000000               0.053225552               0.431067419               0.000000000               0.056317035               0.454044946               0.000000000               0.059408517               0.477022473               0.000000000               0.062500000               0.500000000               0.000000000               0.000000000               0.133000000               0.000000000               0.000000000               0.155937500               0.000000000               0.000000000               0.178875000               0.000000000               0.000000000               0.201812500               0.000000000               0.000000000               0.224750000               0.000000000               0.000000000               0.247687500               0.000000000               0.000000000               0.270625000               0.000000000               0.000000000               0.293562500               0.000000000               0.000000000               0.316500000               0.000000000               0.000000000               0.339437500               0.000000000               0.000000000               0.362375000               0.000000000               0.000000000               0.385312500               0.000000000               0.000000000               0.408250000               0.000000000               0.000000000               0.431187500               0.000000000               0.000000000               0.454125000               0.000000000               0.000000000               0.477062500               0.000000000               0.000000000               0.500000000               0.000000000               0.133000000               0.000000000               0.000000000               0.155937500               0.000000000               0.000000000               0.178875000               0.000000000               0.000000000               0.201812500               0.000000000               0.000000000               0.224750000               0.000000000               0.000000000               0.247687500               0.000000000               0.000000000               0.270625000               0.000000000               0.000000000               0.293562500               0.000000000               0.000000000               0.316500000               0.000000000               0.000000000               0.339437500               0.000000000               0.000000000               0.362375000               0.000000000               0.000000000               0.385312500               0.000000000               0.000000000               0.408250000               0.000000000               0.000000000               0.431187500               0.000000000               0.000000000               0.454125000               0.000000000               0.000000000               0.477062500               0.000000000               0.000000000               0.500000000               0.000000000               0.000000000               0.132359569              -0.013036280               0.000000000               0.155337096              -0.016127762               0.000000000               0.178314623              -0.019219245               0.000000000               0.201292150              -0.022310727               0.000000000               0.224269676              -0.025402210               0.000000000               0.247247203              -0.028493692               0.000000000               0.270224730              -0.031585175               0.000000000               0.293202257              -0.034676657               0.000000000               0.316179784              -0.037768140               0.000000000               0.339157311              -0.040859622               0.000000000               0.362134838              -0.043951105               0.000000000               0.385112365              -0.047042587               0.000000000               0.408089892              -0.050134070               0.000000000               0.431067419              -0.053225552               0.000000000               0.454044946              -0.056317035               0.000000000               0.477022473              -0.059408517               0.000000000               0.500000000              -0.062500000               0.000000000               0.130444442              -0.025947013               0.000000000               0.153541665              -0.032137825               0.000000000               0.176638887              -0.038328636               0.000000000               0.199736109              -0.044519448               0.000000000               0.222833332              -0.050710260               0.000000000               0.245930554              -0.056901071               0.000000000               0.269027776              -0.063091883               0.000000000               0.292124999              -0.069282695               0.000000000               0.315222221              -0.075473506               0.000000000               0.338319444              -0.081664318               0.000000000               0.361416666              -0.087855130               0.000000000               0.384513888              -0.094045942               0.000000000               0.407611111              -0.100236753               0.000000000               0.430708333              -0.106427565               0.000000000               0.453805555              -0.112618377               0.000000000               0.476902778              -0.118809188               0.000000000               0.500000000              -0.125000000               0.000000000               0.127273065              -0.038607862               0.000000000               0.150568498              -0.047913621               0.000000000               0.173863932              -0.057219379               0.000000000               0.197159365              -0.066525138               0.000000000               0.220454798              -0.075830897               0.000000000               0.243750232              -0.085136655               0.000000000               0.267045665              -0.094442414               0.000000000               0.290341099              -0.103748172               0.000000000               0.313636532              -0.113053931               0.000000000               0.336931966              -0.122359690               0.000000000               0.360227399              -0.131665448               0.000000000               0.383522833              -0.140971207               0.000000000               0.406818266              -0.150276966               0.000000000               0.430113700              -0.159582724               0.000000000               0.453409133              -0.168888483               0.000000000               0.476704567              -0.178194241               0.000000000               0.500000000              -0.187500000               0.000000000               0.122875978              -0.050896897               0.000000000               0.146446229              -0.063340840               0.000000000               0.170016481              -0.075784784               0.000000000               0.193586732              -0.088228728               0.000000000               0.217156983              -0.100672672               0.000000000               0.240727235              -0.113116616               0.000000000               0.264297486              -0.125560560               0.000000000               0.287867738              -0.138004504               0.000000000               0.311437989              -0.150448448               0.000000000               0.335008240              -0.162892392               0.000000000               0.358578492              -0.175336336               0.000000000               0.382148743              -0.187780280               0.000000000               0.405718994              -0.200224224               0.000000000               0.429289246              -0.212668168               0.000000000               0.452859497              -0.225112112               0.000000000               0.476429749              -0.237556056               0.000000000               0.500000000              -0.250000000               0.000000000               0.117295528              -0.062695766               0.000000000               0.141214558              -0.078308531               0.000000000               0.165133587              -0.093921295               0.000000000               0.189052617              -0.109534060               0.000000000               0.212971646              -0.125146824               0.000000000               0.236890676              -0.140759589               0.000000000               0.260809705              -0.156372354               0.000000000               0.284728735              -0.171985118               0.000000000               0.308647764              -0.187597883               0.000000000               0.332566794              -0.203210648               0.000000000               0.356485823              -0.218823412               0.000000000               0.380404853              -0.234436177               0.000000000               0.404323882              -0.250048941               0.000000000               0.428242912              -0.265661706               0.000000000               0.452161941              -0.281274471               0.000000000               0.476080971              -0.296887235               0.000000000               0.500000000              -0.312500000               0.000000000               0.110585458              -0.073890841               0.000000000               0.134923867              -0.092710163               0.000000000               0.159262276              -0.111529486               0.000000000               0.183600685              -0.130348808               0.000000000               0.207939094              -0.149168131               0.000000000               0.232277503              -0.167987453               0.000000000               0.256615912              -0.186806776               0.000000000               0.280954320              -0.205626098               0.000000000               0.305292729              -0.224445420               0.000000000               0.329631138              -0.243264743               0.000000000               0.353969547              -0.262084065               0.000000000               0.378307956              -0.280903388               0.000000000               0.402646365              -0.299722710               0.000000000               0.426984773              -0.318542033               0.000000000               0.451323182              -0.337361355               0.000000000               0.475661591              -0.356180678               0.000000000               0.500000000              -0.375000000               0.000000000               0.102810390              -0.084374307               0.000000000               0.127634741              -0.106444663               0.000000000               0.152459092              -0.128515018               0.000000000               0.177283442              -0.150585374               0.000000000               0.202107793              -0.172655730               0.000000000               0.226932143              -0.194726086               0.000000000               0.251756494              -0.216796442               0.000000000               0.276580845              -0.238866798               0.000000000               0.301405195              -0.260937153               0.000000000               0.326229546              -0.283007509               0.000000000               0.351053896              -0.305077865               0.000000000               0.375878247              -0.327148221               0.000000000               0.400702598              -0.349218577               0.000000000               0.425526948              -0.371288933               0.000000000               0.450351299              -0.393359288               0.000000000               0.475175649              -0.415429644               0.000000000               0.500000000              -0.437500000               0.000000000               0.094045202              -0.094045202               0.000000000               0.119417377              -0.119417377               0.000000000               0.144789552              -0.144789552               0.000000000               0.170161727              -0.170161727               0.000000000               0.195533901              -0.195533901               0.000000000               0.220906076              -0.220906076               0.000000000               0.246278251              -0.246278251               0.000000000               0.271650426              -0.271650426               0.000000000               0.297022601              -0.297022601               0.000000000               0.322394776              -0.322394776               0.000000000               0.347766951              -0.347766951               0.000000000               0.373139126              -0.373139126               0.000000000               0.398511300              -0.398511300               0.000000000               0.423883475              -0.423883475               0.000000000               0.449255650              -0.449255650               0.000000000               0.474627825              -0.474627825               0.000000000               0.500000000              -0.500000000               0.000000000               0.084374307              -0.102810390               0.000000000               0.106444663              -0.127634741               0.000000000               0.128515018              -0.152459092               0.000000000               0.150585374              -0.177283442               0.000000000               0.172655730              -0.202107793               0.000000000               0.194726086              -0.226932143               0.000000000               0.216796442              -0.251756494               0.000000000               0.238866798              -0.276580845               0.000000000               0.260937153              -0.301405195               0.000000000               0.283007509              -0.326229546               0.000000000               0.305077865              -0.351053896               0.000000000               0.327148221              -0.375878247               0.000000000               0.349218577              -0.400702598               0.000000000               0.371288933              -0.425526948               0.000000000               0.393359288              -0.450351299               0.000000000               0.415429644              -0.475175649               0.000000000               0.437500000              -0.500000000               0.000000000               0.073890841              -0.110585458               0.000000000               0.092710163              -0.134923867               0.000000000               0.111529486              -0.159262276               0.000000000               0.130348808              -0.183600685               0.000000000               0.149168131              -0.207939094               0.000000000               0.167987453              -0.232277503               0.000000000               0.186806776              -0.256615912               0.000000000               0.205626098              -0.280954320               0.000000000               0.224445420              -0.305292729               0.000000000               0.243264743              -0.329631138               0.000000000               0.262084065              -0.353969547               0.000000000               0.280903388              -0.378307956               0.000000000               0.299722710              -0.402646365               0.000000000               0.318542033              -0.426984773               0.000000000               0.337361355              -0.451323182               0.000000000               0.356180678              -0.475661591               0.000000000               0.375000000              -0.500000000               0.000000000               0.062695766              -0.117295528               0.000000000               0.078308531              -0.141214558               0.000000000               0.093921295              -0.165133587               0.000000000               0.109534060              -0.189052617               0.000000000               0.125146824              -0.212971646               0.000000000               0.140759589              -0.236890676               0.000000000               0.156372354              -0.260809705               0.000000000               0.171985118              -0.284728735               0.000000000               0.187597883              -0.308647764               0.000000000               0.203210648              -0.332566794               0.000000000               0.218823412              -0.356485823               0.000000000               0.234436177              -0.380404853               0.000000000               0.250048941              -0.404323882               0.000000000               0.265661706              -0.428242912               0.000000000               0.281274471              -0.452161941               0.000000000               0.296887235              -0.476080971               0.000000000               0.312500000              -0.500000000               0.000000000               0.050896897              -0.122875978               0.000000000               0.063340840              -0.146446229               0.000000000               0.075784784              -0.170016481               0.000000000               0.088228728              -0.193586732               0.000000000               0.100672672              -0.217156983               0.000000000               0.113116616              -0.240727235               0.000000000               0.125560560              -0.264297486               0.000000000               0.138004504              -0.287867738               0.000000000               0.150448448              -0.311437989               0.000000000               0.162892392              -0.335008240               0.000000000               0.175336336              -0.358578492               0.000000000               0.187780280              -0.382148743               0.000000000               0.200224224              -0.405718994               0.000000000               0.212668168              -0.429289246               0.000000000               0.225112112              -0.452859497               0.000000000               0.237556056              -0.476429749               0.000000000               0.250000000              -0.500000000               0.000000000               0.038607862              -0.127273065               0.000000000               0.047913621              -0.150568498               0.000000000               0.057219379              -0.173863932               0.000000000               0.066525138              -0.197159365               0.000000000               0.075830897              -0.220454798               0.000000000               0.085136655              -0.243750232               0.000000000               0.094442414              -0.267045665               0.000000000               0.103748172              -0.290341099               0.000000000               0.113053931              -0.313636532               0.000000000               0.122359690              -0.336931966               0.000000000               0.131665448              -0.360227399               0.000000000               0.140971207              -0.383522833               0.000000000               0.150276966              -0.406818266               0.000000000               0.159582724              -0.430113700               0.000000000               0.168888483              -0.453409133               0.000000000               0.178194241              -0.476704567               0.000000000               0.187500000              -0.500000000               0.000000000               0.025947013              -0.130444442               0.000000000               0.032137825              -0.153541665               0.000000000               0.038328636              -0.176638887               0.000000000               0.044519448              -0.199736109               0.000000000               0.050710260              -0.222833332               0.000000000               0.056901071              -0.245930554               0.000000000               0.063091883              -0.269027776               0.000000000               0.069282695              -0.292124999               0.000000000               0.075473506              -0.315222221               0.000000000               0.081664318              -0.338319444               0.000000000               0.087855130              -0.361416666               0.000000000               0.094045942              -0.384513888               0.000000000               0.100236753              -0.407611111               0.000000000               0.106427565              -0.430708333               0.000000000               0.112618377              -0.453805555               0.000000000               0.118809188              -0.476902778               0.000000000               0.125000000              -0.500000000               0.000000000               0.013036280              -0.132359569               0.000000000               0.016127762              -0.155337096               0.000000000               0.019219245              -0.178314623               0.000000000               0.022310727              -0.201292150               0.000000000               0.025402210              -0.224269676               0.000000000               0.028493692              -0.247247203               0.000000000               0.031585175              -0.270224730               0.000000000               0.034676657              -0.293202257               0.000000000               0.037768140              -0.316179784               0.000000000               0.040859622              -0.339157311               0.000000000               0.043951105              -0.362134838               0.000000000               0.047042587              -0.385112365               0.000000000               0.050134070              -0.408089892               0.000000000               0.053225552              -0.431067419               0.000000000               0.056317035              -0.454044946               0.000000000               0.059408517              -0.477022473               0.000000000               0.062500000              -0.500000000               0.000000000               0.000000000              -0.133000000               0.000000000               0.000000000              -0.155937500               0.000000000               0.000000000              -0.178875000               0.000000000               0.000000000              -0.201812500               0.000000000               0.000000000              -0.224750000               0.000000000               0.000000000              -0.247687500               0.000000000               0.000000000              -0.270625000               0.000000000               0.000000000              -0.293562500               0.000000000               0.000000000              -0.316500000               0.000000000               0.000000000              -0.339437500               0.000000000               0.000000000              -0.362375000               0.000000000               0.000000000              -0.385312500               0.000000000               0.000000000              -0.408250000               0.000000000               0.000000000              -0.431187500               0.000000000               0.000000000              -0.454125000               0.000000000               0.000000000              -0.477062500               0.000000000               0.000000000              -0.500000000               0.000000000              -0.133000000               0.000000000               0.000000000              -0.155937500               0.000000000               0.000000000              -0.178875000               0.000000000               0.000000000              -0.201812500               0.000000000               0.000000000              -0.224750000               0.000000000               0.000000000              -0.247687500               0.000000000               0.000000000              -0.270625000               0.000000000               0.000000000              -0.293562500               0.000000000               0.000000000              -0.316500000               0.000000000               0.000000000              -0.339437500               0.000000000               0.000000000              -0.362375000               0.000000000               0.000000000              -0.385312500               0.000000000               0.000000000              -0.408250000               0.000000000               0.000000000              -0.431187500               0.000000000               0.000000000              -0.454125000               0.000000000               0.000000000              -0.477062500               0.000000000               0.000000000              -0.500000000               0.000000000               0.000000000              -0.132359569              -0.013036280               0.000000000              -0.155337096              -0.016127762               0.000000000              -0.178314623              -0.019219245               0.000000000              -0.201292150              -0.022310727               0.000000000              -0.224269676              -0.025402210               0.000000000              -0.247247203              -0.028493692               0.000000000              -0.270224730              -0.031585175               0.000000000              -0.293202257              -0.034676657               0.000000000              -0.316179784              -0.037768140               0.000000000              -0.339157311              -0.040859622               0.000000000              -0.362134838              -0.043951105               0.000000000              -0.385112365              -0.047042587               0.000000000              -0.408089892              -0.050134070               0.000000000              -0.431067419              -0.053225552               0.000000000              -0.454044946              -0.056317035               0.000000000              -0.477022473              -0.059408517               0.000000000              -0.500000000              -0.062500000               0.000000000              -0.130444442              -0.025947013               0.000000000              -0.153541665              -0.032137825               0.000000000              -0.176638887              -0.038328636               0.000000000              -0.199736109              -0.044519448               0.000000000              -0.222833332              -0.050710260               0.000000000              -0.245930554              -0.056901071               0.000000000              -0.269027776              -0.063091883               0.000000000              -0.292124999              -0.069282695               0.000000000              -0.315222221              -0.075473506               0.000000000              -0.338319444              -0.081664318               0.000000000              -0.361416666              -0.087855130               0.000000000              -0.384513888              -0.094045942               0.000000000              -0.407611111              -0.100236753               0.000000000              -0.430708333              -0.106427565               0.000000000              -0.453805555              -0.112618377               0.000000000              -0.476902778              -0.118809188               0.000000000              -0.500000000              -0.125000000               0.000000000              -0.127273065              -0.038607862               0.000000000              -0.150568498              -0.047913621               0.000000000              -0.173863932              -0.057219379               0.000000000              -0.197159365              -0.066525138               0.000000000              -0.220454798              -0.075830897               0.000000000              -0.243750232              -0.085136655               0.000000000              -0.267045665              -0.094442414               0.000000000              -0.290341099              -0.103748172               0.000000000              -0.313636532              -0.113053931               0.000000000              -0.336931966              -0.122359690               0.000000000              -0.360227399              -0.131665448               0.000000000              -0.383522833              -0.140971207               0.000000000              -0.406818266              -0.150276966               0.000000000              -0.430113700              -0.159582724               0.000000000              -0.453409133              -0.168888483               0.000000000              -0.476704567              -0.178194241               0.000000000              -0.500000000              -0.187500000               0.000000000              -0.122875978              -0.050896897               0.000000000              -0.146446229              -0.063340840               0.000000000              -0.170016481              -0.075784784               0.000000000              -0.193586732              -0.088228728               0.000000000              -0.217156983              -0.100672672               0.000000000              -0.240727235              -0.113116616               0.000000000              -0.264297486              -0.125560560               0.000000000              -0.287867738              -0.138004504               0.000000000              -0.311437989              -0.150448448               0.000000000              -0.335008240              -0.162892392               0.000000000              -0.358578492              -0.175336336               0.000000000              -0.382148743              -0.187780280               0.000000000              -0.405718994              -0.200224224               0.000000000              -0.429289246              -0.212668168               0.000000000              -0.452859497              -0.225112112               0.000000000              -0.476429749              -0.237556056               0.000000000              -0.500000000              -0.250000000               0.000000000              -0.117295528              -0.062695766               0.000000000              -0.141214558              -0.078308531               0.000000000              -0.165133587              -0.093921295               0.000000000              -0.189052617              -0.109534060               0.000000000              -0.212971646              -0.125146824               0.000000000              -0.236890676              -0.140759589               0.000000000              -0.260809705              -0.156372354               0.000000000              -0.284728735              -0.171985118               0.000000000              -0.308647764              -0.187597883               0.000000000              -0.332566794              -0.203210648               0.000000000              -0.356485823              -0.218823412               0.000000000              -0.380404853              -0.234436177               0.000000000              -0.404323882              -0.250048941               0.000000000              -0.428242912              -0.265661706               0.000000000              -0.452161941              -0.281274471               0.000000000              -0.476080971              -0.296887235               0.000000000              -0.500000000              -0.312500000               0.000000000              -0.110585458              -0.073890841               0.000000000              -0.134923867              -0.092710163               0.000000000              -0.159262276              -0.111529486               0.000000000              -0.183600685              -0.130348808               0.000000000              -0.207939094              -0.149168131               0.000000000              -0.232277503              -0.167987453               0.000000000              -0.256615912              -0.186806776               0.000000000              -0.280954320              -0.205626098               0.000000000              -0.305292729              -0.224445420               0.000000000              -0.329631138              -0.243264743               0.000000000              -0.353969547              -0.262084065               0.000000000              -0.378307956              -0.280903388               0.000000000              -0.402646365              -0.299722710               0.000000000              -0.426984773              -0.318542033               0.000000000              -0.451323182              -0.337361355               0.000000000              -0.475661591              -0.356180678               0.000000000              -0.500000000              -0.375000000               0.000000000              -0.102810390              -0.084374307               0.000000000              -0.127634741              -0.106444663               0.000000000              -0.152459092              -0.128515018               0.000000000              -0.177283442              -0.150585374               0.000000000              -0.202107793              -0.172655730               0.000000000              -0.226932143              -0.194726086               0.000000000              -0.251756494              -0.216796442               0.000000000              -0.276580845              -0.238866798               0.000000000              -0.301405195              -0.260937153               0.000000000              -0.326229546              -0.283007509               0.000000000              -0.351053896              -0.305077865               0.000000000              -0.375878247              -0.327148221               0.000000000              -0.400702598              -0.349218577               0.000000000              -0.425526948              -0.371288933               0.000000000              -0.450351299              -0.393359288               0.000000000              -0.475175649              -0.415429644               0.000000000              -0.500000000              -0.437500000               0.000000000              -0.094045202              -0.094045202               0.000000000              -0.119417377              -0.119417377               0.000000000              -0.144789552              -0.144789552               0.000000000              -0.170161727              -0.170161727               0.000000000              -0.195533901              -0.195533901               0.000000000              -0.220906076              -0.220906076               0.000000000              -0.246278251              -0.246278251               0.000000000              -0.271650426              -0.271650426               0.000000000              -0.297022601              -0.297022601               0.000000000              -0.322394776              -0.322394776               0.000000000              -0.347766951              -0.347766951               0.000000000              -0.373139126              -0.373139126               0.000000000              -0.398511300              -0.398511300               0.000000000              -0.423883475              -0.423883475               0.000000000              -0.449255650              -0.449255650               0.000000000              -0.474627825              -0.474627825               0.000000000              -0.500000000              -0.500000000               0.000000000              -0.084374307              -0.102810390               0.000000000              -0.106444663              -0.127634741               0.000000000              -0.128515018              -0.152459092               0.000000000              -0.150585374              -0.177283442               0.000000000              -0.172655730              -0.202107793               0.000000000              -0.194726086              -0.226932143               0.000000000              -0.216796442              -0.251756494               0.000000000              -0.238866798              -0.276580845               0.000000000              -0.260937153              -0.301405195               0.000000000              -0.283007509              -0.326229546               0.000000000              -0.305077865              -0.351053896               0.000000000              -0.327148221              -0.375878247               0.000000000              -0.349218577              -0.400702598               0.000000000              -0.371288933              -0.425526948               0.000000000              -0.393359288              -0.450351299               0.000000000              -0.415429644              -0.475175649               0.000000000              -0.437500000              -0.500000000               0.000000000              -0.073890841              -0.110585458               0.000000000              -0.092710163              -0.134923867               0.000000000              -0.111529486              -0.159262276               0.000000000              -0.130348808              -0.183600685               0.000000000              -0.149168131              -0.207939094               0.000000000              -0.167987453              -0.232277503               0.000000000              -0.186806776              -0.256615912               0.000000000              -0.205626098              -0.280954320               0.000000000              -0.224445420              -0.305292729               0.000000000              -0.243264743              -0.329631138               0.000000000              -0.262084065              -0.353969547               0.000000000              -0.280903388              -0.378307956               0.000000000              -0.299722710              -0.402646365               0.000000000              -0.318542033              -0.426984773               0.000000000              -0.337361355              -0.451323182               0.000000000              -0.356180678              -0.475661591               0.000000000              -0.375000000              -0.500000000               0.000000000              -0.062695766              -0.117295528               0.000000000              -0.078308531              -0.141214558               0.000000000              -0.093921295              -0.165133587               0.000000000              -0.109534060              -0.189052617               0.000000000              -0.125146824              -0.212971646               0.000000000              -0.140759589              -0.236890676               0.000000000              -0.156372354              -0.260809705               0.000000000              -0.171985118              -0.284728735               0.000000000              -0.187597883              -0.308647764               0.000000000              -0.203210648              -0.332566794               0.000000000              -0.218823412              -0.356485823               0.000000000              -0.234436177              -0.380404853               0.000000000              -0.250048941              -0.404323882               0.000000000              -0.265661706              -0.428242912               0.000000000              -0.281274471              -0.452161941               0.000000000              -0.296887235              -0.476080971               0.000000000              -0.312500000              -0.500000000               0.000000000              -0.050896897              -0.122875978               0.000000000              -0.063340840              -0.146446229               0.000000000              -0.075784784              -0.170016481               0.000000000              -0.088228728              -0.193586732               0.000000000              -0.100672672              -0.217156983               0.000000000              -0.113116616              -0.240727235               0.000000000              -0.125560560              -0.264297486               0.000000000              -0.138004504              -0.287867738               0.000000000              -0.150448448              -0.311437989               0.000000000              -0.162892392              -0.335008240               0.000000000              -0.175336336              -0.358578492               0.000000000              -0.187780280              -0.382148743               0.000000000              -0.200224224              -0.405718994               0.000000000              -0.212668168              -0.429289246               0.000000000              -0.225112112              -0.452859497               0.000000000              -0.237556056              -0.476429749               0.000000000              -0.250000000              -0.500000000               0.000000000              -0.038607862              -0.127273065               0.000000000              -0.047913621              -0.150568498               0.000000000              -0.057219379              -0.173863932               0.000000000              -0.066525138              -0.197159365               0.000000000              -0.075830897              -0.220454798               0.000000000              -0.085136655              -0.243750232               0.000000000              -0.094442414              -0.267045665               0.000000000              -0.103748172              -0.290341099               0.000000000              -0.113053931              -0.313636532               0.000000000              -0.122359690              -0.336931966               0.000000000              -0.131665448              -0.360227399               0.000000000              -0.140971207              -0.383522833               0.000000000              -0.150276966              -0.406818266               0.000000000              -0.159582724              -0.430113700               0.000000000              -0.168888483              -0.453409133               0.000000000              -0.178194241              -0.476704567               0.000000000              -0.187500000              -0.500000000               0.000000000              -0.025947013              -0.130444442               0.000000000              -0.032137825              -0.153541665               0.000000000              -0.038328636              -0.176638887               0.000000000              -0.044519448              -0.199736109               0.000000000              -0.050710260              -0.222833332               0.000000000              -0.056901071              -0.245930554               0.000000000              -0.063091883              -0.269027776               0.000000000              -0.069282695              -0.292124999               0.000000000              -0.075473506              -0.315222221               0.000000000              -0.081664318              -0.338319444               0.000000000              -0.087855130              -0.361416666               0.000000000              -0.094045942              -0.384513888               0.000000000              -0.100236753              -0.407611111               0.000000000              -0.106427565              -0.430708333               0.000000000              -0.112618377              -0.453805555               0.000000000              -0.118809188              -0.476902778               0.000000000              -0.125000000              -0.500000000               0.000000000              -0.013036280              -0.132359569               0.000000000              -0.016127762              -0.155337096               0.000000000              -0.019219245              -0.178314623               0.000000000              -0.022310727              -0.201292150               0.000000000              -0.025402210              -0.224269676               0.000000000              -0.028493692              -0.247247203               0.000000000              -0.031585175              -0.270224730               0.000000000              -0.034676657              -0.293202257               0.000000000              -0.037768140              -0.316179784               0.000000000              -0.040859622              -0.339157311               0.000000000              -0.043951105              -0.362134838               0.000000000              -0.047042587              -0.385112365               0.000000000              -0.050134070              -0.408089892               0.000000000              -0.053225552              -0.431067419               0.000000000              -0.056317035              -0.454044946               0.000000000              -0.059408517              -0.477022473               0.000000000              -0.062500000              -0.500000000               0.000000000               0.000000000              -0.133000000               0.000000000               0.000000000              -0.155937500               0.000000000               0.000000000              -0.178875000               0.000000000               0.000000000              -0.201812500               0.000000000               0.000000000              -0.224750000               0.000000000               0.000000000              -0.247687500               0.000000000               0.000000000              -0.270625000               0.000000000               0.000000000              -0.293562500               0.000000000               0.000000000              -0.316500000               0.000000000               0.000000000              -0.339437500               0.000000000               0.000000000              -0.362375000               0.000000000               0.000000000              -0.385312500               0.000000000               0.000000000              -0.408250000               0.000000000               0.000000000              -0.431187500               0.000000000               0.000000000              -0.454125000               0.000000000               0.000000000              -0.477062500               0.000000000               0.000000000              -0.500000000               0.000000000              -0.133000000               0.000000000               0.000000000              -0.155937500               0.000000000               0.000000000              -0.178875000               0.000000000               0.000000000              -0.201812500               0.000000000               0.000000000              -0.224750000               0.000000000               0.000000000              -0.247687500               0.000000000               0.000000000              -0.270625000               0.000000000               0.000000000              -0.293562500               0.000000000               0.000000000              -0.316500000               0.000000000               0.000000000              -0.339437500               0.000000000               0.000000000              -0.362375000               0.000000000               0.000000000              -0.385312500               0.000000000               0.000000000              -0.408250000               0.000000000               0.000000000              -0.431187500               0.000000000               0.000000000              -0.454125000               0.000000000               0.000000000              -0.477062500               0.000000000               0.000000000              -0.500000000               0.000000000               0.000000000              -0.132359569               0.013036280               0.000000000              -0.155337096               0.016127762               0.000000000              -0.178314623               0.019219245               0.000000000              -0.201292150               0.022310727               0.000000000              -0.224269676               0.025402210               0.000000000              -0.247247203               0.028493692               0.000000000              -0.270224730               0.031585175               0.000000000              -0.293202257               0.034676657               0.000000000              -0.316179784               0.037768140               0.000000000              -0.339157311               0.040859622               0.000000000              -0.362134838               0.043951105               0.000000000              -0.385112365               0.047042587               0.000000000              -0.408089892               0.050134070               0.000000000              -0.431067419               0.053225552               0.000000000              -0.454044946               0.056317035               0.000000000              -0.477022473               0.059408517               0.000000000              -0.500000000               0.062500000               0.000000000              -0.130444442               0.025947013               0.000000000              -0.153541665               0.032137825               0.000000000              -0.176638887               0.038328636               0.000000000              -0.199736109               0.044519448               0.000000000              -0.222833332               0.050710260               0.000000000              -0.245930554               0.056901071               0.000000000              -0.269027776               0.063091883               0.000000000              -0.292124999               0.069282695               0.000000000              -0.315222221               0.075473506               0.000000000              -0.338319444               0.081664318               0.000000000              -0.361416666               0.087855130               0.000000000              -0.384513888               0.094045942               0.000000000              -0.407611111               0.100236753               0.000000000              -0.430708333               0.106427565               0.000000000              -0.453805555               0.112618377               0.000000000              -0.476902778               0.118809188               0.000000000              -0.500000000               0.125000000               0.000000000              -0.127273065               0.038607862               0.000000000              -0.150568498               0.047913621               0.000000000              -0.173863932               0.057219379               0.000000000              -0.197159365               0.066525138               0.000000000              -0.220454798               0.075830897               0.000000000              -0.243750232               0.085136655               0.000000000              -0.267045665               0.094442414               0.000000000              -0.290341099               0.103748172               0.000000000              -0.313636532               0.113053931               0.000000000              -0.336931966               0.122359690               0.000000000              -0.360227399               0.131665448               0.000000000              -0.383522833               0.140971207               0.000000000              -0.406818266               0.150276966               0.000000000              -0.430113700               0.159582724               0.000000000              -0.453409133               0.168888483               0.000000000              -0.476704567               0.178194241               0.000000000              -0.500000000               0.187500000               0.000000000              -0.122875978               0.050896897               0.000000000              -0.146446229               0.063340840               0.000000000              -0.170016481               0.075784784               0.000000000              -0.193586732               0.088228728               0.000000000              -0.217156983               0.100672672               0.000000000              -0.240727235               0.113116616               0.000000000              -0.264297486               0.125560560               0.000000000              -0.287867738               0.138004504               0.000000000              -0.311437989               0.150448448               0.000000000              -0.335008240               0.162892392               0.000000000              -0.358578492               0.175336336               0.000000000              -0.382148743               0.187780280               0.000000000              -0.405718994               0.200224224               0.000000000              -0.429289246               0.212668168               0.000000000              -0.452859497               0.225112112               0.000000000              -0.476429749               0.237556056               0.000000000              -0.500000000               0.250000000               0.000000000              -0.117295528               0.062695766               0.000000000              -0.141214558               0.078308531               0.000000000              -0.165133587               0.093921295               0.000000000              -0.189052617               0.109534060               0.000000000              -0.212971646               0.125146824               0.000000000              -0.236890676               0.140759589               0.000000000              -0.260809705               0.156372354               0.000000000              -0.284728735               0.171985118               0.000000000              -0.308647764               0.187597883               0.000000000              -0.332566794               0.203210648               0.000000000              -0.356485823               0.218823412               0.000000000              -0.380404853               0.234436177               0.000000000              -0.404323882               0.250048941               0.000000000              -0.428242912               0.265661706               0.000000000              -0.452161941               0.281274471               0.000000000              -0.476080971               0.296887235               0.000000000              -0.500000000               0.312500000               0.000000000              -0.110585458               0.073890841               0.000000000              -0.134923867               0.092710163               0.000000000              -0.159262276               0.111529486               0.000000000              -0.183600685               0.130348808               0.000000000              -0.207939094               0.149168131               0.000000000              -0.232277503               0.167987453               0.000000000              -0.256615912               0.186806776               0.000000000              -0.280954320               0.205626098               0.000000000              -0.305292729               0.224445420               0.000000000              -0.329631138               0.243264743               0.000000000              -0.353969547               0.262084065               0.000000000              -0.378307956               0.280903388               0.000000000              -0.402646365               0.299722710               0.000000000              -0.426984773               0.318542033               0.000000000              -0.451323182               0.337361355               0.000000000              -0.475661591               0.356180678               0.000000000              -0.500000000               0.375000000               0.000000000              -0.102810390               0.084374307               0.000000000              -0.127634741               0.106444663               0.000000000              -0.152459092               0.128515018               0.000000000              -0.177283442               0.150585374               0.000000000              -0.202107793               0.172655730               0.000000000              -0.226932143               0.194726086               0.000000000              -0.251756494               0.216796442               0.000000000              -0.276580845               0.238866798               0.000000000              -0.301405195               0.260937153               0.000000000              -0.326229546               0.283007509               0.000000000              -0.351053896               0.305077865               0.000000000              -0.375878247               0.327148221               0.000000000              -0.400702598               0.349218577               0.000000000              -0.425526948               0.371288933               0.000000000              -0.450351299               0.393359288               0.000000000              -0.475175649               0.415429644               0.000000000              -0.500000000               0.437500000               0.000000000              -0.094045202               0.094045202               0.000000000              -0.119417377               0.119417377               0.000000000              -0.144789552               0.144789552               0.000000000              -0.170161727               0.170161727               0.000000000              -0.195533901               0.195533901               0.000000000              -0.220906076               0.220906076               0.000000000              -0.246278251               0.246278251               0.000000000              -0.271650426               0.271650426               0.000000000              -0.297022601               0.297022601               0.000000000              -0.322394776               0.322394776               0.000000000              -0.347766951               0.347766951               0.000000000              -0.373139126               0.373139126               0.000000000              -0.398511300               0.398511300               0.000000000              -0.423883475               0.423883475               0.000000000              -0.449255650               0.449255650               0.000000000              -0.474627825               0.474627825               0.000000000              -0.500000000               0.500000000               0.000000000              -0.084374307               0.102810390               0.000000000              -0.106444663               0.127634741               0.000000000              -0.128515018               0.152459092               0.000000000              -0.150585374               0.177283442               0.000000000              -0.172655730               0.202107793               0.000000000              -0.194726086               0.226932143               0.000000000              -0.216796442               0.251756494               0.000000000              -0.238866798               0.276580845               0.000000000              -0.260937153               0.301405195               0.000000000              -0.283007509               0.326229546               0.000000000              -0.305077865               0.351053896               0.000000000              -0.327148221               0.375878247               0.000000000              -0.349218577               0.400702598               0.000000000              -0.371288933               0.425526948               0.000000000              -0.393359288               0.450351299               0.000000000              -0.415429644               0.475175649               0.000000000              -0.437500000               0.500000000               0.000000000              -0.073890841               0.110585458               0.000000000              -0.092710163               0.134923867               0.000000000              -0.111529486               0.159262276               0.000000000              -0.130348808               0.183600685               0.000000000              -0.149168131               0.207939094               0.000000000              -0.167987453               0.232277503               0.000000000              -0.186806776               0.256615912               0.000000000              -0.205626098               0.280954320               0.000000000              -0.224445420               0.305292729               0.000000000              -0.243264743               0.329631138               0.000000000              -0.262084065               0.353969547               0.000000000              -0.280903388               0.378307956               0.000000000              -0.299722710               0.402646365               0.000000000              -0.318542033               0.426984773               0.000000000              -0.337361355               0.451323182               0.000000000              -0.356180678               0.475661591               0.000000000              -0.375000000               0.500000000               0.000000000              -0.062695766               0.117295528               0.000000000              -0.078308531               0.141214558               0.000000000              -0.093921295               0.165133587               0.000000000              -0.109534060               0.189052617               0.000000000              -0.125146824               0.212971646               0.000000000              -0.140759589               0.236890676               0.000000000              -0.156372354               0.260809705               0.000000000              -0.171985118               0.284728735               0.000000000              -0.187597883               0.308647764               0.000000000              -0.203210648               0.332566794               0.000000000              -0.218823412               0.356485823               0.000000000              -0.234436177               0.380404853               0.000000000              -0.250048941               0.404323882               0.000000000              -0.265661706               0.428242912               0.000000000              -0.281274471               0.452161941               0.000000000              -0.296887235               0.476080971               0.000000000              -0.312500000               0.500000000               0.000000000              -0.050896897               0.122875978               0.000000000              -0.063340840               0.146446229               0.000000000              -0.075784784               0.170016481               0.000000000              -0.088228728               0.193586732               0.000000000              -0.100672672               0.217156983               0.000000000              -0.113116616               0.240727235               0.000000000              -0.125560560               0.264297486               0.000000000              -0.138004504               0.287867738               0.000000000              -0.150448448               0.311437989               0.000000000              -0.162892392               0.335008240               0.000000000              -0.175336336               0.358578492               0.000000000              -0.187780280               0.382148743               0.000000000              -0.200224224               0.405718994               0.000000000              -0.212668168               0.429289246               0.000000000              -0.225112112               0.452859497               0.000000000              -0.237556056               0.476429749               0.000000000              -0.250000000               0.500000000               0.000000000              -0.038607862               0.127273065               0.000000000              -0.047913621               0.150568498               0.000000000              -0.057219379               0.173863932               0.000000000              -0.066525138               0.197159365               0.000000000              -0.075830897               0.220454798               0.000000000              -0.085136655               0.243750232               0.000000000              -0.094442414               0.267045665               0.000000000              -0.103748172               0.290341099               0.000000000              -0.113053931               0.313636532               0.000000000              -0.122359690               0.336931966               0.000000000              -0.131665448               0.360227399               0.000000000              -0.140971207               0.383522833               0.000000000              -0.150276966               0.406818266               0.000000000              -0.159582724               0.430113700               0.000000000              -0.168888483               0.453409133               0.000000000              -0.178194241               0.476704567               0.000000000              -0.187500000               0.500000000               0.000000000              -0.025947013               0.130444442               0.000000000              -0.032137825               0.153541665               0.000000000              -0.038328636               0.176638887               0.000000000              -0.044519448               0.199736109               0.000000000              -0.050710260               0.222833332               0.000000000              -0.056901071               0.245930554               0.000000000              -0.063091883               0.269027776               0.000000000              -0.069282695               0.292124999               0.000000000              -0.075473506               0.315222221               0.000000000              -0.081664318               0.338319444               0.000000000              -0.087855130               0.361416666               0.000000000              -0.094045942               0.384513888               0.000000000              -0.100236753               0.407611111               0.000000000              -0.106427565               0.430708333               0.000000000              -0.112618377               0.453805555               0.000000000              -0.118809188               0.476902778               0.000000000              -0.125000000               0.500000000               0.000000000              -0.013036280               0.132359569               0.000000000              -0.016127762               0.155337096               0.000000000              -0.019219245               0.178314623               0.000000000              -0.022310727               0.201292150               0.000000000              -0.025402210               0.224269676               0.000000000              -0.028493692               0.247247203               0.000000000              -0.031585175               0.270224730               0.000000000              -0.034676657               0.293202257               0.000000000              -0.037768140               0.316179784               0.000000000              -0.040859622               0.339157311               0.000000000              -0.043951105               0.362134838               0.000000000              -0.047042587               0.385112365               0.000000000              -0.050134070               0.408089892               0.000000000              -0.053225552               0.431067419               0.000000000              -0.056317035               0.454044946               0.000000000              -0.059408517               0.477022473               0.000000000              -0.062500000               0.500000000               0.000000000               0.000000000               0.133000000               0.000000000               0.000000000               0.155937500               0.000000000               0.000000000               0.178875000               0.000000000               0.000000000               0.201812500               0.000000000               0.000000000               0.224750000               0.000000000               0.000000000               0.247687500               0.000000000               0.000000000               0.270625000               0.000000000               0.000000000               0.293562500               0.000000000               0.000000000               0.316500000               0.000000000               0.000000000               0.339437500               0.000000000               0.000000000               0.362375000               0.000000000               0.000000000               0.385312500               0.000000000               0.000000000               0.408250000               0.000000000               0.000000000               0.431187500               0.000000000               0.000000000               0.454125000               0.000000000               0.000000000               0.477062500               0.000000000               0.000000000               0.500000000               0.000000000 </DataArray>
</Points>
<Cells>
<DataArray type="Int32"                                    Name="connectivity"                                                      NumberOfComponents=" 1" format="ascii">
         0          1         18         17          1          2         19         18          2          3         20         19          3          4         21         20          4          5         22         21          5          6         23         22          6          7         24         23          7          8         25         24          8          9         26         25          9         10         27         26         10         11         28         27         11         12         29         28         12         13         30         29         13         14         31         30         14         15         32         31         15         16         33         32         17         18         35         34         18         19         36         35         19         20         37         36         20         21         38         37         21         22         39         38         22         23         40         39         23         24         41         40         24         25         42         41         25         26         43         42         26         27         44         43         27         28         45         44         28         29         46         45         29         30         47         46         30         31         48         47         31         32         49         48         32         33         50         49         34         35         52         51         35         36         53         52         36         37         54         53         37         38         55         54         38         39         56         55         39         40         57         56         40         41         58         57         41         42         59         58         42         43         60         59         43         44         61         60         44         45         62         61         45         46         63         62         46         47         64         63         47         48         65         64         48         49         66         65         49         50         67         66         51         52         69         68         52         53         70         69         53         54         71         70         54         55         72         71         55         56         73         72         56         57         74         73         57         58         75         74         58         59         76         75         59         60         77         76         60         61         78         77         61         62         79         78         62         63         80         79         63         64         81         80         64         65         82         81         65         66         83         82         66         67         84         83         68         69         86         85         69         70         87         86         70         71         88         87         71         72         89         88         72         73         90         89         73         74         91         90         74         75         92         91         75         76         93         92         76         77         94         93         77         78         95         94         78         79         96         95         79         80         97         96         80         81         98         97         81         82         99         98         82         83        100         99         83         84        101        100         85         86        103        102         86         87        104        103         87         88        105        104         88         89        106        105         89         90        107        106         90         91        108        107         91         92        109        108         92         93        110        109         93         94        111        110         94         95        112        111         95         96        113        112         96         97        114        113         97         98        115        114         98         99        116        115         99        100        117        116        100        101        118        117        102        103        120        119        103        104        121        120        104        105        122        121        105        106        123        122        106        107        124        123        107        108        125        124        108        109        126        125        109        110        127        126        110        111        128        127        111        112        129        128        112        113        130        129        113        114        131        130        114        115        132        131        115        116        133        132        116        117        134        133        117        118        135        134        119        120        137        136        120        121        138        137        121        122        139        138        122        123        140        139        123        124        141        140        124        125        142        141        125        126        143        142        126        127        144        143        127        128        145        144        128        129        146        145        129        130        147        146        130        131        148        147        131        132        149        148        132        133        150        149        133        134        151        150        134        135        152        151        136        137        154        153        137        138        155        154        138        139        156        155        139        140        157        156        140        141        158        157        141        142        159        158        142        143        160        159        143        144        161        160        144        145        162        161        145        146        163        162        146        147        164        163        147        148        165        164        148        149        166        165        149        150        167        166        150        151        168        167        151        152        169        168        153        154        171        170        154        155        172        171        155        156        173        172        156        157        174        173        157        158        175        174        158        159        176        175        159        160        177        176        160        161        178        177        161        162        179        178        162        163        180        179        163        164        181        180        164        165        182        181        165        166        183        182        166        167        184        183        167        168        185        184        168        169        186        185        170        171        188        187        171        172        189        188        172        173        190        189        173        174        191        190        174        175        192        191        175        176        193        192        176        177        194        193        177        178        195        194        178        179        196        195        179        180        197        196        180        181        198        197        181        182        199        198        182        183        200        199        183        184        201        200        184        185        202        201        185        186        203        202        187        188        205        204        188        189        206        205        189        190        207        206        190        191        208        207        191        192        209        208        192        193        210        209        193        194        211        210        194        195        212        211        195        196        213        212        196        197        214        213        197        198        215        214        198        199        216        215        199        200        217        216        200        201        218        217        201        202        219        218        202        203        220        219        204        205        222        221        205        206        223        222        206        207        224        223        207        208        225        224        208        209        226        225        209        210        227        226        210        211        228        227        211        212        229        228        212        213        230        229        213        214        231        230        214        215        232        231        215        216        233        232        216        217        234        233        217        218        235        234        218        219        236        235        219        220        237        236        221        222        239        238        222        223        240        239        223        224        241        240        224        225        242        241        225        226        243        242        226        227        244        243        227        228        245        244        228        229        246        245        229        230        247        246        230        231        248        247        231        232        249        248        232        233        250        249        233        234        251        250        234        235        252        251        235        236        253        252        236        237        254        253        238        239        256        255        239        240        257        256        240        241        258        257        241        242        259        258        242        243        260        259        243        244        261        260        244        245        262        261        245        246        263        262        246        247        264        263        247        248        265        264        248        249        266        265        249        250        267        266        250        251        268        267        251        252        269        268        252        253        270        269        253        254        271        270        255        256        273        272        256        257        274        273        257        258        275        274        258        259        276        275        259        260        277        276        260        261        278        277        261        262        279        278        262        263        280        279        263        264        281        280        264        265        282        281        265        266        283        282        266        267        284        283        267        268        285        284        268        269        286        285        269        270        287        286        270        271        288        287        306        307          1          0        307        308          2          1        308        309          3          2        309        310          4          3        310        311          5          4        311        312          6          5        312        313          7          6        313        314          8          7        314        315          9          8        315        316         10          9        316        317         11         10        317        318         12         11        318        319         13         12        319        320         14         13        320        321         15         14        321        322         16         15        323        324        307        306        324        325        308        307        325        326        309        308        326        327        310        309        327        328        311        310        328        329        312        311        329        330        313        312        330        331        314        313        331        332        315        314        332        333        316        315        333        334        317        316        334        335        318        317        335        336        319        318        336        337        320        319        337        338        321        320        338        339        322        321        340        341        324        323        341        342        325        324        342        343        326        325        343        344        327        326        344        345        328        327        345        346        329        328        346        347        330        329        347        348        331        330        348        349        332        331        349        350        333        332        350        351        334        333        351        352        335        334        352        353        336        335        353        354        337        336        354        355        338        337        355        356        339        338        357        358        341        340        358        359        342        341        359        360        343        342        360        361        344        343        361        362        345        344        362        363        346        345        363        364        347        346        364        365        348        347        365        366        349        348        366        367        350        349        367        368        351        350        368        369        352        351        369        370        353        352        370        371        354        353        371        372        355        354        372        373        356        355        374        375        358        357        375        376        359        358        376        377        360        359        377        378        361        360        378        379        362        361        379        380        363        362        380        381        364        363        381        382        365        364        382        383        366        365        383        384        367        366        384        385        368        367        385        386        369        368        386        387        370        369        387        388        371        370        388        389        372        371        389        390        373        372        391        392        375        374        392        393        376        375        393        394        377        376        394        395        378        377        395        396        379        378        396        397        380        379        397        398        381        380        398        399        382        381        399        400        383        382        400        401        384        383        401        402        385        384        402        403        386        385        403        404        387        386        404        405        388        387        405        406        389        388        406        407        390        389        408        409        392        391        409        410        393        392        410        411        394        393        411        412        395        394        412        413        396        395        413        414        397        396        414        415        398        397        415        416        399        398        416        417        400        399        417        418        401        400        418        419        402        401        419        420        403        402        420        421        404        403        421        422        405        404        422        423        406        405        423        424        407        406        425        426        409        408        426        427        410        409        427        428        411        410        428        429        412        411        429        430        413        412        430        431        414        413        431        432        415        414        432        433        416        415        433        434        417        416        434        435        418        417        435        436        419        418        436        437        420        419        437        438        421        420        438        439        422        421        439        440        423        422        440        441        424        423        442        443        426        425        443        444        427        426        444        445        428        427        445        446        429        428        446        447        430        429        447        448        431        430        448        449        432        431        449        450        433        432        450        451        434        433        451        452        435        434        452        453        436        435        453        454        437        436        454        455        438        437        455        456        439        438        456        457        440        439        457        458        441        440        459        460        443        442        460        461        444        443        461        462        445        444        462        463        446        445        463        464        447        446        464        465        448        447        465        466        449        448        466        467        450        449        467        468        451        450        468        469        452        451        469        470        453        452        470        471        454        453        471        472        455        454        472        473        456        455        473        474        457        456        474        475        458        457        476        477        460        459        477        478        461        460        478        479        462        461        479        480        463        462        480        481        464        463        481        482        465        464        482        483        466        465        483        484        467        466        484        485        468        467        485        486        469        468        486        487        470        469        487        488        471        470        488        489        472        471        489        490        473        472        490        491        474        473        491        492        475        474        493        494        477        476        494        495        478        477        495        496        479        478        496        497        480        479        497        498        481        480        498        499        482        481        499        500        483        482        500        501        484        483        501        502        485        484        502        503        486        485        503        504        487        486        504        505        488        487        505        506        489        488        506        507        490        489        507        508        491        490        508        509        492        491        510        511        494        493        511        512        495        494        512        513        496        495        513        514        497        496        514        515        498        497        515        516        499        498        516        517        500        499        517        518        501        500        518        519        502        501        519        520        503        502        520        521        504        503        521        522        505        504        522        523        506        505        523        524        507        506        524        525        508        507        525        526        509        508        527        528        511        510        528        529        512        511        529        530        513        512        530        531        514        513        531        532        515        514        532        533        516        515        533        534        517        516        534        535        518        517        535        536        519        518        536        537        520        519        537        538        521        520        538        539        522        521        539        540        523        522        540        541        524        523        541        542        525        524        542        543        526        525        544        545        528        527        545        546        529        528        546        547        530        529        547        548        531        530        548        549        532        531        549        550        533        532        550        551        534        533        551        552        535        534        552        553        536        535        553        554        537        536        554        555        538        537        555        556        539        538        556        557        540        539        557        558        541        540        558        559        542        541        559        560        543        542        561        562        545        544        562        563        546        545        563        564        547        546        564        565        548        547        565        566        549        548        566        567        550        549        567        568        551        550        568        569        552        551        569        570        553        552        570        571        554        553        571        572        555        554        572        573        556        555        573        574        557        556        574        575        558        557        575        576        559        558        576        577        560        559        578        579        596        595        579        580        597        596        580        581        598        597        581        582        599        598        582        583        600        599        583        584        601        600        584        585        602        601        585        586        603        602        586        587        604        603        587        588        605        604        588        589        606        605        589        590        607        606        590        591        608        607        591        592        609        608        592        593        610        609        593        594        611        610        595        596        613        612        596        597        614        613        597        598        615        614        598        599        616        615        599        600        617        616        600        601        618        617        601        602        619        618        602        603        620        619        603        604        621        620        604        605        622        621        605        606        623        622        606        607        624        623        607        608        625        624        608        609        626        625        609        610        627        626        610        611        628        627        612        613        630        629        613        614        631        630        614        615        632        631        615        616        633        632        616        617        634        633        617        618        635        634        618        619        636        635        619        620        637        636        620        621        638        637        621        622        639        638        622        623        640        639        623        624        641        640        624        625        642        641        625        626        643        642        626        627        644        643        627        628        645        644        629        630        647        646        630        631        648        647        631        632        649        648        632        633        650        649        633        634        651        650        634        635        652        651        635        636        653        652        636        637        654        653        637        638        655        654        638        639        656        655        639        640        657        656        640        641        658        657        641        642        659        658        642        643        660        659        643        644        661        660        644        645        662        661        646        647        664        663        647        648        665        664        648        649        666        665        649        650        667        666        650        651        668        667        651        652        669        668        652        653        670        669        653        654        671        670        654        655        672        671        655        656        673        672        656        657        674        673        657        658        675        674        658        659        676        675        659        660        677        676        660        661        678        677        661        662        679        678        663        664        681        680        664        665        682        681        665        666        683        682        666        667        684        683        667        668        685        684        668        669        686        685        669        670        687        686        670        671        688        687        671        672        689        688        672        673        690        689        673        674        691        690        674        675        692        691        675        676        693        692        676        677        694        693        677        678        695        694        678        679        696        695        680        681        698        697        681        682        699        698        682        683        700        699        683        684        701        700        684        685        702        701        685        686        703        702        686        687        704        703        687        688        705        704        688        689        706        705        689        690        707        706        690        691        708        707        691        692        709        708        692        693        710        709        693        694        711        710        694        695        712        711        695        696        713        712        697        698        715        714        698        699        716        715        699        700        717        716        700        701        718        717        701        702        719        718        702        703        720        719        703        704        721        720        704        705        722        721        705        706        723        722        706        707        724        723        707        708        725        724        708        709        726        725        709        710        727        726        710        711        728        727        711        712        729        728        712        713        730        729        714        715        732        731        715        716        733        732        716        717        734        733        717        718        735        734        718        719        736        735        719        720        737        736        720        721        738        737        721        722        739        738        722        723        740        739        723        724        741        740        724        725        742        741        725        726        743        742        726        727        744        743        727        728        745        744        728        729        746        745        729        730        747        746        731        732        749        748        732        733        750        749        733        734        751        750        734        735        752        751        735        736        753        752        736        737        754        753        737        738        755        754        738        739        756        755        739        740        757        756        740        741        758        757        741        742        759        758        742        743        760        759        743        744        761        760        744        745        762        761        745        746        763        762        746        747        764        763        748        749        766        765        749        750        767        766        750        751        768        767        751        752        769        768        752        753        770        769        753        754        771        770        754        755        772        771        755        756        773        772        756        757        774        773        757        758        775        774        758        759        776        775        759        760        777        776        760        761        778        777        761        762        779        778        762        763        780        779        763        764        781        780        765        766        783        782        766        767        784        783        767        768        785        784        768        769        786        785        769        770        787        786        770        771        788        787        771        772        789        788        772        773        790        789        773        774        791        790        774        775        792        791        775        776        793        792        776        777        794        793        777        778        795        794        778        779        796        795        779        780        797        796        780        781        798        797        782        783        800        799        783        784        801        800        784        785        802        801        785        786        803        802        786        787        804        803        787        788        805        804        788        789        806        805        789        790        807        806        790        791        808        807        791        792        809        808        792        793        810        809        793        794        811        810        794        795        812        811        795        796        813        812        796        797        814        813        797        798        815        814        799        800        817        816        800        801        818        817        801        802        819        818        802        803        820        819        803        804        821        820        804        805        822        821        805        806        823        822        806        807        824        823        807        808        825        824        808        809        826        825        809        810        827        826        810        811        828        827        811        812        829        828        812        813        830        829        813        814        831        830        814        815        832        831        816        817        834        833        817        818        835        834        818        819        836        835        819        820        837        836        820        821        838        837        821        822        839        838        822        823        840        839        823        824        841        840        824        825        842        841        825        826        843        842        826        827        844        843        827        828        845        844        828        829        846        845        829        830        847        846        830        831        848        847        831        832        849        848        833        834        562        561        834        835        563        562        835        836        564        563        836        837        565        564        837        838        566        565        838        839        567        566        839        840        568        567        840        841        569        568        841        842        570        569        842        843        571        570        843        844        572        571        844        845        573        572        845        846        574        573        846        847        575        574        847        848        576        575        848        849        577        576        884        885        579        578        885        886        580        579        886        887        581        580        887        888        582        581        888        889        583        582        889        890        584        583        890        891        585        584        891        892        586        585        892        893        587        586        893        894        588        587        894        895        589        588        895        896        590        589        896        897        591        590        897        898        592        591        898        899        593        592        899        900        594        593        901        902        885        884        902        903        886        885        903        904        887        886        904        905        888        887        905        906        889        888        906        907        890        889        907        908        891        890        908        909        892        891        909        910        893        892        910        911        894        893        911        912        895        894        912        913        896        895        913        914        897        896        914        915        898        897        915        916        899        898        916        917        900        899        918        919        902        901        919        920        903        902        920        921        904        903        921        922        905        904        922        923        906        905        923        924        907        906        924        925        908        907        925        926        909        908        926        927        910        909        927        928        911        910        928        929        912        911        929        930        913        912        930        931        914        913        931        932        915        914        932        933        916        915        933        934        917        916        935        936        919        918        936        937        920        919        937        938        921        920        938        939        922        921        939        940        923        922        940        941        924        923        941        942        925        924        942        943        926        925        943        944        927        926        944        945        928        927        945        946        929        928        946        947        930        929        947        948        931        930        948        949        932        931        949        950        933        932        950        951        934        933        952        953        936        935        953        954        937        936        954        955        938        937        955        956        939        938        956        957        940        939        957        958        941        940        958        959        942        941        959        960        943        942        960        961        944        943        961        962        945        944        962        963        946        945        963        964        947        946        964        965        948        947        965        966        949        948        966        967        950        949        967        968        951        950        969        970        953        952        970        971        954        953        971        972        955        954        972        973        956        955        973        974        957        956        974        975        958        957        975        976        959        958        976        977        960        959        977        978        961        960        978        979        962        961        979        980        963        962        980        981        964        963        981        982        965        964        982        983        966        965        983        984        967        966        984        985        968        967        986        987        970        969        987        988        971        970        988        989        972        971        989        990        973        972        990        991        974        973        991        992        975        974        992        993        976        975        993        994        977        976        994        995        978        977        995        996        979        978        996        997        980        979        997        998        981        980        998        999        982        981        999       1000        983        982       1000       1001        984        983       1001       1002        985        984       1003       1004        987        986       1004       1005        988        987       1005       1006        989        988       1006       1007        990        989       1007       1008        991        990       1008       1009        992        991       1009       1010        993        992       1010       1011        994        993       1011       1012        995        994       1012       1013        996        995       1013       1014        997        996       1014       1015        998        997       1015       1016        999        998       1016       1017       1000        999       1017       1018       1001       1000       1018       1019       1002       1001       1020       1021       1004       1003       1021       1022       1005       1004       1022       1023       1006       1005       1023       1024       1007       1006       1024       1025       1008       1007       1025       1026       1009       1008       1026       1027       1010       1009       1027       1028       1011       1010       1028       1029       1012       1011       1029       1030       1013       1012       1030       1031       1014       1013       1031       1032       1015       1014       1032       1033       1016       1015       1033       1034       1017       1016       1034       1035       1018       1017       1035       1036       1019       1018       1037       1038       1021       1020       1038       1039       1022       1021       1039       1040       1023       1022       1040       1041       1024       1023       1041       1042       1025       1024       1042       1043       1026       1025       1043       1044       1027       1026       1044       1045       1028       1027       1045       1046       1029       1028       1046       1047       1030       1029       1047       1048       1031       1030       1048       1049       1032       1031       1049       1050       1033       1032       1050       1051       1034       1033       1051       1052       1035       1034       1052       1053       1036       1035       1054       1055       1038       1037       1055       1056       1039       1038       1056       1057       1040       1039       1057       1058       1041       1040       1058       1059       1042       1041       1059       1060       1043       1042       1060       1061       1044       1043       1061       1062       1045       1044       1062       1063       1046       1045       1063       1064       1047       1046       1064       1065       1048       1047       1065       1066       1049       1048       1066       1067       1050       1049       1067       1068       1051       1050       1068       1069       1052       1051       1069       1070       1053       1052       1071       1072       1055       1054       1072       1073       1056       1055       1073       1074       1057       1056       1074       1075       1058       1057       1075       1076       1059       1058       1076       1077       1060       1059       1077       1078       1061       1060       1078       1079       1062       1061       1079       1080       1063       1062       1080       1081       1064       1063       1081       1082       1065       1064       1082       1083       1066       1065       1083       1084       1067       1066       1084       1085       1068       1067       1085       1086       1069       1068       1086       1087       1070       1069       1088       1089       1072       1071       1089       1090       1073       1072       1090       1091       1074       1073       1091       1092       1075       1074       1092       1093       1076       1075       1093       1094       1077       1076       1094       1095       1078       1077       1095       1096       1079       1078       1096       1097       1080       1079       1097       1098       1081       1080       1098       1099       1082       1081       1099       1100       1083       1082       1100       1101       1084       1083       1101       1102       1085       1084       1102       1103       1086       1085       1103       1104       1087       1086       1105       1106       1089       1088       1106       1107       1090       1089       1107       1108       1091       1090       1108       1109       1092       1091       1109       1110       1093       1092       1110       1111       1094       1093       1111       1112       1095       1094       1112       1113       1096       1095       1113       1114       1097       1096       1114       1115       1098       1097       1115       1116       1099       1098       1116       1117       1100       1099       1117       1118       1101       1100       1118       1119       1102       1101       1119       1120       1103       1102       1120       1121       1104       1103       1122       1123       1106       1105       1123       1124       1107       1106       1124       1125       1108       1107       1125       1126       1109       1108       1126       1127       1110       1109       1127       1128       1111       1110       1128       1129       1112       1111       1129       1130       1113       1112       1130       1131       1114       1113       1131       1132       1115       1114       1132       1133       1116       1115       1133       1134       1117       1116       1134       1135       1118       1117       1135       1136       1119       1118       1136       1137       1120       1119       1137       1138       1121       1120        272        273       1123       1122        273        274       1124       1123        274        275       1125       1124        275        276       1126       1125        276        277       1127       1126        277        278       1128       1127        278        279       1129       1128        279        280       1130       1129        280        281       1131       1130        281        282       1132       1131        282        283       1133       1132        283        284       1134       1133        284        285       1135       1134        285        286       1136       1135        286        287       1137       1136        287        288       1138       1137 </DataArray>
<DataArray type="Int32"                                    Name="offsets"                                                      NumberOfComponents=" 1" format="ascii">
         4          8         12         16         20         24         28         32         36         40         44         48         52         56         60         64         68         72         76         80         84         88         92         96        100        104        108        112        116        120        124        128        132        136        140        144        148        152        156        160        164        168        172        176        180        184        188        192        196        200        204        208        212        216        220        224        228        232        236        240        244        248        252        256        260        264        268        272        276        280        284        288        292        296        300        304        308        312        316        320        324        328        332        336        340        344        348        352        356        360        364        368        372        376        380        384        388        392        396        400        404        408        412        416        420        424        428        432        436        440        444        448        452        456        460        464        468        472        476        480        484        488        492        496        500        504        508        512        516        520        524        528        532        536        540        544        548        552        556        560        564        568        572        576        580        584        588        592        596        600        604        608        612        616        620        624        628        632        636        640        644        648        652        656        660        664        668        672        676        680        684        688        692        696        700        704        708        712        716        720        724        728        732        736        740        744        748        752        756        760        764        768        772        776        780        784        788        792        796        800        804        808        812        816        820        824        828        832        836        840        844        848        852        856        860        864        868        872        876        880        884        888        892        896        900        904        908        912        916        920        924        928        932        936        940        944        948        952        956        960        964        968        972        976        980        984        988        992        996       1000       1004       1008       1012       1016       1020       1024       1028       1032       1036       1040       1044       1048       1052       1056       1060       1064       1068       1072       1076       1080       1084       1088       1092       1096       1100       1104       1108       1112       1116       1120       1124       1128       1132       1136       1140       1144       1148       1152       1156       1160       1164       1168       1172       1176       1180       1184       1188       1192       1196       1200       1204       1208       1212       1216       1220       1224       1228       1232       1236       1240       1244       1248       1252       1256       1260       1264       1268       1272       1276       1280       1284       1288       1292       1296       1300       1304       1308       1312       1316       1320       1324       1328       1332       1336       1340       1344       1348       1352       1356       1360       1364       1368       1372       1376       1380       1384       1388       1392       1396       1400       1404       1408       1412       1416       1420       1424       1428       1432       1436       1440       1444       1448       1452       1456       1460       1464       1468       1472       1476       1480       1484       1488       1492       1496       1500       1504       1508       1512       1516       1520       1524       1528       1532       1536       1540       1544       1548       1552       1556       1560       1564       1568       1572       1576       1580       1584       1588       1592       1596       1600       1604       1608       1612       1616       1620       1624       1628       1632       1636       1640       1644       1648       1652       1656       1660       1664       1668       1672       1676       1680       1684       1688       1692       1696       1700       1704       1708       1712       1716       1720       1724       1728       1732       1736       1740       1744       1748       1752       1756       1760       1764       1768       1772       1776       1780       1784       1788       1792       1796       1800       1804       1808       1812       1816       1820       1824       1828       1832       1836       1840       1844       1848       1852       1856       1860       1864       1868       1872       1876       1880       1884       1888       1892       1896       1900       1904       1908       1912       1916       1920       1924       1928       1932       1936       1940       1944       1948       1952       1956       1960       1964       1968       1972       1976       1980       1984       1988       1992       1996       2000       2004       2008       2012       2016       2020       2024       2028       2032       2036       2040       2044       2048       2052       2056       2060       2064       2068       2072       2076       2080       2084       2088       2092       2096       2100       2104       2108       2112       2116       2120       2124       2128       2132       2136       2140       2144       2148       2152       2156       2160       2164       2168       2172       2176       2180       2184       2188       2192       2196       2200       2204       2208       2212       2216       2220       2224       2228       2232       2236       2240       2244       2248       2252       2256       2260       2264       2268       2272       2276       2280       2284       2288       2292       2296       2300       2304       2308       2312       2316       2320       2324       2328       2332       2336       2340       2344       2348       2352       2356       2360       2364       2368       2372       2376       2380       2384       2388       2392       2396       2400       2404       2408       2412       2416       2420       2424       2428       2432       2436       2440       2444       2448       2452       2456       2460       2464       2468       2472       2476       2480       2484       2488       2492       2496       2500       2504       2508       2512       2516       2520       2524       2528       2532       2536       2540       2544       2548       2552       2556       2560       2564       2568       2572       2576       2580       2584       2588       2592       2596       2600       2604       2608       2612       2616       2620       2624       2628       2632       2636       2640       2644       2648       2652       2656       2660       2664       2668       2672       2676       2680       2684       2688       2692       2696       2700       2704       2708       2712       2716       2720       2724       2728       2732       2736       2740       2744       2748       2752       2756       2760       2764       2768       2772       2776       2780       2784       2788       2792       2796       2800       2804       2808       2812       2816       2820       2824       2828       2832       2836       2840       2844       2848       2852       2856       2860       2864       2868       2872       2876       2880       2884       2888       2892       2896       2900       2904       2908       2912       2916       2920       2924       2928       2932       2936       2940       2944       2948       2952       2956       2960       2964       2968       2972       2976       2980       2984       2988       2992       2996       3000       3004       3008       3012       3016       3020       3024       3028       3032       3036       3040       3044       3048       3052       3056       3060       3064       3068       3072       3076       3080       3084       3088       3092       3096       3100       3104       3108       3112       3116       3120       3124       3128       3132       3136       3140       3144       3148       3152       3156       3160       3164       3168       3172       3176       3180       3184       3188       3192       3196       3200       3204       3208       3212       3216       3220       3224       3228       3232       3236       3240       3244       3248       3252       3256       3260       3264       3268       3272       3276       3280       3284       3288       3292       3296       3300       3304       3308       3312       3316       3320       3324       3328       3332       3336       3340       3344       3348       3352       3356       3360       3364       3368       3372       3376       3380       3384       3388       3392       3396       3400       3404       3408       3412       3416       3420       3424       3428       3432       3436       3440       3444       3448       3452       3456       3460       3464       3468       3472       3476       3480       3484       3488       3492       3496       3500       3504       3508       3512       3516       3520       3524       3528       3532       3536       3540       3544       3548       3552       3556       3560       3564       3568       3572       3576       3580       3584       3588       3592       3596       3600       3604       3608       3612       3616       3620       3624       3628       3632       3636       3640       3644       3648       3652       3656       3660       3664       3668       3672       3676       3680       3684       3688       3692       3696       3700       3704       3708       3712       3716       3720       3724       3728       3732       3736       3740       3744       3748       3752       3756       3760       3764       3768       3772       3776       3780       3784       3788       3792       3796       3800       3804       3808       3812       3816       3820       3824       3828       3832       3836       3840       3844       3848       3852       3856       3860       3864       3868       3872       3876       3880       3884       3888       3892       3896       3900       3904       3908       3912       3916       3920       3924       3928       3932       3936       3940       3944       3948       3952       3956       3960       3964       3968       3972       3976       3980       3984       3988       3992       3996       4000       4004       4008       4012       4016       4020       4024       4028       4032       4036       4040       4044       4048       4052       4056       4060       4064       4068       4072       4076       4080       4084       4088       4092       4096 </DataArray>
<DataArray type="UInt8"                                    Name="types"                                                      NumberOfComponents=" 1" format="ascii">
         9          9          9          9          9          9          9          9          9          9          9          9          9          9          9          9          9          9          9          9          9          9          9          9          9          9          9          9          9          9          9          9          9          9          9          9          9          9          9          9          9          9          9          9          9          9          9          9          9          9          9          9          9          9          9          9          9          9          9          9          9          9          9          9          9          9          9          9          9          9          9          9          9          9          9          9          9          9          9          9          9          9          9          9          9          9          9          9          9          9          9          9          9          9          9          9          9          9          9          9          9          9          9          9          9          9          9          9          9          9          9          9          9          9          9          9          9          9          9          9          9          9          9          9          9          9          9          9          9          9          9          9          9          9          9          9          9          9          9          9          9          9          9          9          9          9          9          9          9          9          9          9          9          9          9          9          9          9          9          9          9          9          9          9          9          9          9          9          9          9          9          9          9          9          9          9          9          9          9          9          9          9          9          9          9          9          9          9          9          9          9          9          9          9          9          9          9          9          9          9          9          9          9          9          9          9          9          9          9          9          9          9          9          9          9          9          9          9          9          9          9          9          9          9          9          9          9          9          9          9          9          9          9          9          9          9          9          9          9          9          9          9          9          9          9          9          9          9          9          9          9          9          9          9          9          9          9          9          9          9          9          9          9          9          9          9          9          9          9          9          9          9          9          9          9          9          9          9          9          9          9          9          9          9          9          9          9          9          9          9          9          9          9          9          9          9          9          9          9          9          9          9          9          9          9          9          9          9          9          9          9          9          9          9          9          9          9          9          9          9          9          9          9          9          9          9          9          9          9          9          9          9          9          9          9          9          9          9          9          9          9          9          9          9          9          9          9          9          9          9          9          9          9          9          9          9          9          9          9          9          9          9          9          9          9          9          9          9          9          9          9          9          9          9          9          9          9          9          9          9          9          9          9          9          9          9          9          9          9          9          9          9          9          9          9          9          9          9          9          9          9          9          9          9          9          9          9          9          9          9          9          9          9          9          9          9          9          9          9          9          9          9          9          9          9          9          9          9          9          9          9          9          9          9          9          9          9          9          9          9          9          9          9          9          9          9          9          9          9          9          9          9          9          9          9          9          9          9          9          9          9          9          9          9          9          9          9          9          9          9          9          9          9          9          9          9          9          9          9          9          9          9          9          9          9          9          9          9          9          9          9          9          9          9          9          9          9          9          9          9          9          9          9          9          9          9          9          9          9          9          9          9          9          9          9          9          9          9          9          9          9          9          9          9          9          9          9          9          9          9          9          9          9          9          9          9          9          9          9          9          9          9          9          9          9          9          9          9          9          9          9          9          9          9          9          9          9          9          9          9          9          9          9          9          9          9          9          9          9          9          9          9          9          9          9          9          9          9          9          9          9          9          9          9          9          9          9          9          9          9          9          9          9          9          9          9          9          9          9          9          9          9          9          9          9          9          9          9          9          9          9          9          9          9          9          9          9          9          9          9          9          9          9          9          9          9          9          9          9          9          9          9          9          9          9          9          9          9          9          9          9          9          9          9          9          9          9          9          9          9          9          9          9          9          9          9          9          9          9          9          9          9          9          9          9          9          9          9          9          9          9          9          9          9          9          9          9          9          9          9          9          9          9          9          9          9          9          9          9          9          9          9          9          9          9          9          9          9          9          9          9          9          9          9          9          9          9          9          9          9          9          9          9          9          9          9          9          9          9          9          9          9          9          9          9          9          9          9          9          9          9          9          9          9          9          9          9          9          9          9          9          9          9          9          9          9          9          9          9          9          9          9          9          9          9          9          9          9          9          9          9          9          9          9          9          9          9          9          9          9          9          9          9          9          9          9          9          9          9          9          9          9          9          9          9          9          9          9          9          9          9          9          9          9          9          9          9          9          9          9          9          9          9          9          9          9          9          9          9          9          9          9          9          9          9          9          9          9          9          9          9          9          9          9          9          9          9          9          9          9          9          9          9          9          9          9          9          9          9          9          9          9          9          9          9          9          9          9          9          9          9          9          9          9          9          9          9          9          9          9          9          9          9          9          9          9          9          9          9          9          9          9          9          9          9          9          9          9          9          9          9          9          9          9          9          9          9          9          9          9          9          9          9          9          9          9          9          9          9          9          9          9          9          9          9          9          9          9          9          9          9          9          9          9          9          9          9          9          9          9          9          9          9          9          9          9          9          9          9          9          9          9          9          9          9          9          9          9          9          9          9          9          9          9          9          9          9          9          9          9          9          9          9          9          9          9          9          9          9          9          9          9          9          9          9          9          9          9          9          9          9          9          9          9          9          9          9          9          9          9          9          9          9          9          9          9          9          9          9          9          9          9          9          9          9          9          9          9          9          9          9          9          9          9          9          9          9          9          9          9          9          9          9          9          9          9          9          9          9          9          9          9          9          9 </DataArray>
</Cells>
<CellData>
<DataArray type="Int32"                                    Name="material"                                                      NumberOfComponents=" 1" format="ascii">
         1          1          1          1          1          1          1          1          1          1          1          1          1          1          1          1          1          1          1          1          1          1          1          1          1          1          1          1          1          1          1          1          1          1          1          1          1          1          1          1          1          1          1          1          1          1          1          1          1          1          1          1          1          1          1          1          1          1          1          1          1          1          1          1          1          1          1          1          1          1          1          1          1          1          1          1          1          1          1          1          1          1          1          1          1          1          1          1          1          1          1          1          1          1          1          1          1          1          1          1          1          1          1          1          1          1          1          1          1          1          1          1          1          1          1          1          1          1          1          1          1          1          1          1          1          1          1          1          1          1          1          1          1          1          1          1          1          1          1          1          1          1          1          1          1          1          1          1          1          1          1          1          1          1          1          1          1          1          1          1          1          1          1          1          1          1          1          1          1          1          1          1          1          1          1          1          1          1          1          1          1          1          1          1          1          1          1          1          1          1          1          1          1          1          1          1          1          1          1          1          1          1          1          1          1          1          1          1          1          1          1          1          1          1          1          1          1          1          1          1          1          1          1          1          1          1          1          1          1          1          1          1          1          1          1          1          1          1          1          1          1          1          1          1          1          1          1          1          1          1          1          1          1          1          1          1          1          1          1          1          1          1          1          1          1          1          1          1          1          1          1          1          1          1          1          1          1          1          1          1          1          1          1          1          1          1          1          1          1          1          1          1          1          1          1          1          1          1          1          1          1          1          1          1          1          1          1          1          1          1          1          1          1          1          1          1          1          1          1          1          1          1          1          1          1          1          1          1          1          1          1          1          1          1          1          1          1          1          1          1          1          1          1          1          1          1          1          1          1          1          1          1          1          1          1          1          1          1          1          1          1          1          1          1          1          1          1          1          1          1          1          1          1          1          1          1          1          1          1          1          1          1          1          1          1          1          1          1          1          1          1          1          1          1          1          1          1          1          1          1          1          1          1          1          1          1          1          1          1          1          1          1          1          1          1          1          1          1          1          1          1          1          1          1          1          1          1          1          1          1          1          1          1          1          1          1          1          1          1          1          1          1          1          1          1          1          1          1          1          1          1          1          1          1          1          1          1          1          1          1          1          1          1          1          1          1          1          1          1          1          1          1          1          1          1          1          1          1          1          1          1          1          1          1          1          1          1          1          1          1          1          1          1          1          1          1          1          1          1          1          1          1          1          1          1          1          1          1          1          1          1          1          1          1          1          1          1          1          1          1          1          1          1          1          1          1          1          1          1          1          1          1          1          1          1          1          1          1          1          1          1          1          1          1          1          1          1          1          1          1          1          1          1          1          1          1          1          1          1          1          1          1          1          1          1          1          1          1          1          1          1          1          1          1          1          1          1          1          1          1          1          1          1          1          1          1          1          1          1          1          1          1          1          1          1          1          1          1          1          1          1          1          1          1          1          1          1          1          1          1          1          1          1          1          1          1          1          1          1          1          1          1          1          1          1          1          1          1          1          1          1          1          1          1          1          1          1          1          1          1          1          1          1          1          1          1          1          1          1          1          1          1          1          1          1          1          1          1          1          1          1          1          1          1          1          1          1          1          1          1          1          1          1          1          1          1          1          1          1          1          1          1          1          1          1          1          1          1          1          1          1          1          1          1          1          1          1          1          1          1          1          1          1          1          1          1          1          1          1          1          1          1          1          1          1          1          1          1          1          1          1          1          1          1          1          1          1          1          1          1          1          1          1          1          1          1          1          1          1          1          1          1          1          1          1          1          1          1          1          1          1          1          1          1          1          1          1          1          1          1          1          1          1          1          1          1          1          1          1          1          1          1          1          1          1          1          1          1          1          1          1          1          1          1          1          1          1          1          1          1          1          1          1          1          1          1          1          1          1          1          1          1          1          1          1          1          1          1          1          1          1          1          1          1          1          1          1          1          1          1          1          1          1          1          1          1          1          1          1          1          1          1          1          1          1          1          1          1          1          1          1          1          1          1          1          1          1          1          1          1          1          1          1          1          1          1          1          1          1          1          1          1          1          1          1          1          1          1          1          1          1          1          1          1          1          1          1          1          1          1          1          1          1          1          1          1          1          1          1          1          1          1          1          1          1          1          1          1          1          1          1          1          1          1          1          1          1          1          1          1          1          1          1          1          1          1          1          1          1          1          1          1          1          1          1          1          1          1          1          1          1          1          1          1          1          1          1          1          1          1          1          1          1          1          1          1          1          1          1          1          1          1          1          1          1          1          1          1          1          1          1          1          1          1          1          1          1          1          1          1          1          1          1          1          1          1          1          1          1          1          1          1          1          1          1          1          1          1          1          1          1          1          1          1          1          1          1          1          1          1          1          1          1          1          1          1          1          1          1          1          1          1          1          1          1          1          1          1          1          1          1          1          1          1 </DataArray>
</CellData>
<PointData>
<DataArray type="Float64"                                    Name="u"                                                      NumberOfComponents=" 3" format="ascii">
              0.000001067               0.000000000               1.000000000               0.000000157               0.000000000               1.000000000              -0.000000030              -0.000000000               1.000000000               0.000000025               0.000000000               1.000000000               0.000000100               0.000000000               1.000000000               0.000000043               0.000000000               1.000000000              -0.000000076               0.000000000               1.000000000              -0.000000153              -0.000000000               1.000000000              -0.000000200              -0.000000000               1.000000000              -0.000000188              -0.000000000               1.000000000              -0.000000079              -0.000000000               1.000000000               0.000000091              -0.000000000               1.000000000               0.000000240               0.000000000               1.000000000               0.000000292               0.000000000               1.000000000               0.000000152               0.000000000               1.000000000              -0.000000276               0.000000000               1.000000000              -0.000001052               0.000000000               1.000000000               0.000001079               0.000002602               1.000000000               0.000000170               0.000002384               1.000000000              -0.000000038               0.000002394               1.000000000               0.000000004               0.000002660               1.000000000               0.000000051               0.000003136               1.000000000               0.000000043               0.000003646               1.000000000              -0.000000021               0.000003946               1.000000000              -0.000000120               0.000004232               1.000000000              -0.000000173               0.000004450               1.000000000              -0.000000149               0.000004547               1.000000000              -0.000000090               0.000004644               1.000000000              -0.000000008               0.000004783               1.000000000               0.000000034               0.000005058               1.000000000              -0.000000068               0.000005545               1.000000000              -0.000000387               0.000006267               1.000000000              -0.000001011               0.000007227               1.000000000              -0.000002018               0.000008381               1.000000000               0.000000948               0.000005168               1.000000000               0.000000128               0.000004739               1.000000000               0.000000005               0.000004746               1.000000000               0.000000061               0.000005358               1.000000000               0.000000029               0.000006261               1.000000000              -0.000000066               0.000007250               1.000000000              -0.000000112               0.000007853               1.000000000              -0.000000083               0.000008469               1.000000000               0.000000001               0.000009010               1.000000000               0.000000043               0.000009406               1.000000000              -0.000000033               0.000009854               1.000000000              -0.000000254               0.000010420               1.000000000              -0.000000680               0.000011258               1.000000000              -0.000001375               0.000012474               1.000000000              -0.000002380               0.000014136               1.000000000              -0.000003730               0.000016292               1.000000000              -0.000005481               0.000018972               1.000000000               0.000000803               0.000007774               1.000000000               0.000000198               0.000007059               1.000000000               0.000000135               0.000007149               1.000000000               0.000000103               0.000008079               1.000000000               0.000000007               0.000009470               1.000000000              -0.000000103               0.000010918               1.000000000              -0.000000099               0.000011890               1.000000000              -0.000000083               0.000012949               1.000000000              -0.000000131               0.000013955               1.000000000              -0.000000289               0.000014983               1.000000000              -0.000000707               0.000016195               1.000000000              -0.000001456               0.000017707               1.000000000              -0.000002558               0.000019637               1.000000000              -0.000004090               0.000022077               1.000000000              -0.000006063               0.000025117               1.000000000              -0.000008450               0.000028827               1.000000000              -0.000011255               0.000033279               1.000000000               0.000000710               0.000010449               1.000000000               0.000000348               0.000009354               1.000000000               0.000000355               0.000009623               1.000000000               0.000000277               0.000010926               1.000000000               0.000000058               0.000012914               1.000000000              -0.000000217               0.000014821               1.000000000              -0.000000346               0.000016417               1.000000000              -0.000000484               0.000018086               1.000000000              -0.000000745               0.000019912               1.000000000              -0.000001284               0.000021938               1.000000000              -0.000002255               0.000024378               1.000000000              -0.000003664               0.000027328               1.000000000              -0.000005542               0.000030871               1.000000000              -0.000007949               0.000035081               1.000000000              -0.000010865               0.000039989               1.000000000              -0.000014254               0.000045637               1.000000000              -0.000018083               0.000052054               1.000000000               0.000000599               0.000013135               1.000000000               0.000000604               0.000011655               1.000000000               0.000000693               0.000012201               1.000000000               0.000000421               0.000014053               1.000000000              -0.000000021               0.000016679               1.000000000              -0.000000359               0.000019379               1.000000000              -0.000000552               0.000021868               1.000000000              -0.000000900               0.000024524               1.000000000              -0.000001547               0.000027573               1.000000000              -0.000002650               0.000030989               1.000000000              -0.000004300               0.000035017               1.000000000              -0.000006484               0.000039741               1.000000000              -0.000009201               0.000045214               1.000000000              -0.000012476               0.000051468               1.000000000              -0.000016287               0.000058490               1.000000000              -0.000020568               0.000066285               1.000000000              -0.000025306               0.000074822               1.000000000               0.000000598               0.000015836               1.000000000               0.000001006               0.000014089               1.000000000               0.000000985               0.000014965               1.000000000               0.000000539               0.000017555               1.000000000              -0.000000006               0.000021098               1.000000000              -0.000000488               0.000024846               1.000000000              -0.000000894               0.000028370               1.000000000              -0.000001562               0.000032380               1.000000000              -0.000002677               0.000036918               1.000000000              -0.000004385               0.000042061               1.000000000              -0.000006737               0.000047952               1.000000000              -0.000009641               0.000054713               1.000000000              -0.000013138               0.000062325               1.000000000              -0.000017249               0.000070780               1.000000000              -0.000021879               0.000080091               1.000000000              -0.000027004               0.000090198               1.000000000              -0.000032610               0.000101073               1.000000000               0.000000604               0.000018504               1.000000000               0.000001388               0.000016624               1.000000000               0.000001292               0.000018044               1.000000000               0.000000620               0.000021478               1.000000000              -0.000000210               0.000026071               1.000000000              -0.000000897               0.000030932               1.000000000              -0.000001491               0.000035787               1.000000000              -0.000002439               0.000041379               1.000000000              -0.000004028               0.000047667               1.000000000              -0.000006325               0.000054722               1.000000000              -0.000009262               0.000062790               1.000000000              -0.000012810               0.000071833               1.000000000              -0.000017027               0.000081883               1.000000000              -0.000021824               0.000092923               1.000000000              -0.000027186               0.000104893               1.000000000              -0.000033082               0.000117749               1.000000000              -0.000039460               0.000131350               1.000000000               0.000000579               0.000021148               1.000000000               0.000001776               0.000019260               1.000000000               0.000001479               0.000021316               1.000000000               0.000000523               0.000025765               1.000000000              -0.000000554               0.000031484               1.000000000              -0.000001302               0.000037547               1.000000000              -0.000002007               0.000043999               1.000000000              -0.000003333               0.000051332               1.000000000              -0.000005439               0.000059624               1.000000000              -0.000008211               0.000068899               1.000000000              -0.000011642               0.000079439               1.000000000              -0.000015778               0.000091185               1.000000000              -0.000020573               0.000104075               1.000000000              -0.000025952               0.000118167               1.000000000              -0.000031921               0.000133313               1.000000000              -0.000038347               0.000149366               1.000000000              -0.000045119               0.000166165               1.000000000               0.000000524               0.000023878               1.000000000               0.000002023               0.000022043               1.000000000               0.000001764               0.000023754               1.000000000               0.000000894               0.000027839               1.000000000              -0.000000226               0.000033368               1.000000000              -0.000001080               0.000039533               1.000000000              -0.000001606               0.000046131               1.000000000              -0.000002410               0.000053391               1.000000000              -0.000003902               0.000061460               1.000000000              -0.000005882               0.000070383               1.000000000              -0.000008408               0.000080220               1.000000000              -0.000011479               0.000091168               1.000000000              -0.000015013               0.000103136               1.000000000              -0.000019053               0.000116146               1.000000000              -0.000023536               0.000130216               1.000000000              -0.000028458               0.000145355               1.000000000              -0.000033806               0.000161390               1.000000000               0.000000425               0.000026457               1.000000000               0.000002076               0.000024829               1.000000000               0.000002043               0.000026368               1.000000000               0.000001331               0.000030057               1.000000000               0.000000252               0.000035223               1.000000000              -0.000000688               0.000041325               1.000000000              -0.000001256               0.000048038               1.000000000              -0.000001777               0.000055335               1.000000000              -0.000002733               0.000063333               1.000000000              -0.000004074               0.000072055               1.000000000              -0.000005816               0.000081496               1.000000000              -0.000007960               0.000091810               1.000000000              -0.000010437               0.000103065               1.000000000              -0.000013255               0.000115212               1.000000000              -0.000016422               0.000128242               1.000000000              -0.000019918               0.000142242               1.000000000              -0.000023830               0.000157230               1.000000000               0.000000316               0.000028833               1.000000000               0.000002047               0.000027610               1.000000000               0.000002199               0.000028959               1.000000000               0.000001624               0.000032226               1.000000000               0.000000688               0.000037020               1.000000000              -0.000000266               0.000042957               1.000000000              -0.000000912               0.000049725               1.000000000              -0.000001322               0.000057094               1.000000000              -0.000001835               0.000065123               1.000000000              -0.000002666               0.000073770               1.000000000              -0.000003750               0.000083027               1.000000000              -0.000005120               0.000092952               1.000000000              -0.000006750               0.000103660               1.000000000              -0.000008584               0.000115176               1.000000000              -0.000010654               0.000127479               1.000000000              -0.000012941               0.000140552               1.000000000              -0.000015418               0.000154545               1.000000000               0.000000233               0.000030919               1.000000000               0.000001870               0.000030143               1.000000000               0.000002123               0.000031374               1.000000000               0.000001760               0.000034351               1.000000000               0.000001029               0.000038852               1.000000000               0.000000177               0.000044600               1.000000000              -0.000000506               0.000051242               1.000000000              -0.000000900               0.000058596               1.000000000              -0.000001171               0.000066586               1.000000000              -0.000001604               0.000075244               1.000000000              -0.000002219               0.000084453               1.000000000              -0.000003007               0.000094229               1.000000000              -0.000003981               0.000104635               1.000000000              -0.000005076               0.000115753               1.000000000              -0.000006267               0.000127610               1.000000000              -0.000007538               0.000140105               1.000000000              -0.000008879               0.000153282               1.000000000               0.000000152               0.000032608               1.000000000               0.000001541               0.000032262               1.000000000               0.000001869               0.000033549               1.000000000               0.000001674               0.000036369               1.000000000               0.000001134               0.000040572               1.000000000               0.000000452               0.000046033               1.000000000              -0.000000144               0.000052473               1.000000000              -0.000000508               0.000059755               1.000000000              -0.000000693               0.000067732               1.000000000              -0.000000911               0.000076378               1.000000000              -0.000001200               0.000085622               1.000000000              -0.000001575               0.000095371               1.000000000              -0.000002054               0.000105634               1.000000000              -0.000002613               0.000116538               1.000000000              -0.000003202               0.000128062               1.000000000              -0.000003808               0.000140244               1.000000000              -0.000004401               0.000152992               1.000000000               0.000000089               0.000033870               1.000000000               0.000001119               0.000033928               1.000000000               0.000001407               0.000035304               1.000000000               0.000001300               0.000038008               1.000000000               0.000000977               0.000042023               1.000000000               0.000000530               0.000047212               1.000000000               0.000000068               0.000053445               1.000000000              -0.000000257               0.000060594               1.000000000              -0.000000391               0.000068522               1.000000000              -0.000000478               0.000077142               1.000000000              -0.000000572               0.000086366               1.000000000              -0.000000685               0.000096134               1.000000000              -0.000000866               0.000106362               1.000000000              -0.000001098               0.000117137               1.000000000              -0.000001345               0.000128429               1.000000000              -0.000001609               0.000140388               1.000000000              -0.000001851               0.000152918               1.000000000               0.000000046               0.000034652               1.000000000               0.000000596               0.000034975               1.000000000               0.000000741               0.000036428               1.000000000               0.000000719               0.000039086               1.000000000               0.000000575               0.000042985               1.000000000               0.000000335               0.000048003               1.000000000               0.000000092               0.000054111               1.000000000              -0.000000089               0.000061159               1.000000000              -0.000000162               0.000069001               1.000000000              -0.000000191               0.000077585               1.000000000              -0.000000219               0.000086781               1.000000000              -0.000000233               0.000096521               1.000000000              -0.000000267               0.000106717               1.000000000              -0.000000331               0.000117378               1.000000000              -0.000000418               0.000128523               1.000000000              -0.000000524               0.000140302               1.000000000              -0.000000642               0.000152646               1.000000000              -0.000000000               0.000034916               1.000000000              -0.000000000               0.000035320               1.000000000               0.000000000               0.000036812               1.000000000               0.000000000               0.000039474               1.000000000               0.000000000               0.000043327               1.000000000               0.000000000               0.000048274               1.000000000               0.000000000               0.000054306               1.000000000               0.000000000               0.000061308               1.000000000              -0.000000000               0.000069148               1.000000000              -0.000000000               0.000077734               1.000000000              -0.000000000               0.000086909               1.000000000              -0.000000000               0.000096637               1.000000000              -0.000000000               0.000106819               1.000000000              -0.000000000               0.000117413               1.000000000              -0.000000000               0.000128492               1.000000000               0.000000000               0.000140189               1.000000000               0.000000000               0.000152445               1.000000000               0.000001067               0.000000000               1.000000000               0.000000157               0.000000000               1.000000000              -0.000000030              -0.000000000               1.000000000               0.000000025               0.000000000               1.000000000               0.000000100               0.000000000               1.000000000               0.000000043               0.000000000               1.000000000              -0.000000076               0.000000000               1.000000000              -0.000000153              -0.000000000               1.000000000              -0.000000200              -0.000000000               1.000000000              -0.000000188              -0.000000000               1.000000000              -0.000000079              -0.000000000               1.000000000               0.000000091              -0.000000000               1.000000000               0.000000240               0.000000000               1.000000000               0.000000292               0.000000000               1.000000000               0.000000152               0.000000000               1.000000000              -0.000000276               0.000000000               1.000000000              -0.000001052               0.000000000               1.000000000               0.000001079              -0.000002602               1.000000000               0.000000170              -0.000002384               1.000000000              -0.000000038              -0.000002394               1.000000000               0.000000004              -0.000002660               1.000000000               0.000000051              -0.000003136               1.000000000               0.000000043              -0.000003646               1.000000000              -0.000000021              -0.000003946               1.000000000              -0.000000120              -0.000004232               1.000000000              -0.000000173              -0.000004450               1.000000000              -0.000000149              -0.000004547               1.000000000              -0.000000090              -0.000004644               1.000000000              -0.000000008              -0.000004783               1.000000000               0.000000034              -0.000005058               1.000000000              -0.000000068              -0.000005545               1.000000000              -0.000000387              -0.000006267               1.000000000              -0.000001011              -0.000007227               1.000000000              -0.000002018              -0.000008381               1.000000000               0.000000948              -0.000005168               1.000000000               0.000000128              -0.000004739               1.000000000               0.000000005              -0.000004746               1.000000000               0.000000061              -0.000005358               1.000000000               0.000000029              -0.000006261               1.000000000              -0.000000066              -0.000007250               1.000000000              -0.000000112              -0.000007853               1.000000000              -0.000000083              -0.000008469               1.000000000               0.000000001              -0.000009010               1.000000000               0.000000043              -0.000009406               1.000000000              -0.000000033              -0.000009854               1.000000000              -0.000000254              -0.000010420               1.000000000              -0.000000680              -0.000011258               1.000000000              -0.000001375              -0.000012474               1.000000000              -0.000002380              -0.000014136               1.000000000              -0.000003730              -0.000016292               1.000000000              -0.000005481              -0.000018972               1.000000000               0.000000803              -0.000007774               1.000000000               0.000000198              -0.000007059               1.000000000               0.000000135              -0.000007149               1.000000000               0.000000103              -0.000008079               1.000000000               0.000000007              -0.000009470               1.000000000              -0.000000103              -0.000010918               1.000000000              -0.000000099              -0.000011890               1.000000000              -0.000000083              -0.000012949               1.000000000              -0.000000131              -0.000013955               1.000000000              -0.000000289              -0.000014983               1.000000000              -0.000000707              -0.000016195               1.000000000              -0.000001456              -0.000017707               1.000000000              -0.000002558              -0.000019637               1.000000000              -0.000004090              -0.000022077               1.000000000              -0.000006063              -0.000025117               1.000000000              -0.000008450              -0.000028827               1.000000000              -0.000011255              -0.000033279               1.000000000               0.000000710              -0.000010449               1.000000000               0.000000348              -0.000009354               1.000000000               0.000000355              -0.000009623               1.000000000               0.000000277              -0.000010926               1.000000000               0.000000058              -0.000012914               1.000000000              -0.000000217              -0.000014821               1.000000000              -0.000000346              -0.000016417               1.000000000              -0.000000484              -0.000018086               1.000000000              -0.000000745              -0.000019912               1.000000000              -0.000001284              -0.000021938               1.000000000              -0.000002255              -0.000024378               1.000000000              -0.000003664              -0.000027328               1.000000000              -0.000005542              -0.000030871               1.000000000              -0.000007949              -0.000035081               1.000000000              -0.000010865              -0.000039989               1.000000000              -0.000014254              -0.000045637               1.000000000              -0.000018083              -0.000052054               1.000000000               0.000000599              -0.000013135               1.000000000               0.000000604              -0.000011655               1.000000000               0.000000693              -0.000012201               1.000000000               0.000000421              -0.000014053               1.000000000              -0.000000021              -0.000016679               1.000000000              -0.000000359              -0.000019379               1.000000000              -0.000000552              -0.000021868               1.000000000              -0.000000900              -0.000024524               1.000000000              -0.000001547              -0.000027573               1.000000000              -0.000002650              -0.000030989               1.000000000              -0.000004300              -0.000035017               1.000000000              -0.000006484              -0.000039741               1.000000000              -0.000009201              -0.000045214               1.000000000              -0.000012476              -0.000051468               1.000000000              -0.000016287              -0.000058490               1.000000000              -0.000020568              -0.000066285               1.000000000              -0.000025306              -0.000074822               1.000000000               0.000000598              -0.000015836               1.000000000               0.000001006              -0.000014089               1.000000000               0.000000985              -0.000014965               1.000000000               0.000000539              -0.000017555               1.000000000              -0.000000006              -0.000021098               1.000000000              -0.000000488              -0.000024846               1.000000000              -0.000000894              -0.000028370               1.000000000              -0.000001562              -0.000032380               1.000000000              -0.000002677              -0.000036918               1.000000000              -0.000004385              -0.000042061               1.000000000              -0.000006737              -0.000047952               1.000000000              -0.000009641              -0.000054713               1.000000000              -0.000013138              -0.000062325               1.000000000              -0.000017249              -0.000070780               1.000000000              -0.000021879              -0.000080091               1.000000000              -0.000027004              -0.000090198               1.000000000              -0.000032610              -0.000101073               1.000000000               0.000000604              -0.000018504               1.000000000               0.000001388              -0.000016624               1.000000000               0.000001292              -0.000018044               1.000000000               0.000000620              -0.000021478               1.000000000              -0.000000210              -0.000026071               1.000000000              -0.000000897              -0.000030932               1.000000000              -0.000001491              -0.000035787               1.000000000              -0.000002439              -0.000041379               1.000000000              -0.000004028              -0.000047667               1.000000000              -0.000006325              -0.000054722               1.000000000              -0.000009262              -0.000062790               1.000000000              -0.000012810              -0.000071833               1.000000000              -0.000017027              -0.000081883               1.000000000              -0.000021824              -0.000092923               1.000000000              -0.000027186              -0.000104893               1.000000000              -0.000033082              -0.000117749               1.000000000              -0.000039460              -0.000131350               1.000000000               0.000000579              -0.000021148               1.000000000               0.000001776              -0.000019260               1.000000000               0.000001479              -0.000021316               1.000000000               0.000000523              -0.000025765               1.000000000              -0.000000554              -0.000031484               1.000000000              -0.000001302              -0.000037547               1.000000000              -0.000002007              -0.000043999               1.000000000              -0.000003333              -0.000051332               1.000000000              -0.000005439              -0.000059624               1.000000000              -0.000008211              -0.000068899               1.000000000              -0.000011642              -0.000079439               1.000000000              -0.000015778              -0.000091185               1.000000000              -0.000020573              -0.000104075               1.000000000              -0.000025952              -0.000118167               1.000000000              -0.000031921              -0.000133313               1.000000000              -0.000038347              -0.000149366               1.000000000              -0.000045119              -0.000166165               1.000000000               0.000000524              -0.000023878               1.000000000               0.000002023              -0.000022043               1.000000000               0.000001764              -0.000023754               1.000000000               0.000000894              -0.000027839               1.000000000              -0.000000226              -0.000033368               1.000000000              -0.000001080              -0.000039533               1.000000000              -0.000001606              -0.000046131               1.000000000              -0.000002410              -0.000053391               1.000000000              -0.000003902              -0.000061460               1.000000000              -0.000005882              -0.000070383               1.000000000              -0.000008408              -0.000080220               1.000000000              -0.000011479              -0.000091168               1.000000000              -0.000015013              -0.000103136               1.000000000              -0.000019053              -0.000116146               1.000000000              -0.000023536              -0.000130216               1.000000000              -0.000028458              -0.000145355               1.000000000              -0.000033806              -0.000161390               1.000000000               0.000000425              -0.000026457               1.000000000               0.000002076              -0.000024829               1.000000000               0.000002043              -0.000026368               1.000000000               0.000001331              -0.000030057               1.000000000               0.000000252              -0.000035223               1.000000000              -0.000000688              -0.000041325               1.000000000              -0.000001256              -0.000048038               1.000000000              -0.000001777              -0.000055335               1.000000000              -0.000002733              -0.000063333               1.000000000              -0.000004074              -0.000072055               1.000000000              -0.000005816              -0.000081496               1.000000000              -0.000007960              -0.000091810               1.000000000              -0.000010437              -0.000103065               1.000000000              -0.000013255              -0.000115212               1.000000000              -0.000016422              -0.000128242               1.000000000              -0.000019918              -0.000142242               1.000000000              -0.000023830              -0.000157230               1.000000000               0.000000316              -0.000028833               1.000000000               0.000002047              -0.000027610               1.000000000               0.000002199              -0.000028959               1.000000000               0.000001624              -0.000032226               1.000000000               0.000000688              -0.000037020               1.000000000              -0.000000266              -0.000042957               1.000000000              -0.000000912              -0.000049725               1.000000000              -0.000001322              -0.000057094               1.000000000              -0.000001835              -0.000065123               1.000000000              -0.000002666              -0.000073770               1.000000000              -0.000003750              -0.000083027               1.000000000              -0.000005120              -0.000092952               1.000000000              -0.000006750              -0.000103660               1.000000000              -0.000008584              -0.000115176               1.000000000              -0.000010654              -0.000127479               1.000000000              -0.000012941              -0.000140552               1.000000000              -0.000015418              -0.000154545               1.000000000               0.000000233              -0.000030919               1.000000000               0.000001870              -0.000030143               1.000000000               0.000002123              -0.000031374               1.000000000               0.000001760              -0.000034351               1.000000000               0.000001029              -0.000038852               1.000000000               0.000000177              -0.000044600               1.000000000              -0.000000506              -0.000051242               1.000000000              -0.000000900              -0.000058596               1.000000000              -0.000001171              -0.000066586               1.000000000              -0.000001604              -0.000075244               1.000000000              -0.000002219              -0.000084453               1.000000000              -0.000003007              -0.000094229               1.000000000              -0.000003981              -0.000104635               1.000000000              -0.000005076              -0.000115753               1.000000000              -0.000006267              -0.000127610               1.000000000              -0.000007538              -0.000140105               1.000000000              -0.000008879              -0.000153282               1.000000000               0.000000152              -0.000032608               1.000000000               0.000001541              -0.000032262               1.000000000               0.000001869              -0.000033549               1.000000000               0.000001674              -0.000036369               1.000000000               0.000001134              -0.000040572               1.000000000               0.000000452              -0.000046033               1.000000000              -0.000000144              -0.000052473               1.000000000              -0.000000508              -0.000059755               1.000000000              -0.000000693              -0.000067732               1.000000000              -0.000000911              -0.000076378               1.000000000              -0.000001200              -0.000085622               1.000000000              -0.000001575              -0.000095371               1.000000000              -0.000002054              -0.000105634               1.000000000              -0.000002613              -0.000116538               1.000000000              -0.000003202              -0.000128062               1.000000000              -0.000003808              -0.000140244               1.000000000              -0.000004401              -0.000152992               1.000000000               0.000000089              -0.000033870               1.000000000               0.000001119              -0.000033928               1.000000000               0.000001407              -0.000035304               1.000000000               0.000001300              -0.000038008               1.000000000               0.000000977              -0.000042023               1.000000000               0.000000530              -0.000047212               1.000000000               0.000000068              -0.000053445               1.000000000              -0.000000257              -0.000060594               1.000000000              -0.000000391              -0.000068522               1.000000000              -0.000000478              -0.000077142               1.000000000              -0.000000572              -0.000086366               1.000000000              -0.000000685              -0.000096134               1.000000000              -0.000000866              -0.000106362               1.000000000              -0.000001098              -0.000117137               1.000000000              -0.000001345              -0.000128429               1.000000000              -0.000001609              -0.000140388               1.000000000              -0.000001851              -0.000152918               1.000000000               0.000000046              -0.000034652               1.000000000               0.000000596              -0.000034975               1.000000000               0.000000741              -0.000036428               1.000000000               0.000000719              -0.000039086               1.000000000               0.000000575              -0.000042985               1.000000000               0.000000335              -0.000048003               1.000000000               0.000000092              -0.000054111               1.000000000              -0.000000089              -0.000061159               1.000000000              -0.000000162              -0.000069001               1.000000000              -0.000000191              -0.000077585               1.000000000              -0.000000219              -0.000086781               1.000000000              -0.000000233              -0.000096521               1.000000000              -0.000000267              -0.000106717               1.000000000              -0.000000331              -0.000117378               1.000000000              -0.000000418              -0.000128523               1.000000000              -0.000000524              -0.000140302               1.000000000              -0.000000642              -0.000152646               1.000000000              -0.000000000              -0.000034916               1.000000000               0.000000000              -0.000035320               1.000000000              -0.000000000              -0.000036812               1.000000000              -0.000000000              -0.000039474               1.000000000              -0.000000000              -0.000043327               1.000000000              -0.000000000              -0.000048274               1.000000000              -0.000000000              -0.000054306               1.000000000              -0.000000000              -0.000061308               1.000000000              -0.000000000              -0.000069148               1.000000000              -0.000000000              -0.000077734               1.000000000              -0.000000000              -0.000086909               1.000000000              -0.000000000              -0.000096637               1.000000000              -0.000000000              -0.000106819               1.000000000              -0.000000000              -0.000117413               1.000000000               0.000000000              -0.000128492               1.000000000               0.000000000              -0.000140189               1.000000000               0.000000000              -0.000152445               1.000000000              -0.000001067               0.000000000               1.000000000              -0.000000157               0.000000000               1.000000000               0.000000030               0.000000000               1.000000000              -0.000000025               0.000000000               1.000000000              -0.000000100               0.000000000               1.000000000              -0.000000043               0.000000000               1.000000000               0.000000076               0.000000000               1.000000000               0.000000153               0.000000000               1.000000000               0.000000200               0.000000000               1.000000000               0.000000188               0.000000000               1.000000000               0.000000079               0.000000000               1.000000000              -0.000000091               0.000000000               1.000000000              -0.000000240               0.000000000               1.000000000              -0.000000292               0.000000000               1.000000000              -0.000000152               0.000000000               1.000000000               0.000000276               0.000000000               1.000000000               0.000001052               0.000000000               1.000000000              -0.000001079              -0.000002602               1.000000000              -0.000000170              -0.000002384               1.000000000               0.000000038              -0.000002394               1.000000000              -0.000000004              -0.000002660               1.000000000              -0.000000051              -0.000003136               1.000000000              -0.000000043              -0.000003646               1.000000000               0.000000021              -0.000003946               1.000000000               0.000000120              -0.000004232               1.000000000               0.000000173              -0.000004450               1.000000000               0.000000149              -0.000004547               1.000000000               0.000000090              -0.000004644               1.000000000               0.000000008              -0.000004783               1.000000000              -0.000000034              -0.000005058               1.000000000               0.000000068              -0.000005545               1.000000000               0.000000387              -0.000006267               1.000000000               0.000001011              -0.000007227               1.000000000               0.000002018              -0.000008381               1.000000000              -0.000000948              -0.000005168               1.000000000              -0.000000128              -0.000004739               1.000000000              -0.000000005              -0.000004746               1.000000000              -0.000000061              -0.000005358               1.000000000              -0.000000029              -0.000006261               1.000000000               0.000000066              -0.000007250               1.000000000               0.000000112              -0.000007853               1.000000000               0.000000083              -0.000008469               1.000000000              -0.000000001              -0.000009010               1.000000000              -0.000000043              -0.000009406               1.000000000               0.000000033              -0.000009854               1.000000000               0.000000254              -0.000010420               1.000000000               0.000000680              -0.000011258               1.000000000               0.000001375              -0.000012474               1.000000000               0.000002380              -0.000014136               1.000000000               0.000003730              -0.000016292               1.000000000               0.000005481              -0.000018972               1.000000000              -0.000000803              -0.000007774               1.000000000              -0.000000198              -0.000007059               1.000000000              -0.000000135              -0.000007149               1.000000000              -0.000000103              -0.000008079               1.000000000              -0.000000007              -0.000009470               1.000000000               0.000000103              -0.000010918               1.000000000               0.000000099              -0.000011890               1.000000000               0.000000083              -0.000012949               1.000000000               0.000000131              -0.000013955               1.000000000               0.000000289              -0.000014983               1.000000000               0.000000707              -0.000016195               1.000000000               0.000001456              -0.000017707               1.000000000               0.000002558              -0.000019637               1.000000000               0.000004090              -0.000022077               1.000000000               0.000006063              -0.000025117               1.000000000               0.000008450              -0.000028827               1.000000000               0.000011255              -0.000033279               1.000000000              -0.000000710              -0.000010449               1.000000000              -0.000000348              -0.000009354               1.000000000              -0.000000355              -0.000009623               1.000000000              -0.000000277              -0.000010926               1.000000000              -0.000000058              -0.000012914               1.000000000               0.000000217              -0.000014821               1.000000000               0.000000346              -0.000016417               1.000000000               0.000000484              -0.000018086               1.000000000               0.000000745              -0.000019912               1.000000000               0.000001284              -0.000021938               1.000000000               0.000002255              -0.000024378               1.000000000               0.000003664              -0.000027328               1.000000000               0.000005542              -0.000030871               1.000000000               0.000007949              -0.000035081               1.000000000               0.000010865              -0.000039989               1.000000000               0.000014254              -0.000045637               1.000000000               0.000018083              -0.000052054               1.000000000              -0.000000599              -0.000013135               1.000000000              -0.000000604              -0.000011655               1.000000000              -0.000000693              -0.000012201               1.000000000              -0.000000421              -0.000014053               1.000000000               0.000000021              -0.000016679               1.000000000               0.000000359              -0.000019379               1.000000000               0.000000552              -0.000021868               1.000000000               0.000000900              -0.000024524               1.000000000               0.000001547              -0.000027573               1.000000000               0.000002650              -0.000030989               1.000000000               0.000004300              -0.000035017               1.000000000               0.000006484              -0.000039741               1.000000000               0.000009201              -0.000045214               1.000000000               0.000012476              -0.000051468               1.000000000               0.000016287              -0.000058490               1.000000000               0.000020568              -0.000066285               1.000000000               0.000025306              -0.000074822               1.000000000              -0.000000598              -0.000015836               1.000000000              -0.000001006              -0.000014089               1.000000000              -0.000000985              -0.000014965               1.000000000              -0.000000539              -0.000017555               1.000000000               0.000000006              -0.000021098               1.000000000               0.000000488              -0.000024846               1.000000000               0.000000894              -0.000028370               1.000000000               0.000001562              -0.000032380               1.000000000               0.000002677              -0.000036918               1.000000000               0.000004385              -0.000042061               1.000000000               0.000006737              -0.000047952               1.000000000               0.000009641              -0.000054713               1.000000000               0.000013138              -0.000062325               1.000000000               0.000017249              -0.000070780               1.000000000               0.000021879              -0.000080091               1.000000000               0.000027004              -0.000090198               1.000000000               0.000032610              -0.000101073               1.000000000              -0.000000604              -0.000018504               1.000000000              -0.000001388              -0.000016624               1.000000000              -0.000001292              -0.000018044               1.000000000              -0.000000620              -0.000021478               1.000000000               0.000000210              -0.000026071               1.000000000               0.000000897              -0.000030932               1.000000000               0.000001491              -0.000035787               1.000000000               0.000002439              -0.000041379               1.000000000               0.000004028              -0.000047667               1.000000000               0.000006325              -0.000054722               1.000000000               0.000009262              -0.000062790               1.000000000               0.000012810              -0.000071833               1.000000000               0.000017027              -0.000081883               1.000000000               0.000021824              -0.000092923               1.000000000               0.000027186              -0.000104893               1.000000000               0.000033082              -0.000117749               1.000000000               0.000039460              -0.000131350               1.000000000              -0.000000579              -0.000021148               1.000000000              -0.000001776              -0.000019260               1.000000000              -0.000001479              -0.000021316               1.000000000              -0.000000523              -0.000025765               1.000000000               0.000000554              -0.000031484               1.000000000               0.000001302              -0.000037547               1.000000000               0.000002007              -0.000043999               1.000000000               0.000003333              -0.000051332               1.000000000               0.000005439              -0.000059624               1.000000000               0.000008211              -0.000068899               1.000000000               0.000011642              -0.000079439               1.000000000               0.000015778              -0.000091185               1.000000000               0.000020573              -0.000104075               1.000000000               0.000025952              -0.000118167               1.000000000               0.000031921              -0.000133313               1.000000000               0.000038347              -0.000149366               1.000000000               0.000045119              -0.000166165               1.000000000              -0.000000524              -0.000023878               1.000000000              -0.000002023              -0.000022043               1.000000000              -0.000001764              -0.000023754               1.000000000              -0.000000894              -0.000027839               1.000000000               0.000000226              -0.000033368               1.000000000               0.000001080              -0.000039533               1.000000000               0.000001606              -0.000046131               1.000000000               0.000002410              -0.000053391               1.000000000               0.000003902              -0.000061460               1.000000000               0.000005882              -0.000070383               1.000000000               0.000008408              -0.000080220               1.000000000               0.000011479              -0.000091168               1.000000000               0.000015013              -0.000103136               1.000000000               0.000019053              -0.000116146               1.000000000               0.000023536              -0.000130216               1.000000000               0.000028458              -0.000145355               1.000000000               0.000033806              -0.000161390               1.000000000              -0.000000425              -0.000026457               1.000000000              -0.000002076              -0.000024829               1.000000000              -0.000002043              -0.000026368               1.000000000              -0.000001331              -0.000030057               1.000000000              -0.000000252              -0.000035223               1.000000000               0.000000688              -0.000041325               1.000000000               0.000001256              -0.000048038               1.000000000               0.000001777              -0.000055335               1.000000000               0.000002733              -0.000063333               1.000000000               0.000004074              -0.000072055               1.000000000               0.000005816              -0.000081496               1.000000000               0.000007960              -0.000091810               1.000000000               0.000010437              -0.000103065               1.000000000               0.000013255              -0.000115212               1.000000000               0.000016422              -0.000128242               1.000000000               0.000019918              -0.000142242               1.000000000               0.000023830              -0.000157230               1.000000000              -0.000000316              -0.000028833               1.000000000              -0.000002047              -0.000027610               1.000000000              -0.000002199              -0.000028959               1.000000000              -0.000001624              -0.000032226               1.000000000              -0.000000688              -0.000037020               1.000000000               0.000000266              -0.000042957               1.000000000               0.000000912              -0.000049725               1.000000000               0.000001322              -0.000057094               1.000000000               0.000001835              -0.000065123               1.000000000               0.000002666              -0.000073770               1.000000000               0.000003750              -0.000083027               1.000000000               0.000005120              -0.000092952               1.000000000               0.000006750              -0.000103660               1.000000000               0.000008584              -0.000115176               1.000000000               0.000010654              -0.000127479               1.000000000               0.000012941              -0.000140552               1.000000000               0.000015418              -0.000154545               1.000000000              -0.000000233              -0.000030919               1.000000000              -0.000001870              -0.000030143               1.000000000              -0.000002123              -0.000031374               1.000000000              -0.000001760              -0.000034351               1.000000000              -0.000001029              -0.000038852               1.000000000              -0.000000177              -0.000044600               1.000000000               0.000000506              -0.000051242               1.000000000               0.000000900              -0.000058596               1.000000000               0.000001171              -0.000066586               1.000000000               0.000001604              -0.000075244               1.000000000               0.000002219              -0.000084453               1.000000000               0.000003007              -0.000094229               1.000000000               0.000003981              -0.000104635               1.000000000               0.000005076              -0.000115753               1.000000000               0.000006267              -0.000127610               1.000000000               0.000007538              -0.000140105               1.000000000               0.000008879              -0.000153282               1.000000000              -0.000000152              -0.000032608               1.000000000              -0.000001541              -0.000032262               1.000000000              -0.000001869              -0.000033549               1.000000000              -0.000001674              -0.000036369               1.000000000              -0.000001134              -0.000040572               1.000000000              -0.000000452              -0.000046033               1.000000000               0.000000144              -0.000052473               1.000000000               0.000000508              -0.000059755               1.000000000               0.000000693              -0.000067732               1.000000000               0.000000911              -0.000076378               1.000000000               0.000001200              -0.000085622               1.000000000               0.000001575              -0.000095371               1.000000000               0.000002054              -0.000105634               1.000000000               0.000002613              -0.000116538               1.000000000               0.000003202              -0.000128062               1.000000000               0.000003808              -0.000140244               1.000000000               0.000004401              -0.000152992               1.000000000              -0.000000089              -0.000033870               1.000000000              -0.000001119              -0.000033928               1.000000000              -0.000001407              -0.000035304               1.000000000              -0.000001300              -0.000038008               1.000000000              -0.000000977              -0.000042023               1.000000000              -0.000000530              -0.000047212               1.000000000              -0.000000068              -0.000053445               1.000000000               0.000000257              -0.000060594               1.000000000               0.000000391              -0.000068522               1.000000000               0.000000478              -0.000077142               1.000000000               0.000000572              -0.000086366               1.000000000               0.000000685              -0.000096134               1.000000000               0.000000866              -0.000106362               1.000000000               0.000001098              -0.000117137               1.000000000               0.000001345              -0.000128429               1.000000000               0.000001609              -0.000140388               1.000000000               0.000001851              -0.000152918               1.000000000              -0.000000046              -0.000034652               1.000000000              -0.000000596              -0.000034975               1.000000000              -0.000000741              -0.000036428               1.000000000              -0.000000719              -0.000039086               1.000000000              -0.000000575              -0.000042985               1.000000000              -0.000000335              -0.000048003               1.000000000              -0.000000092              -0.000054111               1.000000000               0.000000089              -0.000061159               1.000000000               0.000000162              -0.000069001               1.000000000               0.000000191              -0.000077585               1.000000000               0.000000219              -0.000086781               1.000000000               0.000000233              -0.000096521               1.000000000               0.000000267              -0.000106717               1.000000000               0.000000331              -0.000117378               1.000000000               0.000000418              -0.000128523               1.000000000               0.000000524              -0.000140302               1.000000000               0.000000642              -0.000152646               1.000000000              -0.000000000              -0.000034916               1.000000000               0.000000000              -0.000035320               1.000000000              -0.000000000              -0.000036812               1.000000000              -0.000000000              -0.000039474               1.000000000              -0.000000000              -0.000043327               1.000000000              -0.000000000              -0.000048274               1.000000000              -0.000000000              -0.000054306               1.000000000              -0.000000000              -0.000061308               1.000000000              -0.000000000              -0.000069148               1.000000000              -0.000000000              -0.000077734               1.000000000              -0.000000000              -0.000086909               1.000000000              -0.000000000              -0.000096637               1.000000000              -0.000000000              -0.000106819               1.000000000              -0.000000000              -0.000117413               1.000000000               0.000000000              -0.000128492               1.000000000               0.000000000              -0.000140189               1.000000000               0.000000000              -0.000152445               1.000000000              -0.000001067               0.000000000               1.000000000              -0.000000157               0.000000000               1.000000000               0.000000030               0.000000000               1.000000000              -0.000000025               0.000000000               1.000000000              -0.000000100               0.000000000               1.000000000              -0.000000043               0.000000000               1.000000000               0.000000076               0.000000000               1.000000000               0.000000153               0.000000000               1.000000000               0.000000200               0.000000000               1.000000000               0.000000188               0.000000000               1.000000000               0.000000079               0.000000000               1.000000000              -0.000000091               0.000000000               1.000000000              -0.000000240               0.000000000               1.000000000              -0.000000292               0.000000000               1.000000000              -0.000000152               0.000000000               1.000000000               0.000000276               0.000000000               1.000000000               0.000001052               0.000000000               1.000000000              -0.000001079               0.000002602               1.000000000              -0.000000170               0.000002384               1.000000000               0.000000038               0.000002394               1.000000000              -0.000000004               0.000002660               1.000000000              -0.000000051               0.000003136               1.000000000              -0.000000043               0.000003646               1.000000000               0.000000021               0.000003946               1.000000000               0.000000120               0.000004232               1.000000000               0.000000173               0.000004450               1.000000000               0.000000149               0.000004547               1.000000000               0.000000090               0.000004644               1.000000000               0.000000008               0.000004783               1.000000000              -0.000000034               0.000005058               1.000000000               0.000000068               0.000005545               1.000000000               0.000000387               0.000006267               1.000000000               0.000001011               0.000007227               1.000000000               0.000002018               0.000008381               1.000000000              -0.000000948               0.000005168               1.000000000              -0.000000128               0.000004739               1.000000000              -0.000000005               0.000004746               1.000000000              -0.000000061               0.000005358               1.000000000              -0.000000029               0.000006261               1.000000000               0.000000066               0.000007250               1.000000000               0.000000112               0.000007853               1.000000000               0.000000083               0.000008469               1.000000000              -0.000000001               0.000009010               1.000000000              -0.000000043               0.000009406               1.000000000               0.000000033               0.000009854               1.000000000               0.000000254               0.000010420               1.000000000               0.000000680               0.000011258               1.000000000               0.000001375               0.000012474               1.000000000               0.000002380               0.000014136               1.000000000               0.000003730               0.000016292               1.000000000               0.000005481               0.000018972               1.000000000              -0.000000803               0.000007774               1.000000000              -0.000000198               0.000007059               1.000000000              -0.000000135               0.000007149               1.000000000              -0.000000103               0.000008079               1.000000000              -0.000000007               0.000009470               1.000000000               0.000000103               0.000010918               1.000000000               0.000000099               0.000011890               1.000000000               0.000000083               0.000012949               1.000000000               0.000000131               0.000013955               1.000000000               0.000000289               0.000014983               1.000000000               0.000000707               0.000016195               1.000000000               0.000001456               0.000017707               1.000000000               0.000002558               0.000019637               1.000000000               0.000004090               0.000022077               1.000000000               0.000006063               0.000025117               1.000000000               0.000008450               0.000028827               1.000000000               0.000011255               0.000033279               1.000000000              -0.000000710               0.000010449               1.000000000              -0.000000348               0.000009354               1.000000000              -0.000000355               0.000009623               1.000000000              -0.000000277               0.000010926               1.000000000              -0.000000058               0.000012914               1.000000000               0.000000217               0.000014821               1.000000000               0.000000346               0.000016417               1.000000000               0.000000484               0.000018086               1.000000000               0.000000745               0.000019912               1.000000000               0.000001284               0.000021938               1.000000000               0.000002255               0.000024378               1.000000000               0.000003664               0.000027328               1.000000000               0.000005542               0.000030871               1.000000000               0.000007949               0.000035081               1.000000000               0.000010865               0.000039989               1.000000000               0.000014254               0.000045637               1.000000000               0.000018083               0.000052054               1.000000000              -0.000000599               0.000013135               1.000000000              -0.000000604               0.000011655               1.000000000              -0.000000693               0.000012201               1.000000000              -0.000000421               0.000014053               1.000000000               0.000000021               0.000016679               1.000000000               0.000000359               0.000019379               1.000000000               0.000000552               0.000021868               1.000000000               0.000000900               0.000024524               1.000000000               0.000001547               0.000027573               1.000000000               0.000002650               0.000030989               1.000000000               0.000004300               0.000035017               1.000000000               0.000006484               0.000039741               1.000000000               0.000009201               0.000045214               1.000000000               0.000012476               0.000051468               1.000000000               0.000016287               0.000058490               1.000000000               0.000020568               0.000066285               1.000000000               0.000025306               0.000074822               1.000000000              -0.000000598               0.000015836               1.000000000              -0.000001006               0.000014089               1.000000000              -0.000000985               0.000014965               1.000000000              -0.000000539               0.000017555               1.000000000               0.000000006               0.000021098               1.000000000               0.000000488               0.000024846               1.000000000               0.000000894               0.000028370               1.000000000               0.000001562               0.000032380               1.000000000               0.000002677               0.000036918               1.000000000               0.000004385               0.000042061               1.000000000               0.000006737               0.000047952               1.000000000               0.000009641               0.000054713               1.000000000               0.000013138               0.000062325               1.000000000               0.000017249               0.000070780               1.000000000               0.000021879               0.000080091               1.000000000               0.000027004               0.000090198               1.000000000               0.000032610               0.000101073               1.000000000              -0.000000604               0.000018504               1.000000000              -0.000001388               0.000016624               1.000000000              -0.000001292               0.000018044               1.000000000              -0.000000620               0.000021478               1.000000000               0.000000210               0.000026071               1.000000000               0.000000897               0.000030932               1.000000000               0.000001491               0.000035787               1.000000000               0.000002439               0.000041379               1.000000000               0.000004028               0.000047667               1.000000000               0.000006325               0.000054722               1.000000000               0.000009262               0.000062790               1.000000000               0.000012810               0.000071833               1.000000000               0.000017027               0.000081883               1.000000000               0.000021824               0.000092923               1.000000000               0.000027186               0.000104893               1.000000000               0.000033082               0.000117749               1.000000000               0.000039460               0.000131350               1.000000000              -0.000000579               0.000021148               1.000000000              -0.000001776               0.000019260               1.000000000              -0.000001479               0.000021316               1.000000000              -0.000000523               0.000025765               1.000000000               0.000000554               0.000031484               1.000000000               0.000001302               0.000037547               1.000000000               0.000002007               0.000043999               1.000000000               0.000003333               0.000051332               1.000000000               0.000005439               0.000059624               1.000000000               0.000008211               0.000068899               1.000000000               0.000011642               0.000079439               1.000000000               0.000015778               0.000091185               1.000000000               0.000020573               0.000104075               1.000000000               0.000025952               0.000118167               1.000000000               0.000031921               0.000133313               1.000000000               0.000038347               0.000149366               1.000000000               0.000045119               0.000166165               1.000000000              -0.000000524               0.000023878               1.000000000              -0.000002023               0.000022043               1.000000000              -0.000001764               0.000023754               1.000000000              -0.000000894               0.000027839               1.000000000               0.000000226               0.000033368               1.000000000               0.000001080               0.000039533               1.000000000               0.000001606               0.000046131               1.000000000               0.000002410               0.000053391               1.000000000               0.000003902               0.000061460               1.000000000               0.000005882               0.000070383               1.000000000               0.000008408               0.000080220               1.000000000               0.000011479               0.000091168               1.000000000               0.000015013               0.000103136               1.000000000               0.000019053               0.000116146               1.000000000               0.000023536               0.000130216               1.000000000               0.000028458               0.000145355               1.000000000               0.000033806               0.000161390               1.000000000              -0.000000425               0.000026457               1.000000000              -0.000002076               0.000024829               1.000000000              -0.000002043               0.000026368               1.000000000              -0.000001331               0.000030057               1.000000000              -0.000000252               0.000035223               1.000000000               0.000000688               0.000041325               1.000000000               0.000001256               0.000048038               1.000000000               0.000001777               0.000055335               1.000000000               0.000002733               0.000063333               1.000000000               0.000004074               0.000072055               1.000000000               0.000005816               0.000081496               1.000000000               0.000007960               0.000091810               1.000000000               0.000010437               0.000103065               1.000000000               0.000013255               0.000115212               1.000000000               0.000016422               0.000128242               1.000000000               0.000019918               0.000142242               1.000000000               0.000023830               0.000157230               1.000000000              -0.000000316               0.000028833               1.000000000              -0.000002047               0.000027610               1.000000000              -0.000002199               0.000028959               1.000000000              -0.000001624               0.000032226               1.000000000              -0.000000688               0.000037020               1.000000000               0.000000266               0.000042957               1.000000000               0.000000912               0.000049725               1.000000000               0.000001322               0.000057094               1.000000000               0.000001835               0.000065123               1.000000000               0.000002666               0.000073770               1.000000000               0.000003750               0.000083027               1.000000000               0.000005120               0.000092952               1.000000000               0.000006750               0.000103660               1.000000000               0.000008584               0.000115176               1.000000000               0.000010654               0.000127479               1.000000000               0.000012941               0.000140552               1.000000000               0.000015418               0.000154545               1.000000000              -0.000000233               0.000030919               1.000000000              -0.000001870               0.000030143               1.000000000              -0.000002123               0.000031374               1.000000000              -0.000001760               0.000034351               1.000000000              -0.000001029               0.000038852               1.000000000              -0.000000177               0.000044600               1.000000000               0.000000506               0.000051242               1.000000000               0.000000900               0.000058596               1.000000000               0.000001171               0.000066586               1.000000000               0.000001604               0.000075244               1.000000000               0.000002219               0.000084453               1.000000000               0.000003007               0.000094229               1.000000000               0.000003981               0.000104635               1.000000000               0.000005076               0.000115753               1.000000000               0.000006267               0.000127610               1.000000000               0.000007538               0.000140105               1.000000000               0.000008879               0.000153282               1.000000000              -0.000000152               0.000032608               1.000000000              -0.000001541               0.000032262               1.000000000              -0.000001869               0.000033549               1.000000000              -0.000001674               0.000036369               1.000000000              -0.000001134               0.000040572               1.000000000              -0.000000452               0.000046033               1.000000000               0.000000144               0.000052473               1.000000000               0.000000508               0.000059755               1.000000000               0.000000693               0.000067732               1.000000000               0.000000911               0.000076378               1.000000000               0.000001200               0.000085622               1.000000000               0.000001575               0.000095371               1.000000000               0.000002054               0.000105634               1.000000000               0.000002613               0.000116538               1.000000000               0.000003202               0.000128062               1.000000000               0.000003808               0.000140244               1.000000000               0.000004401               0.000152992               1.000000000              -0.000000089               0.000033870               1.000000000              -0.000001119               0.000033928               1.000000000              -0.000001407               0.000035304               1.000000000              -0.000001300               0.000038008               1.000000000              -0.000000977               0.000042023               1.000000000              -0.000000530               0.000047212               1.000000000              -0.000000068               0.000053445               1.000000000               0.000000257               0.000060594               1.000000000               0.000000391               0.000068522               1.000000000               0.000000478               0.000077142               1.000000000               0.000000572               0.000086366               1.000000000               0.000000685               0.000096134               1.000000000               0.000000866               0.000106362               1.000000000               0.000001098               0.000117137               1.000000000               0.000001345               0.000128429               1.000000000               0.000001609               0.000140388               1.000000000               0.000001851               0.000152918               1.000000000              -0.000000046               0.000034652               1.000000000              -0.000000596               0.000034975               1.000000000              -0.000000741               0.000036428               1.000000000              -0.000000719               0.000039086               1.000000000              -0.000000575               0.000042985               1.000000000              -0.000000335               0.000048003               1.000000000              -0.000000092               0.000054111               1.000000000               0.000000089               0.000061159               1.000000000               0.000000162               0.000069001               1.000000000               0.000000191               0.000077585               1.000000000               0.000000219               0.000086781               1.000000000               0.000000233               0.000096521               1.000000000               0.000000267               0.000106717               1.000000000               0.000000331               0.000117378               1.000000000               0.000000418               0.000128523               1.000000000               0.000000524               0.000140302               1.000000000               0.000000642               0.000152646               1.000000000              -0.000000000               0.000034916               1.000000000              -0.000000000               0.000035320               1.000000000               0.000000000               0.000036812               1.000000000               0.000000000               0.000039474               1.000000000               0.000000000               0.000043327               1.000000000               0.000000000               0.000048274               1.000000000               0.000000000               0.000054306               1.000000000               0.000000000               0.000061308               1.000000000              -0.000000000               0.000069148               1.000000000              -0.000000000               0.000077734               1.000000000              -0.000000000               0.000086909               1.000000000              -0.000000000               0.000096637               1.000000000              -0.000000000               0.000106819               1.000000000              -0.000000000               0.000117413               1.000000000              -0.000000000               0.000128492               1.000000000               0.000000000               0.000140189               1.000000000               0.000000000               0.000152445               1.000000000 </DataArray>
<DataArray type="Float64"                                    Name="defo"                                                      NumberOfComponents=" 3" format="ascii">
              0.000001067               0.000000000               1.000000000               0.000000157               0.000000000               1.000000000              -0.000000030              -0.000000000               1.000000000               0.000000025               0.000000000               1.000000000               0.000000100               0.000000000               1.000000000               0.000000043               0.000000000               1.000000000              -0.000000076               0.000000000               1.000000000              -0.000000153              -0.000000000               1.000000000              -0.000000200              -0.000000000               1.000000000              -0.000000188              -0.000000000               1.000000000              -0.000000079              -0.000000000               1.000000000               0.000000091              -0.000000000               1.000000000               0.000000240               0.000000000               1.000000000               0.000000292               0.000000000               1.000000000               0.000000152               0.000000000               1.000000000              -0.000000276               0.000000000               1.000000000              -0.000001052               0.000000000               1.000000000               0.000001079               0.000002602               1.000000000               0.000000170               0.000002384               1.000000000              -0.000000038               0.000002394               1.000000000               0.000000004               0.000002660               1.000000000               0.000000051               0.000003136               1.000000000               0.000000043               0.000003646               1.000000000              -0.000000021               0.000003946               1.000000000              -0.000000120               0.000004232               1.000000000              -0.000000173               0.000004450               1.000000000              -0.000000149               0.000004547               1.000000000              -0.000000090               0.000004644               1.000000000              -0.000000008               0.000004783               1.000000000               0.000000034               0.000005058               1.000000000              -0.000000068               0.000005545               1.000000000              -0.000000387               0.000006267               1.000000000              -0.000001011               0.000007227               1.000000000              -0.000002018               0.000008381               1.000000000               0.000000948               0.000005168               1.000000000               0.000000128               0.000004739               1.000000000               0.000000005               0.000004746               1.000000000               0.000000061               0.000005358               1.000000000               0.000000029               0.000006261               1.000000000              -0.000000066               0.000007250               1.000000000              -0.000000112               0.000007853               1.000000000              -0.000000083               0.000008469               1.000000000               0.000000001               0.000009010               1.000000000               0.000000043               0.000009406               1.000000000              -0.000000033               0.000009854               1.000000000              -0.000000254               0.000010420               1.000000000              -0.000000680               0.000011258               1.000000000              -0.000001375               0.000012474               1.000000000              -0.000002380               0.000014136               1.000000000              -0.000003730               0.000016292               1.000000000              -0.000005481               0.000018972               1.000000000               0.000000803               0.000007774               1.000000000               0.000000198               0.000007059               1.000000000               0.000000135               0.000007149               1.000000000               0.000000103               0.000008079               1.000000000               0.000000007               0.000009470               1.000000000              -0.000000103               0.000010918               1.000000000              -0.000000099               0.000011890               1.000000000              -0.000000083               0.000012949               1.000000000              -0.000000131               0.000013955               1.000000000              -0.000000289               0.000014983               1.000000000              -0.000000707               0.000016195               1.000000000              -0.000001456               0.000017707               1.000000000              -0.000002558               0.000019637               1.000000000              -0.000004090               0.000022077               1.000000000              -0.000006063               0.000025117               1.000000000              -0.000008450               0.000028827               1.000000000              -0.000011255               0.000033279               1.000000000               0.000000710               0.000010449               1.000000000               0.000000348               0.000009354               1.000000000               0.000000355               0.000009623               1.000000000               0.000000277               0.000010926               1.000000000               0.000000058               0.000012914               1.000000000              -0.000000217               0.000014821               1.000000000              -0.000000346               0.000016417               1.000000000              -0.000000484               0.000018086               1.000000000              -0.000000745               0.000019912               1.000000000              -0.000001284               0.000021938               1.000000000              -0.000002255               0.000024378               1.000000000              -0.000003664               0.000027328               1.000000000              -0.000005542               0.000030871               1.000000000              -0.000007949               0.000035081               1.000000000              -0.000010865               0.000039989               1.000000000              -0.000014254               0.000045637               1.000000000              -0.000018083               0.000052054               1.000000000               0.000000599               0.000013135               1.000000000               0.000000604               0.000011655               1.000000000               0.000000693               0.000012201               1.000000000               0.000000421               0.000014053               1.000000000              -0.000000021               0.000016679               1.000000000              -0.000000359               0.000019379               1.000000000              -0.000000552               0.000021868               1.000000000              -0.000000900               0.000024524               1.000000000              -0.000001547               0.000027573               1.000000000              -0.000002650               0.000030989               1.000000000              -0.000004300               0.000035017               1.000000000              -0.000006484               0.000039741               1.000000000              -0.000009201               0.000045214               1.000000000              -0.000012476               0.000051468               1.000000000              -0.000016287               0.000058490               1.000000000              -0.000020568               0.000066285               1.000000000              -0.000025306               0.000074822               1.000000000               0.000000598               0.000015836               1.000000000               0.000001006               0.000014089               1.000000000               0.000000985               0.000014965               1.000000000               0.000000539               0.000017555               1.000000000              -0.000000006               0.000021098               1.000000000              -0.000000488               0.000024846               1.000000000              -0.000000894               0.000028370               1.000000000              -0.000001562               0.000032380               1.000000000              -0.000002677               0.000036918               1.000000000              -0.000004385               0.000042061               1.000000000              -0.000006737               0.000047952               1.000000000              -0.000009641               0.000054713               1.000000000              -0.000013138               0.000062325               1.000000000              -0.000017249               0.000070780               1.000000000              -0.000021879               0.000080091               1.000000000              -0.000027004               0.000090198               1.000000000              -0.000032610               0.000101073               1.000000000               0.000000604               0.000018504               1.000000000               0.000001388               0.000016624               1.000000000               0.000001292               0.000018044               1.000000000               0.000000620               0.000021478               1.000000000              -0.000000210               0.000026071               1.000000000              -0.000000897               0.000030932               1.000000000              -0.000001491               0.000035787               1.000000000              -0.000002439               0.000041379               1.000000000              -0.000004028               0.000047667               1.000000000              -0.000006325               0.000054722               1.000000000              -0.000009262               0.000062790               1.000000000              -0.000012810               0.000071833               1.000000000              -0.000017027               0.000081883               1.000000000              -0.000021824               0.000092923               1.000000000              -0.000027186               0.000104893               1.000000000              -0.000033082               0.000117749               1.000000000              -0.000039460               0.000131350               1.000000000               0.000000579               0.000021148               1.000000000               0.000001776               0.000019260               1.000000000               0.000001479               0.000021316               1.000000000               0.000000523               0.000025765               1.000000000              -0.000000554               0.000031484               1.000000000              -0.000001302               0.000037547               1.000000000              -0.000002007               0.000043999               1.000000000              -0.000003333               0.000051332               1.000000000              -0.000005439               0.000059624               1.000000000              -0.000008211               0.000068899               1.000000000              -0.000011642               0.000079439               1.000000000              -0.000015778               0.000091185               1.000000000              -0.000020573               0.000104075               1.000000000              -0.000025952               0.000118167               1.000000000              -0.000031921               0.000133313               1.000000000              -0.000038347               0.000149366               1.000000000              -0.000045119               0.000166165               1.000000000               0.000000524               0.000023878               1.000000000               0.000002023               0.000022043               1.000000000               0.000001764               0.000023754               1.000000000               0.000000894               0.000027839               1.000000000              -0.000000226               0.000033368               1.000000000              -0.000001080               0.000039533               1.000000000              -0.000001606               0.000046131               1.000000000              -0.000002410               0.000053391               1.000000000              -0.000003902               0.000061460               1.000000000              -0.000005882               0.000070383               1.000000000              -0.000008408               0.000080220               1.000000000              -0.000011479               0.000091168               1.000000000              -0.000015013               0.000103136               1.000000000              -0.000019053               0.000116146               1.000000000              -0.000023536               0.000130216               1.000000000              -0.000028458               0.000145355               1.000000000              -0.000033806               0.000161390               1.000000000               0.000000425               0.000026457               1.000000000               0.000002076               0.000024829               1.000000000               0.000002043               0.000026368               1.000000000               0.000001331               0.000030057               1.000000000               0.000000252               0.000035223               1.000000000              -0.000000688               0.000041325               1.000000000              -0.000001256               0.000048038               1.000000000              -0.000001777               0.000055335               1.000000000              -0.000002733               0.000063333               1.000000000              -0.000004074               0.000072055               1.000000000              -0.000005816               0.000081496               1.000000000              -0.000007960               0.000091810               1.000000000              -0.000010437               0.000103065               1.000000000              -0.000013255               0.000115212               1.000000000              -0.000016422               0.000128242               1.000000000              -0.000019918               0.000142242               1.000000000              -0.000023830               0.000157230               1.000000000               0.000000316               0.000028833               1.000000000               0.000002047               0.000027610               1.000000000               0.000002199               0.000028959               1.000000000               0.000001624               0.000032226               1.000000000               0.000000688               0.000037020               1.000000000              -0.000000266               0.000042957               1.000000000              -0.000000912               0.000049725               1.000000000              -0.000001322               0.000057094               1.000000000              -0.000001835               0.000065123               1.000000000              -0.000002666               0.000073770               1.000000000              -0.000003750               0.000083027               1.000000000              -0.000005120               0.000092952               1.000000000              -0.000006750               0.000103660               1.000000000              -0.000008584               0.000115176               1.000000000              -0.000010654               0.000127479               1.000000000              -0.000012941               0.000140552               1.000000000              -0.000015418               0.000154545               1.000000000               0.000000233               0.000030919               1.000000000               0.000001870               0.000030143               1.000000000               0.000002123               0.000031374               1.000000000               0.000001760               0.000034351               1.000000000               0.000001029               0.000038852               1.000000000               0.000000177               0.000044600               1.000000000              -0.000000506               0.000051242               1.000000000              -0.000000900               0.000058596               1.000000000              -0.000001171               0.000066586               1.000000000              -0.000001604               0.000075244               1.000000000              -0.000002219               0.000084453               1.000000000              -0.000003007               0.000094229               1.000000000              -0.000003981               0.000104635               1.000000000              -0.000005076               0.000115753               1.000000000              -0.000006267               0.000127610               1.000000000              -0.000007538               0.000140105               1.000000000              -0.000008879               0.000153282               1.000000000               0.000000152               0.000032608               1.000000000               0.000001541               0.000032262               1.000000000               0.000001869               0.000033549               1.000000000               0.000001674               0.000036369               1.000000000               0.000001134               0.000040572               1.000000000               0.000000452               0.000046033               1.000000000              -0.000000144               0.000052473               1.000000000              -0.000000508               0.000059755               1.000000000              -0.000000693               0.000067732               1.000000000              -0.000000911               0.000076378               1.000000000              -0.000001200               0.000085622               1.000000000              -0.000001575               0.000095371               1.000000000              -0.000002054               0.000105634               1.000000000              -0.000002613               0.000116538               1.000000000              -0.000003202               0.000128062               1.000000000              -0.000003808               0.000140244               1.000000000              -0.000004401               0.000152992               1.000000000               0.000000089               0.000033870               1.000000000               0.000001119               0.000033928               1.000000000               0.000001407               0.000035304               1.000000000               0.000001300               0.000038008               1.000000000               0.000000977               0.000042023               1.000000000               0.000000530               0.000047212               1.000000000               0.000000068               0.000053445               1.000000000              -0.000000257               0.000060594               1.000000000              -0.000000391               0.000068522               1.000000000              -0.000000478               0.000077142               1.000000000              -0.000000572               0.000086366               1.000000000              -0.000000685               0.000096134               1.000000000              -0.000000866               0.000106362               1.000000000              -0.000001098               0.000117137               1.000000000              -0.000001345               0.000128429               1.000000000              -0.000001609               0.000140388               1.000000000              -0.000001851               0.000152918               1.000000000               0.000000046               0.000034652               1.000000000               0.000000596               0.000034975               1.000000000               0.000000741               0.000036428               1.000000000               0.000000719               0.000039086               1.000000000               0.000000575               0.000042985               1.000000000               0.000000335               0.000048003               1.000000000               0.000000092               0.000054111               1.000000000              -0.000000089               0.000061159               1.000000000              -0.000000162               0.000069001               1.000000000              -0.000000191               0.000077585               1.000000000              -0.000000219               0.000086781               1.000000000              -0.000000233               0.000096521               1.000000000              -0.000000267               0.000106717               1.000000000              -0.000000331               0.000117378               1.000000000              -0.000000418               0.000128523               1.000000000              -0.000000524               0.000140302               1.000000000              -0.000000642               0.000152646               1.000000000              -0.000000000               0.000034916               1.000000000              -0.000000000               0.000035320               1.000000000               0.000000000               0.000036812               1.000000000               0.000000000               0.000039474               1.000000000               0.000000000               0.000043327               1.000000000               0.000000000               0.000048274               1.000000000               0.000000000               0.000054306               1.000000000               0.000000000               0.000061308               1.000000000              -0.000000000               0.000069148               1.000000000              -0.000000000               0.000077734               1.000000000              -0.000000000               0.000086909               1.000000000              -0.000000000               0.000096637               1.000000000              -0.000000000               0.000106819               1.000000000              -0.000000000               0.000117413               1.000000000              -0.000000000               0.000128492               1.000000000               0.000000000               0.000140189               1.000000000               0.000000000               0.000152445               1.000000000               0.000001067               0.000000000               1.000000000               0.000000157               0.000000000               1.000000000              -0.000000030              -0.000000000               1.000000000               0.000000025               0.000000000               1.000000000               0.000000100               0.000000000               1.000000000               0.000000043               0.000000000               1.000000000              -0.000000076               0.000000000               1.000000000              -0.000000153              -0.000000000               1.000000000              -0.000000200              -0.000000000               1.000000000              -0.000000188              -0.000000000               1.000000000              -0.000000079              -0.000000000               1.000000000               0.000000091              -0.000000000               1.000000000               0.000000240               0.000000000               1.000000000               0.000000292               0.000000000               1.000000000               0.000000152               0.000000000               1.000000000              -0.000000276               0.000000000               1.000000000              -0.000001052               0.000000000               1.000000000               0.000001079              -0.000002602               1.000000000               0.000000170              -0.000002384               1.000000000              -0.000000038              -0.000002394               1.000000000               0.000000004              -0.000002660               1.000000000               0.000000051              -0.000003136               1.000000000               0.000000043              -0.000003646               1.000000000              -0.000000021              -0.000003946               1.000000000              -0.000000120              -0.000004232               1.000000000              -0.000000173              -0.000004450               1.000000000              -0.000000149              -0.000004547               1.000000000              -0.000000090              -0.000004644               1.000000000              -0.000000008              -0.000004783               1.000000000               0.000000034              -0.000005058               1.000000000              -0.000000068              -0.000005545               1.000000000              -0.000000387              -0.000006267               1.000000000              -0.000001011              -0.000007227               1.000000000              -0.000002018              -0.000008381               1.000000000               0.000000948              -0.000005168               1.000000000               0.000000128              -0.000004739               1.000000000               0.000000005              -0.000004746               1.000000000               0.000000061              -0.000005358               1.000000000               0.000000029              -0.000006261               1.000000000              -0.000000066              -0.000007250               1.000000000              -0.000000112              -0.000007853               1.000000000              -0.000000083              -0.000008469               1.000000000               0.000000001              -0.000009010               1.000000000               0.000000043              -0.000009406               1.000000000              -0.000000033              -0.000009854               1.000000000              -0.000000254              -0.000010420               1.000000000              -0.000000680              -0.000011258               1.000000000              -0.000001375              -0.000012474               1.000000000              -0.000002380              -0.000014136               1.000000000              -0.000003730              -0.000016292               1.000000000              -0.000005481              -0.000018972               1.000000000               0.000000803              -0.000007774               1.000000000               0.000000198              -0.000007059               1.000000000               0.000000135              -0.000007149               1.000000000               0.000000103              -0.000008079               1.000000000               0.000000007              -0.000009470               1.000000000              -0.000000103              -0.000010918               1.000000000              -0.000000099              -0.000011890               1.000000000              -0.000000083              -0.000012949               1.000000000              -0.000000131              -0.000013955               1.000000000              -0.000000289              -0.000014983               1.000000000              -0.000000707              -0.000016195               1.000000000              -0.000001456              -0.000017707               1.000000000              -0.000002558              -0.000019637               1.000000000              -0.000004090              -0.000022077               1.000000000              -0.000006063              -0.000025117               1.000000000              -0.000008450              -0.000028827               1.000000000              -0.000011255              -0.000033279               1.000000000               0.000000710              -0.000010449               1.000000000               0.000000348              -0.000009354               1.000000000               0.000000355              -0.000009623               1.000000000               0.000000277              -0.000010926               1.000000000               0.000000058              -0.000012914               1.000000000              -0.000000217              -0.000014821               1.000000000              -0.000000346              -0.000016417               1.000000000              -0.000000484              -0.000018086               1.000000000              -0.000000745              -0.000019912               1.000000000              -0.000001284              -0.000021938               1.000000000              -0.000002255              -0.000024378               1.000000000              -0.000003664              -0.000027328               1.000000000              -0.000005542              -0.000030871               1.000000000              -0.000007949              -0.000035081               1.000000000              -0.000010865              -0.000039989               1.000000000              -0.000014254              -0.000045637               1.000000000              -0.000018083              -0.000052054               1.000000000               0.000000599              -0.000013135               1.000000000               0.000000604              -0.000011655               1.000000000               0.000000693              -0.000012201               1.000000000               0.000000421              -0.000014053               1.000000000              -0.000000021              -0.000016679               1.000000000              -0.000000359              -0.000019379               1.000000000              -0.000000552              -0.000021868               1.000000000              -0.000000900              -0.000024524               1.000000000              -0.000001547              -0.000027573               1.000000000              -0.000002650              -0.000030989               1.000000000              -0.000004300              -0.000035017               1.000000000              -0.000006484              -0.000039741               1.000000000              -0.000009201              -0.000045214               1.000000000              -0.000012476              -0.000051468               1.000000000              -0.000016287              -0.000058490               1.000000000              -0.000020568              -0.000066285               1.000000000              -0.000025306              -0.000074822               1.000000000               0.000000598              -0.000015836               1.000000000               0.000001006              -0.000014089               1.000000000               0.000000985              -0.000014965               1.000000000               0.000000539              -0.000017555               1.000000000              -0.000000006              -0.000021098               1.000000000              -0.000000488              -0.000024846               1.000000000              -0.000000894              -0.000028370               1.000000000              -0.000001562              -0.000032380               1.000000000              -0.000002677              -0.000036918               1.000000000              -0.000004385              -0.000042061               1.000000000              -0.000006737              -0.000047952               1.000000000              -0.000009641              -0.000054713               1.000000000              -0.000013138              -0.000062325               1.000000000              -0.000017249              -0.000070780               1.000000000              -0.000021879              -0.000080091               1.000000000              -0.000027004              -0.000090198               1.000000000              -0.000032610              -0.000101073               1.000000000               0.000000604              -0.000018504               1.000000000               0.000001388              -0.000016624               1.000000000               0.000001292              -0.000018044               1.000000000               0.000000620              -0.000021478               1.000000000              -0.000000210              -0.000026071               1.000000000              -0.000000897              -0.000030932               1.000000000              -0.000001491              -0.000035787               1.000000000              -0.000002439              -0.000041379               1.000000000              -0.000004028              -0.000047667               1.000000000              -0.000006325              -0.000054722               1.000000000              -0.000009262              -0.000062790               1.000000000              -0.000012810              -0.000071833               1.000000000              -0.000017027              -0.000081883               1.000000000              -0.000021824              -0.000092923               1.000000000              -0.000027186              -0.000104893               1.000000000              -0.000033082              -0.000117749               1.000000000              -0.000039460              -0.000131350               1.000000000               0.000000579              -0.000021148               1.000000000               0.000001776              -0.000019260               1.000000000               0.000001479              -0.000021316               1.000000000               0.000000523              -0.000025765               1.000000000              -0.000000554              -0.000031484               1.000000000              -0.000001302              -0.000037547               1.000000000              -0.000002007              -0.000043999               1.000000000              -0.000003333              -0.000051332               1.000000000              -0.000005439              -0.000059624               1.000000000              -0.000008211              -0.000068899               1.000000000              -0.000011642              -0.000079439               1.000000000              -0.000015778              -0.000091185               1.000000000              -0.000020573              -0.000104075               1.000000000              -0.000025952              -0.000118167               1.000000000              -0.000031921              -0.000133313               1.000000000              -0.000038347              -0.000149366               1.000000000              -0.000045119              -0.000166165               1.000000000               0.000000524              -0.000023878               1.000000000               0.000002023              -0.000022043               1.000000000               0.000001764              -0.000023754               1.000000000               0.000000894              -0.000027839               1.000000000              -0.000000226              -0.000033368               1.000000000              -0.000001080              -0.000039533               1.000000000              -0.000001606              -0.000046131               1.000000000              -0.000002410              -0.000053391               1.000000000              -0.000003902              -0.000061460               1.000000000              -0.000005882              -0.000070383               1.000000000              -0.000008408              -0.000080220               1.000000000              -0.000011479              -0.000091168               1.000000000              -0.000015013              -0.000103136               1.000000000              -0.000019053              -0.000116146               1.000000000              -0.000023536              -0.000130216               1.000000000              -0.000028458              -0.000145355               1.000000000              -0.000033806              -0.000161390               1.000000000               0.000000425              -0.000026457               1.000000000               0.000002076              -0.000024829               1.000000000               0.000002043              -0.000026368               1.000000000               0.000001331              -0.000030057               1.000000000               0.000000252              -0.000035223               1.000000000              -0.000000688              -0.000041325               1.000000000              -0.000001256              -0.000048038               1.000000000              -0.000001777              -0.000055335               1.000000000              -0.000002733              -0.000063333               1.000000000              -0.000004074              -0.000072055               1.000000000              -0.000005816              -0.000081496               1.000000000              -0.000007960              -0.000091810               1.000000000              -0.000010437              -0.000103065               1.000000000              -0.000013255              -0.000115212               1.000000000              -0.000016422              -0.000128242               1.000000000              -0.000019918              -0.000142242               1.000000000              -0.000023830              -0.000157230               1.000000000               0.000000316              -0.000028833               1.000000000               0.000002047              -0.000027610               1.000000000               0.000002199              -0.000028959               1.000000000               0.000001624              -0.000032226               1.000000000               0.000000688              -0.000037020               1.000000000              -0.000000266              -0.000042957               1.000000000              -0.000000912              -0.000049725               1.000000000              -0.000001322              -0.000057094               1.000000000              -0.000001835              -0.000065123               1.000000000              -0.000002666              -0.000073770               1.000000000              -0.000003750              -0.000083027               1.000000000              -0.000005120              -0.000092952               1.000000000              -0.000006750              -0.000103660               1.000000000              -0.000008584              -0.000115176               1.000000000              -0.000010654              -0.000127479               1.000000000              -0.000012941              -0.000140552               1.000000000              -0.000015418              -0.000154545               1.000000000               0.000000233              -0.000030919               1.000000000               0.000001870              -0.000030143               1.000000000               0.000002123              -0.000031374               1.000000000               0.000001760              -0.000034351               1.000000000               0.000001029              -0.000038852               1.000000000               0.000000177              -0.000044600               1.000000000              -0.000000506              -0.000051242               1.000000000              -0.000000900              -0.000058596               1.000000000              -0.000001171              -0.000066586               1.000000000              -0.000001604              -0.000075244               1.000000000              -0.000002219              -0.000084453               1.000000000              -0.000003007              -0.000094229               1.000000000              -0.000003981              -0.000104635               1.000000000              -0.000005076              -0.000115753               1.000000000              -0.000006267              -0.000127610               1.000000000              -0.000007538              -0.000140105               1.000000000              -0.000008879              -0.000153282               1.000000000               0.000000152              -0.000032608               1.000000000               0.000001541              -0.000032262               1.000000000               0.000001869              -0.000033549               1.000000000               0.000001674              -0.000036369               1.000000000               0.000001134              -0.000040572               1.000000000               0.000000452              -0.000046033               1.000000000              -0.000000144              -0.000052473               1.000000000              -0.000000508              -0.000059755               1.000000000              -0.000000693              -0.000067732               1.000000000              -0.000000911              -0.000076378               1.000000000              -0.000001200              -0.000085622               1.000000000              -0.000001575              -0.000095371               1.000000000              -0.000002054              -0.000105634               1.000000000              -0.000002613              -0.000116538               1.000000000              -0.000003202              -0.000128062               1.000000000              -0.000003808              -0.000140244               1.000000000              -0.000004401              -0.000152992               1.000000000               0.000000089              -0.000033870               1.000000000               0.000001119              -0.000033928               1.000000000               0.000001407              -0.000035304               1.000000000               0.000001300              -0.000038008               1.000000000               0.000000977              -0.000042023               1.000000000               0.000000530              -0.000047212               1.000000000               0.000000068              -0.000053445               1.000000000              -0.000000257              -0.000060594               1.000000000              -0.000000391              -0.000068522               1.000000000              -0.000000478              -0.000077142               1.000000000              -0.000000572              -0.000086366               1.000000000              -0.000000685              -0.000096134               1.000000000              -0.000000866              -0.000106362               1.000000000              -0.000001098              -0.000117137               1.000000000              -0.000001345              -0.000128429               1.000000000              -0.000001609              -0.000140388               1.000000000              -0.000001851              -0.000152918               1.000000000               0.000000046              -0.000034652               1.000000000               0.000000596              -0.000034975               1.000000000               0.000000741              -0.000036428               1.000000000               0.000000719              -0.000039086               1.000000000               0.000000575              -0.000042985               1.000000000               0.000000335              -0.000048003               1.000000000               0.000000092              -0.000054111               1.000000000              -0.000000089              -0.000061159               1.000000000              -0.000000162              -0.000069001               1.000000000              -0.000000191              -0.000077585               1.000000000              -0.000000219              -0.000086781               1.000000000              -0.000000233              -0.000096521               1.000000000              -0.000000267              -0.000106717               1.000000000              -0.000000331              -0.000117378               1.000000000              -0.000000418              -0.000128523               1.000000000              -0.000000524              -0.000140302               1.000000000              -0.000000642              -0.000152646               1.000000000              -0.000000000              -0.000034916               1.000000000               0.000000000              -0.000035320               1.000000000              -0.000000000              -0.000036812               1.000000000              -0.000000000              -0.000039474               1.000000000              -0.000000000              -0.000043327               1.000000000              -0.000000000              -0.000048274               1.000000000              -0.000000000              -0.000054306               1.000000000              -0.000000000              -0.000061308               1.000000000              -0.000000000              -0.000069148               1.000000000              -0.000000000              -0.000077734               1.000000000              -0.000000000              -0.000086909               1.000000000              -0.000000000              -0.000096637               1.000000000              -0.000000000              -0.000106819               1.000000000              -0.000000000              -0.000117413               1.000000000               0.000000000              -0.000128492               1.000000000               0.000000000              -0.000140189               1.000000000               0.000000000              -0.000152445               1.000000000              -0.000001067               0.000000000               1.000000000              -0.000000157               0.000000000               1.000000000               0.000000030               0.000000000               1.000000000              -0.000000025               0.000000000               1.000000000              -0.000000100               0.000000000               1.000000000              -0.000000043               0.000000000               1.000000000               0.000000076               0.000000000               1.000000000               0.000000153               0.000000000               1.000000000               0.000000200               0.000000000               1.000000000               0.000000188               0.000000000               1.000000000               0.000000079               0.000000000               1.000000000              -0.000000091               0.000000000               1.000000000              -0.000000240               0.000000000               1.000000000              -0.000000292               0.000000000               1.000000000              -0.000000152               0.000000000               1.000000000               0.000000276               0.000000000               1.000000000               0.000001052               0.000000000               1.000000000              -0.000001079              -0.000002602               1.000000000              -0.000000170              -0.000002384               1.000000000               0.000000038              -0.000002394               1.000000000              -0.000000004              -0.000002660               1.000000000              -0.000000051              -0.000003136               1.000000000              -0.000000043              -0.000003646               1.000000000               0.000000021              -0.000003946               1.000000000               0.000000120              -0.000004232               1.000000000               0.000000173              -0.000004450               1.000000000               0.000000149              -0.000004547               1.000000000               0.000000090              -0.000004644               1.000000000               0.000000008              -0.000004783               1.000000000              -0.000000034              -0.000005058               1.000000000               0.000000068              -0.000005545               1.000000000               0.000000387              -0.000006267               1.000000000               0.000001011              -0.000007227               1.000000000               0.000002018              -0.000008381               1.000000000              -0.000000948              -0.000005168               1.000000000              -0.000000128              -0.000004739               1.000000000              -0.000000005              -0.000004746               1.000000000              -0.000000061              -0.000005358               1.000000000              -0.000000029              -0.000006261               1.000000000               0.000000066              -0.000007250               1.000000000               0.000000112              -0.000007853               1.000000000               0.000000083              -0.000008469               1.000000000              -0.000000001              -0.000009010               1.000000000              -0.000000043              -0.000009406               1.000000000               0.000000033              -0.000009854               1.000000000               0.000000254              -0.000010420               1.000000000               0.000000680              -0.000011258               1.000000000               0.000001375              -0.000012474               1.000000000               0.000002380              -0.000014136               1.000000000               0.000003730              -0.000016292               1.000000000               0.000005481              -0.000018972               1.000000000              -0.000000803              -0.000007774               1.000000000              -0.000000198              -0.000007059               1.000000000              -0.000000135              -0.000007149               1.000000000              -0.000000103              -0.000008079               1.000000000              -0.000000007              -0.000009470               1.000000000               0.000000103              -0.000010918               1.000000000               0.000000099              -0.000011890               1.000000000               0.000000083              -0.000012949               1.000000000               0.000000131              -0.000013955               1.000000000               0.000000289              -0.000014983               1.000000000               0.000000707              -0.000016195               1.000000000               0.000001456              -0.000017707               1.000000000               0.000002558              -0.000019637               1.000000000               0.000004090              -0.000022077               1.000000000               0.000006063              -0.000025117               1.000000000               0.000008450              -0.000028827               1.000000000               0.000011255              -0.000033279               1.000000000              -0.000000710              -0.000010449               1.000000000              -0.000000348              -0.000009354               1.000000000              -0.000000355              -0.000009623               1.000000000              -0.000000277              -0.000010926               1.000000000              -0.000000058              -0.000012914               1.000000000               0.000000217              -0.000014821               1.000000000               0.000000346              -0.000016417               1.000000000               0.000000484              -0.000018086               1.000000000               0.000000745              -0.000019912               1.000000000               0.000001284              -0.000021938               1.000000000               0.000002255              -0.000024378               1.000000000               0.000003664              -0.000027328               1.000000000               0.000005542              -0.000030871               1.000000000               0.000007949              -0.000035081               1.000000000               0.000010865              -0.000039989               1.000000000               0.000014254              -0.000045637               1.000000000               0.000018083              -0.000052054               1.000000000              -0.000000599              -0.000013135               1.000000000              -0.000000604              -0.000011655               1.000000000              -0.000000693              -0.000012201               1.000000000              -0.000000421              -0.000014053               1.000000000               0.000000021              -0.000016679               1.000000000               0.000000359              -0.000019379               1.000000000               0.000000552              -0.000021868               1.000000000               0.000000900              -0.000024524               1.000000000               0.000001547              -0.000027573               1.000000000               0.000002650              -0.000030989               1.000000000               0.000004300              -0.000035017               1.000000000               0.000006484              -0.000039741               1.000000000               0.000009201              -0.000045214               1.000000000               0.000012476              -0.000051468               1.000000000               0.000016287              -0.000058490               1.000000000               0.000020568              -0.000066285               1.000000000               0.000025306              -0.000074822               1.000000000              -0.000000598              -0.000015836               1.000000000              -0.000001006              -0.000014089               1.000000000              -0.000000985              -0.000014965               1.000000000              -0.000000539              -0.000017555               1.000000000               0.000000006              -0.000021098               1.000000000               0.000000488              -0.000024846               1.000000000               0.000000894              -0.000028370               1.000000000               0.000001562              -0.000032380               1.000000000               0.000002677              -0.000036918               1.000000000               0.000004385              -0.000042061               1.000000000               0.000006737              -0.000047952               1.000000000               0.000009641              -0.000054713               1.000000000               0.000013138              -0.000062325               1.000000000               0.000017249              -0.000070780               1.000000000               0.000021879              -0.000080091               1.000000000               0.000027004              -0.000090198               1.000000000               0.000032610              -0.000101073               1.000000000              -0.000000604              -0.000018504               1.000000000              -0.000001388              -0.000016624               1.000000000              -0.000001292              -0.000018044               1.000000000              -0.000000620              -0.000021478               1.000000000               0.000000210              -0.000026071               1.000000000               0.000000897              -0.000030932               1.000000000               0.000001491              -0.000035787               1.000000000               0.000002439              -0.000041379               1.000000000               0.000004028              -0.000047667               1.000000000               0.000006325              -0.000054722               1.000000000               0.000009262              -0.000062790               1.000000000               0.000012810              -0.000071833               1.000000000               0.000017027              -0.000081883               1.000000000               0.000021824              -0.000092923               1.000000000               0.000027186              -0.000104893               1.000000000               0.000033082              -0.000117749               1.000000000               0.000039460              -0.000131350               1.000000000              -0.000000579              -0.000021148               1.000000000              -0.000001776              -0.000019260               1.000000000              -0.000001479              -0.000021316               1.000000000              -0.000000523              -0.000025765               1.000000000               0.000000554              -0.000031484               1.000000000               0.000001302              -0.000037547               1.000000000               0.000002007              -0.000043999               1.000000000               0.000003333              -0.000051332               1.000000000               0.000005439              -0.000059624               1.000000000               0.000008211              -0.000068899               1.000000000               0.000011642              -0.000079439               1.000000000               0.000015778              -0.000091185               1.000000000               0.000020573              -0.000104075               1.000000000               0.000025952              -0.000118167               1.000000000               0.000031921              -0.000133313               1.000000000               0.000038347              -0.000149366               1.000000000               0.000045119              -0.000166165               1.000000000              -0.000000524              -0.000023878               1.000000000              -0.000002023              -0.000022043               1.000000000              -0.000001764              -0.000023754               1.000000000              -0.000000894              -0.000027839               1.000000000               0.000000226              -0.000033368               1.000000000               0.000001080              -0.000039533               1.000000000               0.000001606              -0.000046131               1.000000000               0.000002410              -0.000053391               1.000000000               0.000003902              -0.000061460               1.000000000               0.000005882              -0.000070383               1.000000000               0.000008408              -0.000080220               1.000000000               0.000011479              -0.000091168               1.000000000               0.000015013              -0.000103136               1.000000000               0.000019053              -0.000116146               1.000000000               0.000023536              -0.000130216               1.000000000               0.000028458              -0.000145355               1.000000000               0.000033806              -0.000161390               1.000000000              -0.000000425              -0.000026457               1.000000000              -0.000002076              -0.000024829               1.000000000              -0.000002043              -0.000026368               1.000000000              -0.000001331              -0.000030057               1.000000000              -0.000000252              -0.000035223               1.000000000               0.000000688              -0.000041325               1.000000000               0.000001256              -0.000048038               1.000000000               0.000001777              -0.000055335               1.000000000               0.000002733              -0.000063333               1.000000000               0.000004074              -0.000072055               1.000000000               0.000005816              -0.000081496               1.000000000               0.000007960              -0.000091810               1.000000000               0.000010437              -0.000103065               1.000000000               0.000013255              -0.000115212               1.000000000               0.000016422              -0.000128242               1.000000000               0.000019918              -0.000142242               1.000000000               0.000023830              -0.000157230               1.000000000              -0.000000316              -0.000028833               1.000000000              -0.000002047              -0.000027610               1.000000000              -0.000002199              -0.000028959               1.000000000              -0.000001624              -0.000032226               1.000000000              -0.000000688              -0.000037020               1.000000000               0.000000266              -0.000042957               1.000000000               0.000000912              -0.000049725               1.000000000               0.000001322              -0.000057094               1.000000000               0.000001835              -0.000065123               1.000000000               0.000002666              -0.000073770               1.000000000               0.000003750              -0.000083027               1.000000000               0.000005120              -0.000092952               1.000000000               0.000006750              -0.000103660               1.000000000               0.000008584              -0.000115176               1.000000000               0.000010654              -0.000127479               1.000000000               0.000012941              -0.000140552               1.000000000               0.000015418              -0.000154545               1.000000000              -0.000000233              -0.000030919               1.000000000              -0.000001870              -0.000030143               1.000000000              -0.000002123              -0.000031374               1.000000000              -0.000001760              -0.000034351               1.000000000              -0.000001029              -0.000038852               1.000000000              -0.000000177              -0.000044600               1.000000000               0.000000506              -0.000051242               1.000000000               0.000000900              -0.000058596               1.000000000               0.000001171              -0.000066586               1.000000000               0.000001604              -0.000075244               1.000000000               0.000002219              -0.000084453               1.000000000               0.000003007              -0.000094229               1.000000000               0.000003981              -0.000104635               1.000000000               0.000005076              -0.000115753               1.000000000               0.000006267              -0.000127610               1.000000000               0.000007538              -0.000140105               1.000000000               0.000008879              -0.000153282               1.000000000              -0.000000152              -0.000032608               1.000000000              -0.000001541              -0.000032262               1.000000000              -0.000001869              -0.000033549               1.000000000              -0.000001674              -0.000036369               1.000000000              -0.000001134              -0.000040572               1.000000000              -0.000000452              -0.000046033               1.000000000               0.000000144              -0.000052473               1.000000000               0.000000508              -0.000059755               1.000000000               0.000000693              -0.000067732               1.000000000               0.000000911              -0.000076378               1.000000000               0.000001200              -0.000085622               1.000000000               0.000001575              -0.000095371               1.000000000               0.000002054              -0.000105634               1.000000000               0.000002613              -0.000116538               1.000000000               0.000003202              -0.000128062               1.000000000               0.000003808              -0.000140244               1.000000000               0.000004401              -0.000152992               1.000000000              -0.000000089              -0.000033870               1.000000000              -0.000001119              -0.000033928               1.000000000              -0.000001407              -0.000035304               1.000000000              -0.000001300              -0.000038008               1.000000000              -0.000000977              -0.000042023               1.000000000              -0.000000530              -0.000047212               1.000000000              -0.000000068              -0.000053445               1.000000000               0.000000257              -0.000060594               1.000000000               0.000000391              -0.000068522               1.000000000               0.000000478              -0.000077142               1.000000000               0.000000572              -0.000086366               1.000000000               0.000000685              -0.000096134               1.000000000               0.000000866              -0.000106362               1.000000000               0.000001098              -0.000117137               1.000000000               0.000001345              -0.000128429               1.000000000               0.000001609              -0.000140388               1.000000000               0.000001851              -0.000152918               1.000000000              -0.000000046              -0.000034652               1.000000000              -0.000000596              -0.000034975               1.000000000              -0.000000741              -0.000036428               1.000000000              -0.000000719              -0.000039086               1.000000000              -0.000000575              -0.000042985               1.000000000              -0.000000335              -0.000048003               1.000000000              -0.000000092              -0.000054111               1.000000000               0.000000089              -0.000061159               1.000000000               0.000000162              -0.000069001               1.000000000               0.000000191              -0.000077585               1.000000000               0.000000219              -0.000086781               1.000000000               0.000000233              -0.000096521               1.000000000               0.000000267              -0.000106717               1.000000000               0.000000331              -0.000117378               1.000000000               0.000000418              -0.000128523               1.000000000               0.000000524              -0.000140302               1.000000000               0.000000642              -0.000152646               1.000000000              -0.000000000              -0.000034916               1.000000000               0.000000000              -0.000035320               1.000000000              -0.000000000              -0.000036812               1.000000000              -0.000000000              -0.000039474               1.000000000              -0.000000000              -0.000043327               1.000000000              -0.000000000              -0.000048274               1.000000000              -0.000000000              -0.000054306               1.000000000              -0.000000000              -0.000061308               1.000000000              -0.000000000              -0.000069148               1.000000000              -0.000000000              -0.000077734               1.000000000              -0.000000000              -0.000086909               1.000000000              -0.000000000              -0.000096637               1.000000000              -0.000000000              -0.000106819               1.000000000              -0.000000000              -0.000117413               1.000000000               0.000000000              -0.000128492               1.000000000               0.000000000              -0.000140189               1.000000000               0.000000000              -0.000152445               1.000000000              -0.000001067               0.000000000               1.000000000              -0.000000157               0.000000000               1.000000000               0.000000030               0.000000000               1.000000000              -0.000000025               0.000000000               1.000000000              -0.000000100               0.000000000               1.000000000              -0.000000043               0.000000000               1.000000000               0.000000076               0.000000000               1.000000000               0.000000153               0.000000000               1.000000000               0.000000200               0.000000000               1.000000000               0.000000188               0.000000000               1.000000000               0.000000079               0.000000000               1.000000000              -0.000000091               0.000000000               1.000000000              -0.000000240               0.000000000               1.000000000              -0.000000292               0.000000000               1.000000000              -0.000000152               0.000000000               1.000000000               0.000000276               0.000000000               1.000000000               0.000001052               0.000000000               1.000000000              -0.000001079               0.000002602               1.000000000              -0.000000170               0.000002384               1.000000000               0.000000038               0.000002394               1.000000000              -0.000000004               0.000002660               1.000000000              -0.000000051               0.000003136               1.000000000              -0.000000043               0.000003646               1.000000000               0.000000021               0.000003946               1.000000000               0.000000120               0.000004232               1.000000000               0.000000173               0.000004450               1.000000000               0.000000149               0.000004547               1.000000000               0.000000090               0.000004644               1.000000000               0.000000008               0.000004783               1.000000000              -0.000000034               0.000005058               1.000000000               0.000000068               0.000005545               1.000000000               0.000000387               0.000006267               1.000000000               0.000001011               0.000007227               1.000000000               0.000002018               0.000008381               1.000000000              -0.000000948               0.000005168               1.000000000              -0.000000128               0.000004739               1.000000000              -0.000000005               0.000004746               1.000000000              -0.000000061               0.000005358               1.000000000              -0.000000029               0.000006261               1.000000000               0.000000066               0.000007250               1.000000000               0.000000112               0.000007853               1.000000000               0.000000083               0.000008469               1.000000000              -0.000000001               0.000009010               1.000000000              -0.000000043               0.000009406               1.000000000               0.000000033               0.000009854               1.000000000               0.000000254               0.000010420               1.000000000               0.000000680               0.000011258               1.000000000               0.000001375               0.000012474               1.000000000               0.000002380               0.000014136               1.000000000               0.000003730               0.000016292               1.000000000               0.000005481               0.000018972               1.000000000              -0.000000803               0.000007774               1.000000000              -0.000000198               0.000007059               1.000000000              -0.000000135               0.000007149               1.000000000              -0.000000103               0.000008079               1.000000000              -0.000000007               0.000009470               1.000000000               0.000000103               0.000010918               1.000000000               0.000000099               0.000011890               1.000000000               0.000000083               0.000012949               1.000000000               0.000000131               0.000013955               1.000000000               0.000000289               0.000014983               1.000000000               0.000000707               0.000016195               1.000000000               0.000001456               0.000017707               1.000000000               0.000002558               0.000019637               1.000000000               0.000004090               0.000022077               1.000000000               0.000006063               0.000025117               1.000000000               0.000008450               0.000028827               1.000000000               0.000011255               0.000033279               1.000000000              -0.000000710               0.000010449               1.000000000              -0.000000348               0.000009354               1.000000000              -0.000000355               0.000009623               1.000000000              -0.000000277               0.000010926               1.000000000              -0.000000058               0.000012914               1.000000000               0.000000217               0.000014821               1.000000000               0.000000346               0.000016417               1.000000000               0.000000484               0.000018086               1.000000000               0.000000745               0.000019912               1.000000000               0.000001284               0.000021938               1.000000000               0.000002255               0.000024378               1.000000000               0.000003664               0.000027328               1.000000000               0.000005542               0.000030871               1.000000000               0.000007949               0.000035081               1.000000000               0.000010865               0.000039989               1.000000000               0.000014254               0.000045637               1.000000000               0.000018083               0.000052054               1.000000000              -0.000000599               0.000013135               1.000000000              -0.000000604               0.000011655               1.000000000              -0.000000693               0.000012201               1.000000000              -0.000000421               0.000014053               1.000000000               0.000000021               0.000016679               1.000000000               0.000000359               0.000019379               1.000000000               0.000000552               0.000021868               1.000000000               0.000000900               0.000024524               1.000000000               0.000001547               0.000027573               1.000000000               0.000002650               0.000030989               1.000000000               0.000004300               0.000035017               1.000000000               0.000006484               0.000039741               1.000000000               0.000009201               0.000045214               1.000000000               0.000012476               0.000051468               1.000000000               0.000016287               0.000058490               1.000000000               0.000020568               0.000066285               1.000000000               0.000025306               0.000074822               1.000000000              -0.000000598               0.000015836               1.000000000              -0.000001006               0.000014089               1.000000000              -0.000000985               0.000014965               1.000000000              -0.000000539               0.000017555               1.000000000               0.000000006               0.000021098               1.000000000               0.000000488               0.000024846               1.000000000               0.000000894               0.000028370               1.000000000               0.000001562               0.000032380               1.000000000               0.000002677               0.000036918               1.000000000               0.000004385               0.000042061               1.000000000               0.000006737               0.000047952               1.000000000               0.000009641               0.000054713               1.000000000               0.000013138               0.000062325               1.000000000               0.000017249               0.000070780               1.000000000               0.000021879               0.000080091               1.000000000               0.000027004               0.000090198               1.000000000               0.000032610               0.000101073               1.000000000              -0.000000604               0.000018504               1.000000000              -0.000001388               0.000016624               1.000000000              -0.000001292               0.000018044               1.000000000              -0.000000620               0.000021478               1.000000000               0.000000210               0.000026071               1.000000000               0.000000897               0.000030932               1.000000000               0.000001491               0.000035787               1.000000000               0.000002439               0.000041379               1.000000000               0.000004028               0.000047667               1.000000000               0.000006325               0.000054722               1.000000000               0.000009262               0.000062790               1.000000000               0.000012810               0.000071833               1.000000000               0.000017027               0.000081883               1.000000000               0.000021824               0.000092923               1.000000000               0.000027186               0.000104893               1.000000000               0.000033082               0.000117749               1.000000000               0.000039460               0.000131350               1.000000000              -0.000000579               0.000021148               1.000000000              -0.000001776               0.000019260               1.000000000              -0.000001479               0.000021316               1.000000000              -0.000000523               0.000025765               1.000000000               0.000000554               0.000031484               1.000000000               0.000001302               0.000037547               1.000000000               0.000002007               0.000043999               1.000000000               0.000003333               0.000051332               1.000000000               0.000005439               0.000059624               1.000000000               0.000008211               0.000068899               1.000000000               0.000011642               0.000079439               1.000000000               0.000015778               0.000091185               1.000000000               0.000020573               0.000104075               1.000000000               0.000025952               0.000118167               1.000000000               0.000031921               0.000133313               1.000000000               0.000038347               0.000149366               1.000000000               0.000045119               0.000166165               1.000000000              -0.000000524               0.000023878               1.000000000              -0.000002023               0.000022043               1.000000000              -0.000001764               0.000023754               1.000000000              -0.000000894               0.000027839               1.000000000               0.000000226               0.000033368               1.000000000               0.000001080               0.000039533               1.000000000               0.000001606               0.000046131               1.000000000               0.000002410               0.000053391               1.000000000               0.000003902               0.000061460               1.000000000               0.000005882               0.000070383               1.000000000               0.000008408               0.000080220               1.000000000               0.000011479               0.000091168               1.000000000               0.000015013               0.000103136               1.000000000               0.000019053               0.000116146               1.000000000               0.000023536               0.000130216               1.000000000               0.000028458               0.000145355               1.000000000               0.000033806               0.000161390               1.000000000              -0.000000425               0.000026457               1.000000000              -0.000002076               0.000024829               1.000000000              -0.000002043               0.000026368               1.000000000              -0.000001331               0.000030057               1.000000000              -0.000000252               0.000035223               1.000000000               0.000000688               0.000041325               1.000000000               0.000001256               0.000048038               1.000000000               0.000001777               0.000055335               1.000000000               0.000002733               0.000063333               1.000000000               0.000004074               0.000072055               1.000000000               0.000005816               0.000081496               1.000000000               0.000007960               0.000091810               1.000000000               0.000010437               0.000103065               1.000000000               0.000013255               0.000115212               1.000000000               0.000016422               0.000128242               1.000000000               0.000019918               0.000142242               1.000000000               0.000023830               0.000157230               1.000000000              -0.000000316               0.000028833               1.000000000              -0.000002047               0.000027610               1.000000000              -0.000002199               0.000028959               1.000000000              -0.000001624               0.000032226               1.000000000              -0.000000688               0.000037020               1.000000000               0.000000266               0.000042957               1.000000000               0.000000912               0.000049725               1.000000000               0.000001322               0.000057094               1.000000000               0.000001835               0.000065123               1.000000000               0.000002666               0.000073770               1.000000000               0.000003750               0.000083027               1.000000000               0.000005120               0.000092952               1.000000000               0.000006750               0.000103660               1.000000000               0.000008584               0.000115176               1.000000000               0.000010654               0.000127479               1.000000000               0.000012941               0.000140552               1.000000000               0.000015418               0.000154545               1.000000000              -0.000000233               0.000030919               1.000000000              -0.000001870               0.000030143               1.000000000              -0.000002123               0.000031374               1.000000000              -0.000001760               0.000034351               1.000000000              -0.000001029               0.000038852               1.000000000              -0.000000177               0.000044600               1.000000000               0.000000506               0.000051242               1.000000000               0.000000900               0.000058596               1.000000000               0.000001171               0.000066586               1.000000000               0.000001604               0.000075244               1.000000000               0.000002219               0.000084453               1.000000000               0.000003007               0.000094229               1.000000000               0.000003981               0.000104635               1.000000000               0.000005076               0.000115753               1.000000000               0.000006267               0.000127610               1.000000000               0.000007538               0.000140105               1.000000000               0.000008879               0.000153282               1.000000000              -0.000000152               0.000032608               1.000000000              -0.000001541               0.000032262               1.000000000              -0.000001869               0.000033549               1.000000000              -0.000001674               0.000036369               1.000000000              -0.000001134               0.000040572               1.000000000              -0.000000452               0.000046033               1.000000000               0.000000144               0.000052473               1.000000000               0.000000508               0.000059755               1.000000000               0.000000693               0.000067732               1.000000000               0.000000911               0.000076378               1.000000000               0.000001200               0.000085622               1.000000000               0.000001575               0.000095371               1.000000000               0.000002054               0.000105634               1.000000000               0.000002613               0.000116538               1.000000000               0.000003202               0.000128062               1.000000000               0.000003808               0.000140244               1.000000000               0.000004401               0.000152992               1.000000000              -0.000000089               0.000033870               1.000000000              -0.000001119               0.000033928               1.000000000              -0.000001407               0.000035304               1.000000000              -0.000001300               0.000038008               1.000000000              -0.000000977               0.000042023               1.000000000              -0.000000530               0.000047212               1.000000000              -0.000000068               0.000053445               1.000000000               0.000000257               0.000060594               1.000000000               0.000000391               0.000068522               1.000000000               0.000000478               0.000077142               1.000000000               0.000000572               0.000086366               1.000000000               0.000000685               0.000096134               1.000000000               0.000000866               0.000106362               1.000000000               0.000001098               0.000117137               1.000000000               0.000001345               0.000128429               1.000000000               0.000001609               0.000140388               1.000000000               0.000001851               0.000152918               1.000000000              -0.000000046               0.000034652               1.000000000              -0.000000596               0.000034975               1.000000000              -0.000000741               0.000036428               1.000000000              -0.000000719               0.000039086               1.000000000              -0.000000575               0.000042985               1.000000000              -0.000000335               0.000048003               1.000000000              -0.000000092               0.000054111               1.000000000               0.000000089               0.000061159               1.000000000               0.000000162               0.000069001               1.000000000               0.000000191               0.000077585               1.000000000               0.000000219               0.000086781               1.000000000               0.000000233               0.000096521               1.000000000               0.000000267               0.000106717               1.000000000               0.000000331               0.000117378               1.000000000               0.000000418               0.000128523               1.000000000               0.000000524               0.000140302               1.000000000               0.000000642               0.000152646               1.000000000              -0.000000000               0.000034916               1.000000000              -0.000000000               0.000035320               1.000000000               0.000000000               0.000036812               1.000000000               0.000000000               0.000039474               1.000000000               0.000000000               0.000043327               1.000000000               0.000000000               0.000048274               1.000000000               0.000000000               0.000054306               1.000000000               0.000000000               0.000061308               1.000000000              -0.000000000               0.000069148               1.000000000              -0.000000000               0.000077734               1.000000000              -0.000000000               0.000086909               1.000000000              -0.000000000               0.000096637               1.000000000              -0.000000000               0.000106819               1.000000000              -0.000000000               0.000117413               1.000000000              -0.000000000               0.000128492               1.000000000               0.000000000               0.000140189               1.000000000               0.000000000               0.000152445               1.000000000 </DataArray>
<DataArray type="Float64"                                    Name="stress"                                                      NumberOfComponents="10" format="ascii">
              0.000060499               0.000498280              -0.000000000              -0.000039598               0.000179291               0.000139693               0.000000000               0.000000000               0.000000000               0.000000000               0.000080753               0.000426550              -0.000000000              -0.000023036               0.000149861               0.000126824               0.000000000               0.000000000               0.000000000               0.000000000               0.000118183               0.000377149              -0.000000000              -0.000002825               0.000126657               0.000123832               0.000000000               0.000000000               0.000000000               0.000000000               0.000128584               0.000364949               0.000000000               0.000002600               0.000120782               0.000123382               0.000000000               0.000000000               0.000000000               0.000000000               0.000125276               0.000371665              -0.000000000               0.000000520               0.000123714               0.000124234               0.000000000               0.000000000               0.000000000               0.000000000               0.000117353               0.000377094              -0.000000000              -0.000003129               0.000126740               0.000123611               0.000000000               0.000000000               0.000000000               0.000000000               0.000112601               0.000370435              -0.000000000              -0.000004079               0.000124837               0.000120758               0.000000000               0.000000000               0.000000000               0.000000000               0.000112948               0.000362198              -0.000000000              -0.000002919               0.000121704               0.000118785               0.000000000               0.000000000               0.000000000               0.000000000               0.000115142               0.000351116              -0.000000000              -0.000000711               0.000117275               0.000116563               0.000000000               0.000000000               0.000000000               0.000000000               0.000118344               0.000336168               0.000000000               0.000002358               0.000111269               0.000113627               0.000000000               0.000000000               0.000000000               0.000000000               0.000121141               0.000322542               0.000000000               0.000005110               0.000105810               0.000110920               0.000000000               0.000000000               0.000000000               0.000000000               0.000119038               0.000312087              -0.000000000               0.000005628               0.000102152               0.000107780               0.000000000               0.000000000               0.000000000               0.000000000               0.000109506               0.000307444              -0.000000000               0.000002634               0.000101602               0.000104236               0.000000000               0.000000000               0.000000000               0.000000000               0.000092570               0.000310654               0.000000000              -0.000004118               0.000104923               0.000100805               0.000000000               0.000000000               0.000000000               0.000000000               0.000067667               0.000321211               0.000000000              -0.000014776               0.000111995               0.000097218               0.000000000               0.000000000               0.000000000               0.000000000               0.000035472               0.000337689               0.000000000              -0.000028909               0.000122198               0.000093289               0.000000000               0.000000000               0.000000000               0.000000000               0.000020471               0.000353723               0.000000000              -0.000036539               0.000130086               0.000093548               0.000000000               0.000000000               0.000000000               0.000000000               0.000062607               0.000490060              -0.000039560              -0.000037780               0.000175945               0.000138165               0.000000000               0.000000000               0.000000000               0.000000000               0.000081173               0.000420611              -0.000026811              -0.000022137               0.000147581               0.000125444               0.000000000               0.000000000               0.000000000               0.000000000               0.000116862               0.000374222              -0.000009879              -0.000002955               0.000125724               0.000122770               0.000000000               0.000000000               0.000000000               0.000000000               0.000126550               0.000366005               0.000000573               0.000001706               0.000121432               0.000123138               0.000000000               0.000000000               0.000000000               0.000000000               0.000124717               0.000372098               0.000003341               0.000000257               0.000123946               0.000124203               0.000000000               0.000000000               0.000000000               0.000000000               0.000120530               0.000376990              -0.000001282              -0.000001925               0.000126304               0.000124379               0.000000000               0.000000000               0.000000000               0.000000000               0.000115459               0.000370192              -0.000004359              -0.000002977               0.000124389               0.000121412               0.000000000               0.000000000               0.000000000               0.000000000               0.000114884               0.000363473              -0.000003917              -0.000002352               0.000121941               0.000119588               0.000000000               0.000000000               0.000000000               0.000000000               0.000117530               0.000356260              -0.000005735              -0.000000459               0.000118905               0.000118446               0.000000000               0.000000000               0.000000000               0.000000000               0.000118520               0.000346547              -0.000007390               0.000001127               0.000115139               0.000116266               0.000000000               0.000000000               0.000000000               0.000000000               0.000118114               0.000338830              -0.000008137               0.000001939               0.000112296               0.000114235               0.000000000               0.000000000               0.000000000               0.000000000               0.000114872               0.000334974              -0.000008207               0.000001205               0.000111255               0.000112461               0.000000000               0.000000000               0.000000000               0.000000000               0.000104703               0.000336185              -0.000006626              -0.000002759               0.000112980               0.000110221               0.000000000               0.000000000               0.000000000               0.000000000               0.000087534               0.000343796              -0.000004311              -0.000010149               0.000117980               0.000107831               0.000000000               0.000000000               0.000000000               0.000000000               0.000064045               0.000358255              -0.000001960              -0.000020765               0.000126339               0.000105574               0.000000000               0.000000000               0.000000000               0.000000000               0.000033777               0.000379064              -0.000000217              -0.000034717               0.000137925               0.000103209               0.000000000               0.000000000               0.000000000               0.000000000               0.000020510               0.000399094              -0.000001084              -0.000042195               0.000147095               0.000104900               0.000000000               0.000000000               0.000000000               0.000000000               0.000074902               0.000475670              -0.000076258              -0.000031371               0.000169012               0.000137641               0.000000000               0.000000000               0.000000000               0.000000000               0.000087266               0.000409570              -0.000049506              -0.000018471               0.000142679               0.000124208               0.000000000               0.000000000               0.000000000               0.000000000               0.000117237               0.000373056              -0.000016092              -0.000002668               0.000125240               0.000122572               0.000000000               0.000000000               0.000000000               0.000000000               0.000122333               0.000370081               0.000001979              -0.000000385               0.000123488               0.000123102               0.000000000               0.000000000               0.000000000               0.000000000               0.000119498               0.000376496               0.000006315              -0.000002250               0.000126247               0.000123997               0.000000000               0.000000000               0.000000000               0.000000000               0.000121363               0.000380848              -0.000002176              -0.000002095               0.000127646               0.000125551               0.000000000               0.000000000               0.000000000               0.000000000               0.000124865               0.000378447              -0.000008054              -0.000000482               0.000126308               0.000125827               0.000000000               0.000000000               0.000000000               0.000000000               0.000128758               0.000378714              -0.000007706               0.000000945               0.000125922               0.000126867               0.000000000               0.000000000               0.000000000               0.000000000               0.000129428               0.000379631              -0.000011986               0.000001082               0.000126182               0.000127263               0.000000000               0.000000000               0.000000000               0.000000000               0.000123841               0.000382846              -0.000016123              -0.000001415               0.000128086               0.000126671               0.000000000               0.000000000               0.000000000               0.000000000               0.000115295               0.000390443              -0.000018457              -0.000005570               0.000132003               0.000126433               0.000000000               0.000000000               0.000000000               0.000000000               0.000105543               0.000403441              -0.000019707              -0.000010851               0.000138096               0.000127245               0.000000000               0.000000000               0.000000000               0.000000000               0.000091213               0.000420408              -0.000018509              -0.000018346               0.000146250               0.000127904               0.000000000               0.000000000               0.000000000               0.000000000               0.000072543               0.000440967              -0.000015645              -0.000027917               0.000156293               0.000128376               0.000000000               0.000000000               0.000000000               0.000000000               0.000051550               0.000466221              -0.000011527              -0.000038946               0.000168387               0.000129441               0.000000000               0.000000000               0.000000000               0.000000000               0.000027129               0.000496590              -0.000006147              -0.000051900               0.000182828               0.000130928               0.000000000               0.000000000               0.000000000               0.000000000               0.000018648               0.000522821              -0.000005832              -0.000058359               0.000193725               0.000135366               0.000000000               0.000000000               0.000000000               0.000000000               0.000093940               0.000459206              -0.000104488              -0.000022173               0.000160458               0.000138285               0.000000000               0.000000000               0.000000000               0.000000000               0.000093953               0.000396692              -0.000065125              -0.000014354               0.000137014               0.000122660               0.000000000               0.000000000               0.000000000               0.000000000               0.000112462               0.000376122              -0.000020165              -0.000004842               0.000126987               0.000122145               0.000000000               0.000000000               0.000000000               0.000000000               0.000114887               0.000381615               0.000003332              -0.000004619               0.000128744               0.000124124               0.000000000               0.000000000               0.000000000               0.000000000               0.000117837               0.000395401               0.000007769              -0.000005236               0.000133544               0.000128308               0.000000000               0.000000000               0.000000000               0.000000000               0.000128086               0.000402328              -0.000004241              -0.000002259               0.000134861               0.000132602               0.000000000               0.000000000               0.000000000               0.000000000               0.000139620               0.000410741              -0.000013690               0.000001015               0.000136574               0.000137589               0.000000000               0.000000000               0.000000000               0.000000000               0.000143597               0.000421110              -0.000016434               0.000001210               0.000139965               0.000141175               0.000000000               0.000000000               0.000000000               0.000000000               0.000142929               0.000436069              -0.000023109              -0.000000910               0.000145658               0.000144748               0.000000000               0.000000000               0.000000000               0.000000000               0.000134776               0.000457413              -0.000028687              -0.000006636               0.000154681               0.000148046               0.000000000               0.000000000               0.000000000               0.000000000               0.000120531               0.000484771              -0.000032025              -0.000015397               0.000166721               0.000151324               0.000000000               0.000000000               0.000000000               0.000000000               0.000105512               0.000518355              -0.000033353              -0.000025227               0.000181192               0.000155965               0.000000000               0.000000000               0.000000000               0.000000000               0.000086688               0.000554531              -0.000031999              -0.000036808               0.000197111               0.000160303               0.000000000               0.000000000               0.000000000               0.000000000               0.000064325               0.000591537              -0.000028173              -0.000049820               0.000213784               0.000163964               0.000000000               0.000000000               0.000000000               0.000000000               0.000042903               0.000629674              -0.000021677              -0.000062621               0.000230763               0.000168142               0.000000000               0.000000000               0.000000000               0.000000000               0.000021796               0.000668304              -0.000012158              -0.000075364               0.000247887               0.000172523               0.000000000               0.000000000               0.000000000               0.000000000               0.000016234               0.000696747              -0.000009726              -0.000081005               0.000259248               0.000178243               0.000000000               0.000000000               0.000000000               0.000000000               0.000111484               0.000431782              -0.000128885              -0.000012166               0.000147981               0.000135815               0.000000000               0.000000000               0.000000000               0.000000000               0.000098850               0.000382057              -0.000077138              -0.000010688               0.000130914               0.000120225               0.000000000               0.000000000               0.000000000               0.000000000               0.000106492               0.000385652              -0.000022583              -0.000008272               0.000131307               0.000123035               0.000000000               0.000000000               0.000000000               0.000000000               0.000109653               0.000408605               0.000002307              -0.000009956               0.000139519               0.000129563               0.000000000               0.000000000               0.000000000               0.000000000               0.000118667               0.000432223               0.000004138              -0.000009528               0.000147249               0.000137721               0.000000000               0.000000000               0.000000000               0.000000000               0.000137248               0.000452460              -0.000010026              -0.000005090               0.000152515               0.000147425               0.000000000               0.000000000               0.000000000               0.000000000               0.000155733               0.000478922              -0.000021511              -0.000001465               0.000160127               0.000158662               0.000000000               0.000000000               0.000000000               0.000000000               0.000162007               0.000506809              -0.000026238              -0.000002599               0.000169801               0.000167202               0.000000000               0.000000000               0.000000000               0.000000000               0.000160199               0.000540893              -0.000033165              -0.000007537               0.000182808               0.000175271               0.000000000               0.000000000               0.000000000               0.000000000               0.000147879               0.000578907              -0.000039109              -0.000016909               0.000198603               0.000181695               0.000000000               0.000000000               0.000000000               0.000000000               0.000131013               0.000622245              -0.000041620              -0.000028651               0.000216963               0.000188313               0.000000000               0.000000000               0.000000000               0.000000000               0.000114184               0.000670044              -0.000041645              -0.000040937               0.000236991               0.000196055               0.000000000               0.000000000               0.000000000               0.000000000               0.000092826               0.000718204              -0.000038821              -0.000054966               0.000257721               0.000202755               0.000000000               0.000000000               0.000000000               0.000000000               0.000068017               0.000764878              -0.000033315              -0.000070103               0.000278324               0.000208221               0.000000000               0.000000000               0.000000000               0.000000000               0.000044524               0.000809487              -0.000024988              -0.000084489               0.000297989               0.000213500               0.000000000               0.000000000               0.000000000               0.000000000               0.000022097               0.000850543              -0.000013578              -0.000098031               0.000316189               0.000218157               0.000000000               0.000000000               0.000000000               0.000000000               0.000016050               0.000878071              -0.000010183              -0.000103740               0.000327267               0.000223527               0.000000000               0.000000000               0.000000000               0.000000000               0.000125901               0.000399817              -0.000143859              -0.000002764               0.000134192               0.000131428               0.000000000               0.000000000               0.000000000               0.000000000               0.000102889               0.000374828              -0.000085414              -0.000008270               0.000127698               0.000119428               0.000000000               0.000000000               0.000000000               0.000000000               0.000102024               0.000408005              -0.000027265              -0.000012741               0.000140247               0.000127506               0.000000000               0.000000000               0.000000000               0.000000000               0.000108167               0.000454104              -0.000004300              -0.000016200               0.000156767               0.000140566               0.000000000               0.000000000               0.000000000               0.000000000               0.000128789               0.000496986              -0.000002049              -0.000013827               0.000170269               0.000156442               0.000000000               0.000000000               0.000000000               0.000000000               0.000158879               0.000537756              -0.000016025              -0.000007640               0.000181797               0.000174157               0.000000000               0.000000000               0.000000000               0.000000000               0.000177870               0.000577306              -0.000028426              -0.000005462               0.000194254               0.000188792               0.000000000               0.000000000               0.000000000               0.000000000               0.000181157               0.000622544              -0.000034568              -0.000009884               0.000210807               0.000200923               0.000000000               0.000000000               0.000000000               0.000000000               0.000174287               0.000671020              -0.000041944              -0.000018520               0.000229845               0.000211325               0.000000000               0.000000000               0.000000000               0.000000000               0.000157894               0.000721520              -0.000047888              -0.000030980               0.000250831               0.000219851               0.000000000               0.000000000               0.000000000               0.000000000               0.000139086               0.000774264              -0.000048460              -0.000044626               0.000272961               0.000228335               0.000000000               0.000000000               0.000000000               0.000000000               0.000120216               0.000828328              -0.000045860              -0.000058460               0.000295593               0.000237133               0.000000000               0.000000000               0.000000000               0.000000000               0.000097058               0.000879744              -0.000040685              -0.000073571               0.000317769               0.000244198               0.000000000               0.000000000               0.000000000               0.000000000               0.000071366               0.000927330              -0.000033246              -0.000089154               0.000338825               0.000249671               0.000000000               0.000000000               0.000000000               0.000000000               0.000047291               0.000971848              -0.000023658              -0.000103747               0.000358528               0.000254782               0.000000000               0.000000000               0.000000000               0.000000000               0.000023682               0.001011633              -0.000012257              -0.000117573               0.000376399               0.000258826               0.000000000               0.000000000               0.000000000               0.000000000               0.000016704               0.001038146              -0.000009279              -0.000123504               0.000387213               0.000263709               0.000000000               0.000000000               0.000000000               0.000000000               0.000137453               0.000369450              -0.000150110               0.000005363               0.000121361               0.000126724               0.000000000               0.000000000               0.000000000               0.000000000               0.000106254               0.000376054              -0.000093846              -0.000007162               0.000127737               0.000120576               0.000000000               0.000000000               0.000000000               0.000000000               0.000101593               0.000446551              -0.000036247              -0.000017722               0.000154756               0.000137035               0.000000000               0.000000000               0.000000000               0.000000000               0.000117866               0.000516900              -0.000012364              -0.000020413               0.000179102               0.000158690               0.000000000               0.000000000               0.000000000               0.000000000               0.000150373               0.000577926              -0.000010523              -0.000015851               0.000197924               0.000182073               0.000000000               0.000000000               0.000000000               0.000000000               0.000185592               0.000628246              -0.000026135              -0.000008934               0.000212391               0.000203457               0.000000000               0.000000000               0.000000000               0.000000000               0.000203781               0.000678582              -0.000038225              -0.000008405               0.000228994               0.000220588               0.000000000               0.000000000               0.000000000               0.000000000               0.000201070               0.000736034              -0.000043030              -0.000016603               0.000250876               0.000234274               0.000000000               0.000000000               0.000000000               0.000000000               0.000186096               0.000792482              -0.000049196              -0.000029274               0.000273916               0.000244642               0.000000000               0.000000000               0.000000000               0.000000000               0.000164380               0.000850046              -0.000052508              -0.000044613               0.000298217               0.000253604               0.000000000               0.000000000               0.000000000               0.000000000               0.000143530               0.000910276              -0.000050262              -0.000059960               0.000323409               0.000263449               0.000000000               0.000000000               0.000000000               0.000000000               0.000121823               0.000968929              -0.000044856              -0.000075432               0.000348117               0.000272685               0.000000000               0.000000000               0.000000000               0.000000000               0.000095510               0.001023549              -0.000038204              -0.000092127               0.000371888               0.000279762               0.000000000               0.000000000               0.000000000               0.000000000               0.000069484               0.001075094              -0.000029633              -0.000108330               0.000394471               0.000286141               0.000000000               0.000000000               0.000000000               0.000000000               0.000045828               0.001123597              -0.000019985              -0.000123264               0.000415616               0.000292353               0.000000000               0.000000000               0.000000000               0.000000000               0.000022150               0.001167516              -0.000010264              -0.000137633               0.000435046               0.000297413               0.000000000               0.000000000               0.000000000               0.000000000               0.000015426               0.001196776              -0.000008577              -0.000143812               0.000446859               0.000303047               0.000000000               0.000000000               0.000000000               0.000000000               0.000150149               0.000343876              -0.000151975               0.000013321               0.000110184               0.000123505               0.000000000               0.000000000               0.000000000               0.000000000               0.000114106               0.000382805              -0.000100481              -0.000005061               0.000129287               0.000124226               0.000000000               0.000000000               0.000000000               0.000000000               0.000108632               0.000491876              -0.000047029              -0.000020747               0.000170873               0.000150125               0.000000000               0.000000000               0.000000000               0.000000000               0.000133112               0.000582494              -0.000024760              -0.000022895               0.000201794               0.000178900               0.000000000               0.000000000               0.000000000               0.000000000               0.000174352               0.000652053              -0.000022607              -0.000016125               0.000222724               0.000206599               0.000000000               0.000000000               0.000000000               0.000000000               0.000210634               0.000706985              -0.000033425              -0.000009385               0.000238788               0.000229403               0.000000000               0.000000000               0.000000000               0.000000000               0.000224513               0.000769689              -0.000041738              -0.000012019               0.000260567               0.000248548               0.000000000               0.000000000               0.000000000               0.000000000               0.000213428               0.000834610              -0.000045168              -0.000024291               0.000286297               0.000262007               0.000000000               0.000000000               0.000000000               0.000000000               0.000192154               0.000898657              -0.000050744              -0.000040274               0.000312974               0.000272700               0.000000000               0.000000000               0.000000000               0.000000000               0.000168679               0.000964791              -0.000050243              -0.000057344               0.000340708               0.000283364               0.000000000               0.000000000               0.000000000               0.000000000               0.000146204               0.001034359              -0.000044948              -0.000074468               0.000369606               0.000295137               0.000000000               0.000000000               0.000000000               0.000000000               0.000121360               0.001101734              -0.000038927              -0.000092207               0.000397977               0.000305770               0.000000000               0.000000000               0.000000000               0.000000000               0.000095234               0.001166314              -0.000031119              -0.000110076               0.000425459               0.000315383               0.000000000               0.000000000               0.000000000               0.000000000               0.000070403               0.001229444              -0.000022678              -0.000127279               0.000452237               0.000324958               0.000000000               0.000000000               0.000000000               0.000000000               0.000046193               0.001288614              -0.000014604              -0.000143754               0.000477452               0.000333698               0.000000000               0.000000000               0.000000000               0.000000000               0.000022543               0.001342184              -0.000007156              -0.000159319               0.000500496               0.000341178               0.000000000               0.000000000               0.000000000               0.000000000               0.000014850               0.001376782              -0.000006966              -0.000166528               0.000514432               0.000347904               0.000000000               0.000000000               0.000000000               0.000000000               0.000159386               0.000322493              -0.000148739               0.000019458               0.000101011               0.000120468               0.000000000               0.000000000               0.000000000               0.000000000               0.000121525               0.000387868              -0.000106367              -0.000002912               0.000130259               0.000127347               0.000000000               0.000000000               0.000000000               0.000000000               0.000119007               0.000527438              -0.000060090              -0.000021302               0.000182912               0.000161610               0.000000000               0.000000000               0.000000000               0.000000000               0.000146762               0.000632536              -0.000036851              -0.000024031               0.000218854               0.000194823               0.000000000               0.000000000               0.000000000               0.000000000               0.000187533               0.000704697              -0.000029115              -0.000017762               0.000240817               0.000223055               0.000000000               0.000000000               0.000000000               0.000000000               0.000222610               0.000763713              -0.000030655              -0.000011985               0.000258564               0.000246578               0.000000000               0.000000000               0.000000000               0.000000000               0.000231294               0.000833850              -0.000035697              -0.000017496               0.000283779               0.000266283               0.000000000               0.000000000               0.000000000               0.000000000               0.000216671               0.000906447              -0.000041248              -0.000032054               0.000312831               0.000280776               0.000000000               0.000000000               0.000000000               0.000000000               0.000198566               0.000979492              -0.000046240              -0.000047974               0.000342485               0.000294511               0.000000000               0.000000000               0.000000000               0.000000000               0.000180160               0.001057206              -0.000044649              -0.000064591               0.000373929               0.000309338               0.000000000               0.000000000               0.000000000               0.000000000               0.000160106               0.001136411              -0.000038934              -0.000082011               0.000406137               0.000324126               0.000000000               0.000000000               0.000000000               0.000000000               0.000137580               0.001212900              -0.000033024              -0.000100020               0.000437636               0.000337616               0.000000000               0.000000000               0.000000000               0.000000000               0.000113912               0.001286988              -0.000024580              -0.000118156               0.000468377               0.000350221               0.000000000               0.000000000               0.000000000               0.000000000               0.000090650               0.001359091              -0.000015794              -0.000135892               0.000498323               0.000362431               0.000000000               0.000000000               0.000000000               0.000000000               0.000067739               0.001427172              -0.000008210              -0.000152994               0.000526717               0.000373723               0.000000000               0.000000000               0.000000000               0.000000000               0.000048037               0.001491018              -0.000002103              -0.000168363               0.000553122               0.000384759               0.000000000               0.000000000               0.000000000               0.000000000               0.000037359               0.001524646              -0.000000098              -0.000176570               0.000567067               0.000390497               0.000000000               0.000000000               0.000000000               0.000000000               0.000164674               0.000285156              -0.000142695               0.000026108               0.000086348               0.000112456               0.000000000               0.000000000               0.000000000               0.000000000               0.000131790               0.000369874              -0.000114550               0.000003187               0.000122228               0.000125415               0.000000000               0.000000000               0.000000000               0.000000000               0.000126170               0.000529962              -0.000077585              -0.000018931               0.000182963               0.000164031               0.000000000               0.000000000               0.000000000               0.000000000               0.000148472               0.000645704              -0.000051086              -0.000025036               0.000223578               0.000198542               0.000000000               0.000000000               0.000000000               0.000000000               0.000183098               0.000725297              -0.000036008              -0.000022000               0.000249097               0.000227097               0.000000000               0.000000000               0.000000000               0.000000000               0.000222068               0.000792258              -0.000028710              -0.000015757               0.000269336               0.000253579               0.000000000               0.000000000               0.000000000               0.000000000               0.000243539               0.000865225              -0.000029629              -0.000016826               0.000294014               0.000277188               0.000000000               0.000000000               0.000000000               0.000000000               0.000239943               0.000941000              -0.000037514              -0.000027646               0.000322879               0.000295233               0.000000000               0.000000000               0.000000000               0.000000000               0.000227307               0.001016281              -0.000043973              -0.000041795               0.000352688               0.000310894               0.000000000               0.000000000               0.000000000               0.000000000               0.000212904               0.001091886              -0.000045063              -0.000056646               0.000382841               0.000326194               0.000000000               0.000000000               0.000000000               0.000000000               0.000197754               0.001170890              -0.000042703              -0.000072203               0.000414361               0.000342157               0.000000000               0.000000000               0.000000000               0.000000000               0.000180643               0.001250052              -0.000036702              -0.000088515               0.000446185               0.000357670               0.000000000               0.000000000               0.000000000               0.000000000               0.000160290               0.001325510              -0.000028784              -0.000105580               0.000477026               0.000371446               0.000000000               0.000000000               0.000000000               0.000000000               0.000138997               0.001399769              -0.000019814              -0.000122847               0.000507534               0.000384687               0.000000000               0.000000000               0.000000000               0.000000000               0.000118380               0.001475027              -0.000010261              -0.000139986               0.000538333               0.000398347               0.000000000               0.000000000               0.000000000               0.000000000               0.000099896               0.001548857              -0.000003107              -0.000156146               0.000568329               0.000412183               0.000000000               0.000000000               0.000000000               0.000000000               0.000084200               0.001579383               0.000002099              -0.000165847               0.000581738               0.000415891               0.000000000               0.000000000               0.000000000               0.000000000               0.000163245               0.000240967              -0.000131691               0.000031096               0.000069956               0.000101052               0.000000000               0.000000000               0.000000000               0.000000000               0.000141806               0.000342741              -0.000117538               0.000010334               0.000110801               0.000121136               0.000000000               0.000000000               0.000000000               0.000000000               0.000133554               0.000510707              -0.000090430              -0.000013756               0.000174819               0.000161063               0.000000000               0.000000000               0.000000000               0.000000000               0.000149505               0.000630454              -0.000064230              -0.000022742               0.000217730               0.000194988               0.000000000               0.000000000               0.000000000               0.000000000               0.000178238               0.000722319              -0.000044581              -0.000023451               0.000248588               0.000225137               0.000000000               0.000000000               0.000000000               0.000000000               0.000219574               0.000803823              -0.000030846              -0.000018138               0.000273984               0.000255847               0.000000000               0.000000000               0.000000000               0.000000000               0.000255254               0.000883095              -0.000026309              -0.000014667               0.000299251               0.000284584               0.000000000               0.000000000               0.000000000               0.000000000               0.000267706               0.000960573              -0.000031459              -0.000019682               0.000326748               0.000307067               0.000000000               0.000000000               0.000000000               0.000000000               0.000262652               0.001035684              -0.000038410              -0.000030966               0.000355546               0.000324580               0.000000000               0.000000000               0.000000000               0.000000000               0.000253045               0.001106188              -0.000042065              -0.000043382               0.000383186               0.000339805               0.000000000               0.000000000               0.000000000               0.000000000               0.000241306               0.001178813              -0.000042511              -0.000056862               0.000411888               0.000355026               0.000000000               0.000000000               0.000000000               0.000000000               0.000229252               0.001255891              -0.000038297              -0.000071017               0.000442298               0.000371282               0.000000000               0.000000000               0.000000000               0.000000000               0.000215881               0.001331654              -0.000031558              -0.000085501               0.000472381               0.000386879               0.000000000               0.000000000               0.000000000               0.000000000               0.000199286               0.001403500              -0.000023781              -0.000100705               0.000501397               0.000400692               0.000000000               0.000000000               0.000000000               0.000000000               0.000182519               0.001476475              -0.000014712              -0.000116114               0.000530858               0.000414744               0.000000000               0.000000000               0.000000000               0.000000000               0.000166299               0.001552374              -0.000005861              -0.000131684               0.000561347               0.000429663               0.000000000               0.000000000               0.000000000               0.000000000               0.000149152               0.001584248               0.000001384              -0.000142099               0.000575444               0.000433345               0.000000000               0.000000000               0.000000000               0.000000000               0.000151301               0.000198765              -0.000112242               0.000031892               0.000055624               0.000087516               0.000000000               0.000000000               0.000000000               0.000000000               0.000145525               0.000305326              -0.000112062               0.000016406               0.000096306               0.000112711               0.000000000               0.000000000               0.000000000               0.000000000               0.000145554               0.000471364              -0.000097653              -0.000004338               0.000158566               0.000154228               0.000000000               0.000000000               0.000000000               0.000000000               0.000159805               0.000601158              -0.000075066              -0.000015218               0.000205457               0.000190239               0.000000000               0.000000000               0.000000000               0.000000000               0.000184256               0.000713200              -0.000055323              -0.000020054               0.000244416               0.000224362               0.000000000               0.000000000               0.000000000               0.000000000               0.000221748               0.000812308              -0.000038681              -0.000018383               0.000276894               0.000258511               0.000000000               0.000000000               0.000000000               0.000000000               0.000260776               0.000898422              -0.000027252              -0.000014512               0.000304308               0.000289797               0.000000000               0.000000000               0.000000000               0.000000000               0.000284708               0.000977392              -0.000024631              -0.000015408               0.000330930               0.000315522               0.000000000               0.000000000               0.000000000               0.000000000               0.000289663               0.001051564              -0.000028507              -0.000022822               0.000358125               0.000335303               0.000000000               0.000000000               0.000000000               0.000000000               0.000286472               0.001119835              -0.000033464              -0.000032552               0.000384125               0.000351573               0.000000000               0.000000000               0.000000000               0.000000000               0.000280293               0.001186899              -0.000036013              -0.000043252               0.000410046               0.000366794               0.000000000               0.000000000               0.000000000               0.000000000               0.000273785               0.001258788              -0.000035503              -0.000054679               0.000437818               0.000383139               0.000000000               0.000000000               0.000000000               0.000000000               0.000268040               0.001334214              -0.000031419              -0.000066262               0.000466821               0.000400559               0.000000000               0.000000000               0.000000000               0.000000000               0.000260394               0.001408460              -0.000025742              -0.000078409               0.000495619               0.000417209               0.000000000               0.000000000               0.000000000               0.000000000               0.000249578               0.001479576              -0.000019116              -0.000091355               0.000523639               0.000432284               0.000000000               0.000000000               0.000000000               0.000000000               0.000237450               0.001553374              -0.000010103              -0.000105128               0.000552829               0.000447701               0.000000000               0.000000000               0.000000000               0.000000000               0.000222396               0.001585935              -0.000001556              -0.000114843               0.000566921               0.000452078               0.000000000               0.000000000               0.000000000               0.000000000               0.000132089               0.000154671              -0.000087733               0.000030199               0.000041490               0.000071689               0.000000000               0.000000000               0.000000000               0.000000000               0.000146299               0.000259216              -0.000098681               0.000022460               0.000078918               0.000101378               0.000000000               0.000000000               0.000000000               0.000000000               0.000159892               0.000426750              -0.000097066               0.000006616               0.000140043               0.000146659               0.000000000               0.000000000               0.000000000               0.000000000               0.000176481               0.000570679              -0.000080661              -0.000005154               0.000191943               0.000186788               0.000000000               0.000000000               0.000000000               0.000000000               0.000199019               0.000698811              -0.000063136              -0.000012719               0.000237174               0.000224455               0.000000000               0.000000000               0.000000000               0.000000000               0.000228679               0.000807785              -0.000045612              -0.000015219               0.000274332               0.000259113               0.000000000               0.000000000               0.000000000               0.000000000               0.000262659               0.000899342              -0.000029239              -0.000013920               0.000304418               0.000290497               0.000000000               0.000000000               0.000000000               0.000000000               0.000292149               0.000982557              -0.000019371              -0.000013264               0.000331937               0.000318673               0.000000000               0.000000000               0.000000000               0.000000000               0.000309871               0.001061428              -0.000018568              -0.000016477               0.000359298               0.000342821               0.000000000               0.000000000               0.000000000               0.000000000               0.000317248               0.001133631              -0.000022761              -0.000022736               0.000385452               0.000362716               0.000000000               0.000000000               0.000000000               0.000000000               0.000318872               0.001199206              -0.000026593              -0.000030324               0.000409839               0.000379516               0.000000000               0.000000000               0.000000000               0.000000000               0.000318372               0.001265964              -0.000028716              -0.000038856               0.000434936               0.000396080               0.000000000               0.000000000               0.000000000               0.000000000               0.000318546               0.001338235              -0.000027588              -0.000047824               0.000462015               0.000414191               0.000000000               0.000000000               0.000000000               0.000000000               0.000319349               0.001414214              -0.000023634              -0.000057021               0.000490407               0.000433386               0.000000000               0.000000000               0.000000000               0.000000000               0.000316734               0.001485210              -0.000017942              -0.000066876               0.000517357               0.000450481               0.000000000               0.000000000               0.000000000               0.000000000               0.000311330               0.001553082              -0.000010620              -0.000077386               0.000543484               0.000466098               0.000000000               0.000000000               0.000000000               0.000000000               0.000301928               0.001582799              -0.000004026              -0.000084627               0.000555803               0.000471177               0.000000000               0.000000000               0.000000000               0.000000000               0.000108661               0.000116500              -0.000063200               0.000026185               0.000030105               0.000056290               0.000000000               0.000000000               0.000000000               0.000000000               0.000143947               0.000219392              -0.000079663               0.000026556               0.000064278               0.000090834               0.000000000               0.000000000               0.000000000               0.000000000               0.000174846               0.000386367              -0.000086825               0.000017271               0.000123031               0.000140302               0.000000000               0.000000000               0.000000000               0.000000000               0.000197720               0.000535271              -0.000077210               0.000007236               0.000176010               0.000183246               0.000000000               0.000000000               0.000000000               0.000000000               0.000218420               0.000670151              -0.000062937              -0.000001861               0.000224002               0.000222141               0.000000000               0.000000000               0.000000000               0.000000000               0.000241117               0.000787211              -0.000046070              -0.000007982               0.000265062               0.000257079               0.000000000               0.000000000               0.000000000               0.000000000               0.000269804               0.000889879              -0.000029274              -0.000010058               0.000299976               0.000289918               0.000000000               0.000000000               0.000000000               0.000000000               0.000300963               0.000983141              -0.000016650              -0.000010032               0.000331054               0.000321023               0.000000000               0.000000000               0.000000000               0.000000000               0.000326624               0.001068827              -0.000012315              -0.000011119               0.000359978               0.000348859               0.000000000               0.000000000               0.000000000               0.000000000               0.000343578               0.001146617              -0.000013500              -0.000014485               0.000387030               0.000372545               0.000000000               0.000000000               0.000000000               0.000000000               0.000352994               0.001214113              -0.000015898              -0.000019391               0.000411164               0.000391773               0.000000000               0.000000000               0.000000000               0.000000000               0.000358071               0.001276199              -0.000018388              -0.000025248               0.000433811               0.000408563               0.000000000               0.000000000               0.000000000               0.000000000               0.000363884               0.001343780              -0.000019186              -0.000031516               0.000458427               0.000426911               0.000000000               0.000000000               0.000000000               0.000000000               0.000371255               0.001415874              -0.000017075              -0.000037764               0.000484541               0.000446777               0.000000000               0.000000000               0.000000000               0.000000000               0.000378757               0.001488088              -0.000012752              -0.000043977               0.000510683               0.000466706               0.000000000               0.000000000               0.000000000               0.000000000               0.000385687               0.001558186              -0.000007816              -0.000050140               0.000536104               0.000485963               0.000000000               0.000000000               0.000000000               0.000000000               0.000384852               0.001588633              -0.000004053              -0.000054259               0.000547626               0.000493366               0.000000000               0.000000000               0.000000000               0.000000000               0.000086272               0.000090647              -0.000040045               0.000021021               0.000023209               0.000044229               0.000000000               0.000000000               0.000000000               0.000000000               0.000141384               0.000188939              -0.000056321               0.000029401               0.000053179               0.000082580               0.000000000               0.000000000               0.000000000               0.000000000               0.000190168               0.000349285              -0.000066153               0.000027652               0.000107210               0.000134862               0.000000000               0.000000000               0.000000000               0.000000000               0.000217902               0.000499087              -0.000060757               0.000019327               0.000159918               0.000179246               0.000000000               0.000000000               0.000000000               0.000000000               0.000237686               0.000637905              -0.000050941               0.000009394               0.000209501               0.000218895               0.000000000               0.000000000               0.000000000               0.000000000               0.000257096               0.000762901              -0.000039022               0.000001048               0.000253948               0.000254997               0.000000000               0.000000000               0.000000000               0.000000000               0.000281379               0.000877038              -0.000026505              -0.000004113               0.000293714               0.000289601               0.000000000               0.000000000               0.000000000               0.000000000               0.000309837               0.000979448              -0.000014669              -0.000006242               0.000328560               0.000322318               0.000000000               0.000000000               0.000000000               0.000000000               0.000337593               0.001071512              -0.000007883              -0.000007342               0.000359614               0.000352273               0.000000000               0.000000000               0.000000000               0.000000000               0.000360387               0.001153598              -0.000006429              -0.000009054               0.000387547               0.000378492               0.000000000               0.000000000               0.000000000               0.000000000               0.000377870               0.001225175              -0.000006696              -0.000011445               0.000412203               0.000400757               0.000000000               0.000000000               0.000000000               0.000000000               0.000390501               0.001287650              -0.000008248              -0.000014518               0.000434052               0.000419533               0.000000000               0.000000000               0.000000000               0.000000000               0.000402063               0.001350282              -0.000009727              -0.000018012               0.000456093               0.000438082               0.000000000               0.000000000               0.000000000               0.000000000               0.000414405               0.001415521              -0.000008921              -0.000021538               0.000479015               0.000457477               0.000000000               0.000000000               0.000000000               0.000000000               0.000429837               0.001487762              -0.000006623              -0.000024782               0.000504176               0.000479395               0.000000000               0.000000000               0.000000000               0.000000000               0.000447188               0.001562770              -0.000003679              -0.000027651               0.000530135               0.000502484               0.000000000               0.000000000               0.000000000               0.000000000               0.000453920               0.001596341              -0.000001592              -0.000029322               0.000541883               0.000512560               0.000000000               0.000000000               0.000000000               0.000000000               0.000071818               0.000074531              -0.000018871               0.000017615               0.000018972               0.000036587               0.000000000               0.000000000               0.000000000               0.000000000               0.000141220               0.000168470              -0.000028891               0.000031898               0.000045523               0.000077422               0.000000000               0.000000000               0.000000000               0.000000000               0.000200566               0.000322979              -0.000035552               0.000034840               0.000096045               0.000130885               0.000000000               0.000000000               0.000000000               0.000000000               0.000232174               0.000472749              -0.000033356               0.000027971               0.000148258               0.000176229               0.000000000               0.000000000               0.000000000               0.000000000               0.000253479               0.000613386              -0.000028765               0.000018381               0.000198333               0.000216714               0.000000000               0.000000000               0.000000000               0.000000000               0.000271686               0.000744219              -0.000022630               0.000008855               0.000245119               0.000253974               0.000000000               0.000000000               0.000000000               0.000000000               0.000291720               0.000865773              -0.000015538               0.000001173               0.000288197               0.000289371               0.000000000               0.000000000               0.000000000               0.000000000               0.000315356               0.000972992              -0.000008484              -0.000003365               0.000325449               0.000322084               0.000000000               0.000000000               0.000000000               0.000000000               0.000343170               0.001070384              -0.000003899              -0.000005109               0.000358494               0.000353385               0.000000000               0.000000000               0.000000000               0.000000000               0.000369852               0.001156603              -0.000002566              -0.000005881               0.000387491               0.000381610               0.000000000               0.000000000               0.000000000               0.000000000               0.000392775               0.001230786              -0.000002109              -0.000006558               0.000412444               0.000405886               0.000000000               0.000000000               0.000000000               0.000000000               0.000411917               0.001295112              -0.000002340              -0.000007420               0.000434173               0.000426753               0.000000000               0.000000000               0.000000000               0.000000000               0.000428057               0.001354118              -0.000003057              -0.000008743               0.000454283               0.000445539               0.000000000               0.000000000               0.000000000               0.000000000               0.000443932               0.001414648              -0.000002767              -0.000010356               0.000474997               0.000464640               0.000000000               0.000000000               0.000000000               0.000000000               0.000463405               0.001486082              -0.000001924              -0.000011983               0.000499350               0.000487367               0.000000000               0.000000000               0.000000000               0.000000000               0.000484645               0.001562128              -0.000000654              -0.000013524               0.000525212               0.000511688               0.000000000               0.000000000               0.000000000               0.000000000               0.000493931               0.001597046               0.000000315              -0.000014407               0.000537146               0.000522739               0.000000000               0.000000000               0.000000000               0.000000000               0.000067227               0.000068575              -0.000000000               0.000016638               0.000017312               0.000033950               0.000000000               0.000000000               0.000000000               0.000000000               0.000141511               0.000161394               0.000000000               0.000032892               0.000042833               0.000075726               0.000000000               0.000000000               0.000000000               0.000000000               0.000203531               0.000314061              -0.000000000               0.000037066               0.000092331               0.000129397               0.000000000               0.000000000               0.000000000               0.000000000               0.000237801               0.000463458               0.000000000               0.000031243               0.000144070               0.000175313               0.000000000               0.000000000               0.000000000               0.000000000               0.000259796               0.000603867               0.000000000               0.000021940               0.000193974               0.000215913               0.000000000               0.000000000               0.000000000               0.000000000               0.000276409               0.000735802               0.000000000               0.000011678               0.000241372               0.000253050               0.000000000               0.000000000               0.000000000               0.000000000               0.000295242               0.000860117               0.000000000               0.000003201               0.000285636               0.000288837               0.000000000               0.000000000               0.000000000               0.000000000               0.000318099               0.000970749               0.000000000              -0.000002056               0.000324265               0.000322209               0.000000000               0.000000000               0.000000000               0.000000000               0.000346055               0.001070933              -0.000000000              -0.000004096               0.000358339               0.000354243               0.000000000               0.000000000               0.000000000               0.000000000               0.000373438               0.001157678              -0.000000000              -0.000004670               0.000387446               0.000382775               0.000000000               0.000000000               0.000000000               0.000000000               0.000397592               0.001232184               0.000000000              -0.000004926               0.000412366               0.000407440               0.000000000               0.000000000               0.000000000               0.000000000               0.000419124               0.001297559              -0.000000000              -0.000005023               0.000434190               0.000429167               0.000000000               0.000000000               0.000000000               0.000000000               0.000437122               0.001354820              -0.000000000              -0.000005432               0.000453413               0.000447981               0.000000000               0.000000000               0.000000000               0.000000000               0.000454433               0.001413679              -0.000000000              -0.000006297               0.000473321               0.000467023               0.000000000               0.000000000               0.000000000               0.000000000               0.000475014               0.001484909              -0.000000000              -0.000007483               0.000497459               0.000489976               0.000000000               0.000000000               0.000000000               0.000000000               0.000496615               0.001560683               0.000000000              -0.000008855               0.000523174               0.000514319               0.000000000               0.000000000               0.000000000               0.000000000               0.000505774               0.001595739               0.000000000              -0.000009802               0.000535175               0.000525373               0.000000000               0.000000000               0.000000000               0.000000000               0.000000000               0.000000000               0.000000000               0.000000000               0.000000000               0.000000000               0.000000000               0.000000000               0.000000000               0.000000000               0.000000000               0.000000000               0.000000000               0.000000000               0.000000000               0.000000000               0.000000000               0.000000000               0.000000000               0.000000000               0.000000000               0.000000000               0.000000000               0.000000000               0.000000000               0.000000000               0.000000000               0.000000000               0.000000000               0.000000000               0.000000000               0.000000000               0.000000000               0.000000000               0.000000000               0.000000000               0.000000000               0.000000000               0.000000000               0.000000000               0.000000000               0.000000000               0.000000000               0.000000000               0.000000000               0.000000000               0.000000000               0.000000000               0.000000000               0.000000000               0.000000000               0.000000000               0.000000000               0.000000000               0.000000000               0.000000000               0.000000000               0.000000000               0.000000000               0.000000000               0.000000000               0.000000000               0.000000000               0.000000000               0.000000000               0.000000000               0.000000000               0.000000000               0.000000000               0.000000000               0.000000000               0.000000000               0.000000000               0.000000000               0.000000000               0.000000000               0.000000000               0.000000000               0.000000000               0.000000000               0.000000000               0.000000000               0.000000000               0.000000000               0.000000000               0.000000000               0.000000000               0.000000000               0.000000000               0.000000000               0.000000000               0.000000000               0.000000000               0.000000000               0.000000000               0.000000000               0.000000000               0.000000000               0.000000000               0.000000000               0.000000000               0.000000000               0.000000000               0.000000000               0.000000000               0.000000000               0.000000000               0.000000000               0.000000000               0.000000000               0.000000000               0.000000000               0.000000000               0.000000000               0.000000000               0.000000000               0.000000000               0.000000000               0.000000000               0.000000000               0.000000000               0.000000000               0.000000000               0.000000000               0.000000000               0.000000000               0.000000000               0.000000000               0.000000000               0.000000000               0.000000000               0.000000000               0.000000000               0.000000000               0.000000000               0.000000000               0.000000000               0.000000000               0.000000000               0.000000000               0.000000000               0.000000000               0.000000000               0.000000000               0.000000000               0.000000000               0.000000000               0.000000000               0.000000000               0.000000000               0.000000000               0.000000000               0.000000000               0.000000000               0.000000000               0.000000000               0.000000000               0.000000000               0.000000000               0.000000000               0.000000000               0.000000000               0.000000000               0.000000000               0.000000000               0.000000000               0.000000000               0.000000000               0.000000000               0.000000000               0.000062607               0.000490060               0.000039560              -0.000037780               0.000175945               0.000138165               0.000000000               0.000000000               0.000000000               0.000000000               0.000081173               0.000420611               0.000026811              -0.000022137               0.000147581               0.000125444               0.000000000               0.000000000               0.000000000               0.000000000               0.000116862               0.000374222               0.000009879              -0.000002955               0.000125724               0.000122770               0.000000000               0.000000000               0.000000000               0.000000000               0.000126550               0.000366005              -0.000000573               0.000001706               0.000121432               0.000123138               0.000000000               0.000000000               0.000000000               0.000000000               0.000124717               0.000372098              -0.000003341               0.000000257               0.000123946               0.000124203               0.000000000               0.000000000               0.000000000               0.000000000               0.000120530               0.000376990               0.000001282              -0.000001925               0.000126304               0.000124379               0.000000000               0.000000000               0.000000000               0.000000000               0.000115459               0.000370192               0.000004359              -0.000002977               0.000124389               0.000121412               0.000000000               0.000000000               0.000000000               0.000000000               0.000114884               0.000363473               0.000003917              -0.000002352               0.000121941               0.000119588               0.000000000               0.000000000               0.000000000               0.000000000               0.000117530               0.000356260               0.000005735              -0.000000459               0.000118905               0.000118446               0.000000000               0.000000000               0.000000000               0.000000000               0.000118520               0.000346547               0.000007390               0.000001127               0.000115139               0.000116266               0.000000000               0.000000000               0.000000000               0.000000000               0.000118114               0.000338830               0.000008137               0.000001939               0.000112296               0.000114235               0.000000000               0.000000000               0.000000000               0.000000000               0.000114872               0.000334974               0.000008207               0.000001205               0.000111255               0.000112461               0.000000000               0.000000000               0.000000000               0.000000000               0.000104703               0.000336185               0.000006626              -0.000002759               0.000112980               0.000110221               0.000000000               0.000000000               0.000000000               0.000000000               0.000087534               0.000343796               0.000004311              -0.000010149               0.000117980               0.000107831               0.000000000               0.000000000               0.000000000               0.000000000               0.000064045               0.000358255               0.000001960              -0.000020765               0.000126339               0.000105574               0.000000000               0.000000000               0.000000000               0.000000000               0.000033777               0.000379064               0.000000217              -0.000034717               0.000137925               0.000103209               0.000000000               0.000000000               0.000000000               0.000000000               0.000020510               0.000399094               0.000001084              -0.000042195               0.000147095               0.000104900               0.000000000               0.000000000               0.000000000               0.000000000               0.000074902               0.000475670               0.000076258              -0.000031371               0.000169012               0.000137641               0.000000000               0.000000000               0.000000000               0.000000000               0.000087266               0.000409570               0.000049506              -0.000018471               0.000142679               0.000124208               0.000000000               0.000000000               0.000000000               0.000000000               0.000117237               0.000373056               0.000016092              -0.000002668               0.000125240               0.000122572               0.000000000               0.000000000               0.000000000               0.000000000               0.000122333               0.000370081              -0.000001979              -0.000000385               0.000123488               0.000123102               0.000000000               0.000000000               0.000000000               0.000000000               0.000119498               0.000376496              -0.000006315              -0.000002250               0.000126247               0.000123997               0.000000000               0.000000000               0.000000000               0.000000000               0.000121363               0.000380848               0.000002176              -0.000002095               0.000127646               0.000125551               0.000000000               0.000000000               0.000000000               0.000000000               0.000124865               0.000378447               0.000008054              -0.000000482               0.000126308               0.000125827               0.000000000               0.000000000               0.000000000               0.000000000               0.000128758               0.000378714               0.000007706               0.000000945               0.000125922               0.000126867               0.000000000               0.000000000               0.000000000               0.000000000               0.000129428               0.000379631               0.000011986               0.000001082               0.000126182               0.000127263               0.000000000               0.000000000               0.000000000               0.000000000               0.000123841               0.000382846               0.000016123              -0.000001415               0.000128086               0.000126671               0.000000000               0.000000000               0.000000000               0.000000000               0.000115295               0.000390443               0.000018457              -0.000005570               0.000132003               0.000126433               0.000000000               0.000000000               0.000000000               0.000000000               0.000105543               0.000403441               0.000019707              -0.000010851               0.000138096               0.000127245               0.000000000               0.000000000               0.000000000               0.000000000               0.000091213               0.000420408               0.000018509              -0.000018346               0.000146250               0.000127904               0.000000000               0.000000000               0.000000000               0.000000000               0.000072543               0.000440967               0.000015645              -0.000027917               0.000156293               0.000128376               0.000000000               0.000000000               0.000000000               0.000000000               0.000051550               0.000466221               0.000011527              -0.000038946               0.000168387               0.000129441               0.000000000               0.000000000               0.000000000               0.000000000               0.000027129               0.000496590               0.000006147              -0.000051900               0.000182828               0.000130928               0.000000000               0.000000000               0.000000000               0.000000000               0.000018648               0.000522821               0.000005832              -0.000058359               0.000193725               0.000135366               0.000000000               0.000000000               0.000000000               0.000000000               0.000093940               0.000459206               0.000104488              -0.000022173               0.000160458               0.000138285               0.000000000               0.000000000               0.000000000               0.000000000               0.000093953               0.000396692               0.000065125              -0.000014354               0.000137014               0.000122660               0.000000000               0.000000000               0.000000000               0.000000000               0.000112462               0.000376122               0.000020165              -0.000004842               0.000126987               0.000122145               0.000000000               0.000000000               0.000000000               0.000000000               0.000114887               0.000381615              -0.000003332              -0.000004619               0.000128744               0.000124124               0.000000000               0.000000000               0.000000000               0.000000000               0.000117837               0.000395401              -0.000007769              -0.000005236               0.000133544               0.000128308               0.000000000               0.000000000               0.000000000               0.000000000               0.000128086               0.000402328               0.000004241              -0.000002259               0.000134861               0.000132602               0.000000000               0.000000000               0.000000000               0.000000000               0.000139620               0.000410741               0.000013690               0.000001015               0.000136574               0.000137589               0.000000000               0.000000000               0.000000000               0.000000000               0.000143597               0.000421110               0.000016434               0.000001210               0.000139965               0.000141175               0.000000000               0.000000000               0.000000000               0.000000000               0.000142929               0.000436069               0.000023109              -0.000000910               0.000145658               0.000144748               0.000000000               0.000000000               0.000000000               0.000000000               0.000134776               0.000457413               0.000028687              -0.000006636               0.000154681               0.000148046               0.000000000               0.000000000               0.000000000               0.000000000               0.000120531               0.000484771               0.000032025              -0.000015397               0.000166721               0.000151324               0.000000000               0.000000000               0.000000000               0.000000000               0.000105512               0.000518355               0.000033353              -0.000025227               0.000181192               0.000155965               0.000000000               0.000000000               0.000000000               0.000000000               0.000086688               0.000554531               0.000031999              -0.000036808               0.000197111               0.000160303               0.000000000               0.000000000               0.000000000               0.000000000               0.000064325               0.000591537               0.000028173              -0.000049820               0.000213784               0.000163964               0.000000000               0.000000000               0.000000000               0.000000000               0.000042903               0.000629674               0.000021677              -0.000062621               0.000230763               0.000168142               0.000000000               0.000000000               0.000000000               0.000000000               0.000021796               0.000668304               0.000012158              -0.000075364               0.000247887               0.000172523               0.000000000               0.000000000               0.000000000               0.000000000               0.000016234               0.000696747               0.000009726              -0.000081005               0.000259248               0.000178243               0.000000000               0.000000000               0.000000000               0.000000000               0.000111484               0.000431782               0.000128885              -0.000012166               0.000147981               0.000135815               0.000000000               0.000000000               0.000000000               0.000000000               0.000098850               0.000382057               0.000077138              -0.000010688               0.000130914               0.000120225               0.000000000               0.000000000               0.000000000               0.000000000               0.000106492               0.000385652               0.000022583              -0.000008272               0.000131307               0.000123035               0.000000000               0.000000000               0.000000000               0.000000000               0.000109653               0.000408605              -0.000002307              -0.000009956               0.000139519               0.000129563               0.000000000               0.000000000               0.000000000               0.000000000               0.000118667               0.000432223              -0.000004138              -0.000009528               0.000147249               0.000137721               0.000000000               0.000000000               0.000000000               0.000000000               0.000137248               0.000452460               0.000010026              -0.000005090               0.000152515               0.000147425               0.000000000               0.000000000               0.000000000               0.000000000               0.000155733               0.000478922               0.000021511              -0.000001465               0.000160127               0.000158662               0.000000000               0.000000000               0.000000000               0.000000000               0.000162007               0.000506809               0.000026238              -0.000002599               0.000169801               0.000167202               0.000000000               0.000000000               0.000000000               0.000000000               0.000160199               0.000540893               0.000033165              -0.000007537               0.000182808               0.000175271               0.000000000               0.000000000               0.000000000               0.000000000               0.000147879               0.000578907               0.000039109              -0.000016909               0.000198603               0.000181695               0.000000000               0.000000000               0.000000000               0.000000000               0.000131013               0.000622245               0.000041620              -0.000028651               0.000216963               0.000188313               0.000000000               0.000000000               0.000000000               0.000000000               0.000114184               0.000670044               0.000041645              -0.000040937               0.000236991               0.000196055               0.000000000               0.000000000               0.000000000               0.000000000               0.000092826               0.000718204               0.000038821              -0.000054966               0.000257721               0.000202755               0.000000000               0.000000000               0.000000000               0.000000000               0.000068017               0.000764878               0.000033315              -0.000070103               0.000278324               0.000208221               0.000000000               0.000000000               0.000000000               0.000000000               0.000044524               0.000809487               0.000024988              -0.000084489               0.000297989               0.000213500               0.000000000               0.000000000               0.000000000               0.000000000               0.000022097               0.000850543               0.000013578              -0.000098031               0.000316189               0.000218157               0.000000000               0.000000000               0.000000000               0.000000000               0.000016050               0.000878071               0.000010183              -0.000103740               0.000327267               0.000223527               0.000000000               0.000000000               0.000000000               0.000000000               0.000125901               0.000399817               0.000143859              -0.000002764               0.000134192               0.000131428               0.000000000               0.000000000               0.000000000               0.000000000               0.000102889               0.000374828               0.000085414              -0.000008270               0.000127698               0.000119428               0.000000000               0.000000000               0.000000000               0.000000000               0.000102024               0.000408005               0.000027265              -0.000012741               0.000140247               0.000127506               0.000000000               0.000000000               0.000000000               0.000000000               0.000108167               0.000454104               0.000004300              -0.000016200               0.000156767               0.000140566               0.000000000               0.000000000               0.000000000               0.000000000               0.000128789               0.000496986               0.000002049              -0.000013827               0.000170269               0.000156442               0.000000000               0.000000000               0.000000000               0.000000000               0.000158879               0.000537756               0.000016025              -0.000007640               0.000181797               0.000174157               0.000000000               0.000000000               0.000000000               0.000000000               0.000177870               0.000577306               0.000028426              -0.000005462               0.000194254               0.000188792               0.000000000               0.000000000               0.000000000               0.000000000               0.000181157               0.000622544               0.000034568              -0.000009884               0.000210807               0.000200923               0.000000000               0.000000000               0.000000000               0.000000000               0.000174287               0.000671020               0.000041944              -0.000018520               0.000229845               0.000211325               0.000000000               0.000000000               0.000000000               0.000000000               0.000157894               0.000721520               0.000047888              -0.000030980               0.000250831               0.000219851               0.000000000               0.000000000               0.000000000               0.000000000               0.000139086               0.000774264               0.000048460              -0.000044626               0.000272961               0.000228335               0.000000000               0.000000000               0.000000000               0.000000000               0.000120216               0.000828328               0.000045860              -0.000058460               0.000295593               0.000237133               0.000000000               0.000000000               0.000000000               0.000000000               0.000097058               0.000879744               0.000040685              -0.000073571               0.000317769               0.000244198               0.000000000               0.000000000               0.000000000               0.000000000               0.000071366               0.000927330               0.000033246              -0.000089154               0.000338825               0.000249671               0.000000000               0.000000000               0.000000000               0.000000000               0.000047291               0.000971848               0.000023658              -0.000103747               0.000358528               0.000254782               0.000000000               0.000000000               0.000000000               0.000000000               0.000023682               0.001011633               0.000012257              -0.000117573               0.000376399               0.000258826               0.000000000               0.000000000               0.000000000               0.000000000               0.000016704               0.001038146               0.000009279              -0.000123504               0.000387213               0.000263709               0.000000000               0.000000000               0.000000000               0.000000000               0.000137453               0.000369450               0.000150110               0.000005363               0.000121361               0.000126724               0.000000000               0.000000000               0.000000000               0.000000000               0.000106254               0.000376054               0.000093846              -0.000007162               0.000127737               0.000120576               0.000000000               0.000000000               0.000000000               0.000000000               0.000101593               0.000446551               0.000036247              -0.000017722               0.000154756               0.000137035               0.000000000               0.000000000               0.000000000               0.000000000               0.000117866               0.000516900               0.000012364              -0.000020413               0.000179102               0.000158690               0.000000000               0.000000000               0.000000000               0.000000000               0.000150373               0.000577926               0.000010523              -0.000015851               0.000197924               0.000182073               0.000000000               0.000000000               0.000000000               0.000000000               0.000185592               0.000628246               0.000026135              -0.000008934               0.000212391               0.000203457               0.000000000               0.000000000               0.000000000               0.000000000               0.000203781               0.000678582               0.000038225              -0.000008405               0.000228994               0.000220588               0.000000000               0.000000000               0.000000000               0.000000000               0.000201070               0.000736034               0.000043030              -0.000016603               0.000250876               0.000234274               0.000000000               0.000000000               0.000000000               0.000000000               0.000186096               0.000792482               0.000049196              -0.000029274               0.000273916               0.000244642               0.000000000               0.000000000               0.000000000               0.000000000               0.000164380               0.000850046               0.000052508              -0.000044613               0.000298217               0.000253604               0.000000000               0.000000000               0.000000000               0.000000000               0.000143530               0.000910276               0.000050262              -0.000059960               0.000323409               0.000263449               0.000000000               0.000000000               0.000000000               0.000000000               0.000121823               0.000968929               0.000044856              -0.000075432               0.000348117               0.000272685               0.000000000               0.000000000               0.000000000               0.000000000               0.000095510               0.001023549               0.000038204              -0.000092127               0.000371888               0.000279762               0.000000000               0.000000000               0.000000000               0.000000000               0.000069484               0.001075094               0.000029633              -0.000108330               0.000394471               0.000286141               0.000000000               0.000000000               0.000000000               0.000000000               0.000045828               0.001123597               0.000019985              -0.000123264               0.000415616               0.000292353               0.000000000               0.000000000               0.000000000               0.000000000               0.000022150               0.001167516               0.000010264              -0.000137633               0.000435046               0.000297413               0.000000000               0.000000000               0.000000000               0.000000000               0.000015426               0.001196776               0.000008577              -0.000143812               0.000446859               0.000303047               0.000000000               0.000000000               0.000000000               0.000000000               0.000150149               0.000343876               0.000151975               0.000013321               0.000110184               0.000123505               0.000000000               0.000000000               0.000000000               0.000000000               0.000114106               0.000382805               0.000100481              -0.000005061               0.000129287               0.000124226               0.000000000               0.000000000               0.000000000               0.000000000               0.000108632               0.000491876               0.000047029              -0.000020747               0.000170873               0.000150125               0.000000000               0.000000000               0.000000000               0.000000000               0.000133112               0.000582494               0.000024760              -0.000022895               0.000201794               0.000178900               0.000000000               0.000000000               0.000000000               0.000000000               0.000174352               0.000652053               0.000022607              -0.000016125               0.000222724               0.000206599               0.000000000               0.000000000               0.000000000               0.000000000               0.000210634               0.000706985               0.000033425              -0.000009385               0.000238788               0.000229403               0.000000000               0.000000000               0.000000000               0.000000000               0.000224513               0.000769689               0.000041738              -0.000012019               0.000260567               0.000248548               0.000000000               0.000000000               0.000000000               0.000000000               0.000213428               0.000834610               0.000045168              -0.000024291               0.000286297               0.000262007               0.000000000               0.000000000               0.000000000               0.000000000               0.000192154               0.000898657               0.000050744              -0.000040274               0.000312974               0.000272700               0.000000000               0.000000000               0.000000000               0.000000000               0.000168679               0.000964791               0.000050243              -0.000057344               0.000340708               0.000283364               0.000000000               0.000000000               0.000000000               0.000000000               0.000146204               0.001034359               0.000044948              -0.000074468               0.000369606               0.000295137               0.000000000               0.000000000               0.000000000               0.000000000               0.000121360               0.001101734               0.000038927              -0.000092207               0.000397977               0.000305770               0.000000000               0.000000000               0.000000000               0.000000000               0.000095234               0.001166314               0.000031119              -0.000110076               0.000425459               0.000315383               0.000000000               0.000000000               0.000000000               0.000000000               0.000070403               0.001229444               0.000022678              -0.000127279               0.000452237               0.000324958               0.000000000               0.000000000               0.000000000               0.000000000               0.000046193               0.001288614               0.000014604              -0.000143754               0.000477452               0.000333698               0.000000000               0.000000000               0.000000000               0.000000000               0.000022543               0.001342184               0.000007156              -0.000159319               0.000500496               0.000341178               0.000000000               0.000000000               0.000000000               0.000000000               0.000014850               0.001376782               0.000006966              -0.000166528               0.000514432               0.000347904               0.000000000               0.000000000               0.000000000               0.000000000               0.000159386               0.000322493               0.000148739               0.000019458               0.000101011               0.000120468               0.000000000               0.000000000               0.000000000               0.000000000               0.000121525               0.000387868               0.000106367              -0.000002912               0.000130259               0.000127347               0.000000000               0.000000000               0.000000000               0.000000000               0.000119007               0.000527438               0.000060090              -0.000021302               0.000182912               0.000161610               0.000000000               0.000000000               0.000000000               0.000000000               0.000146762               0.000632536               0.000036851              -0.000024031               0.000218854               0.000194823               0.000000000               0.000000000               0.000000000               0.000000000               0.000187533               0.000704697               0.000029115              -0.000017762               0.000240817               0.000223055               0.000000000               0.000000000               0.000000000               0.000000000               0.000222610               0.000763713               0.000030655              -0.000011985               0.000258564               0.000246578               0.000000000               0.000000000               0.000000000               0.000000000               0.000231294               0.000833850               0.000035697              -0.000017496               0.000283779               0.000266283               0.000000000               0.000000000               0.000000000               0.000000000               0.000216671               0.000906447               0.000041248              -0.000032054               0.000312831               0.000280776               0.000000000               0.000000000               0.000000000               0.000000000               0.000198566               0.000979492               0.000046240              -0.000047974               0.000342485               0.000294511               0.000000000               0.000000000               0.000000000               0.000000000               0.000180160               0.001057206               0.000044649              -0.000064591               0.000373929               0.000309338               0.000000000               0.000000000               0.000000000               0.000000000               0.000160106               0.001136411               0.000038934              -0.000082011               0.000406137               0.000324126               0.000000000               0.000000000               0.000000000               0.000000000               0.000137580               0.001212900               0.000033024              -0.000100020               0.000437636               0.000337616               0.000000000               0.000000000               0.000000000               0.000000000               0.000113912               0.001286988               0.000024580              -0.000118156               0.000468377               0.000350221               0.000000000               0.000000000               0.000000000               0.000000000               0.000090650               0.001359091               0.000015794              -0.000135892               0.000498323               0.000362431               0.000000000               0.000000000               0.000000000               0.000000000               0.000067739               0.001427172               0.000008210              -0.000152994               0.000526717               0.000373723               0.000000000               0.000000000               0.000000000               0.000000000               0.000048037               0.001491018               0.000002103              -0.000168363               0.000553122               0.000384759               0.000000000               0.000000000               0.000000000               0.000000000               0.000037359               0.001524646               0.000000098              -0.000176570               0.000567067               0.000390497               0.000000000               0.000000000               0.000000000               0.000000000               0.000164674               0.000285156               0.000142695               0.000026108               0.000086348               0.000112456               0.000000000               0.000000000               0.000000000               0.000000000               0.000131790               0.000369874               0.000114550               0.000003187               0.000122228               0.000125415               0.000000000               0.000000000               0.000000000               0.000000000               0.000126170               0.000529962               0.000077585              -0.000018931               0.000182963               0.000164031               0.000000000               0.000000000               0.000000000               0.000000000               0.000148472               0.000645704               0.000051086              -0.000025036               0.000223578               0.000198542               0.000000000               0.000000000               0.000000000               0.000000000               0.000183098               0.000725297               0.000036008              -0.000022000               0.000249097               0.000227097               0.000000000               0.000000000               0.000000000               0.000000000               0.000222068               0.000792258               0.000028710              -0.000015757               0.000269336               0.000253579               0.000000000               0.000000000               0.000000000               0.000000000               0.000243539               0.000865225               0.000029629              -0.000016826               0.000294014               0.000277188               0.000000000               0.000000000               0.000000000               0.000000000               0.000239943               0.000941000               0.000037514              -0.000027646               0.000322879               0.000295233               0.000000000               0.000000000               0.000000000               0.000000000               0.000227307               0.001016281               0.000043973              -0.000041795               0.000352688               0.000310894               0.000000000               0.000000000               0.000000000               0.000000000               0.000212904               0.001091886               0.000045063              -0.000056646               0.000382841               0.000326194               0.000000000               0.000000000               0.000000000               0.000000000               0.000197754               0.001170890               0.000042703              -0.000072203               0.000414361               0.000342157               0.000000000               0.000000000               0.000000000               0.000000000               0.000180643               0.001250052               0.000036702              -0.000088515               0.000446185               0.000357670               0.000000000               0.000000000               0.000000000               0.000000000               0.000160290               0.001325510               0.000028784              -0.000105580               0.000477026               0.000371446               0.000000000               0.000000000               0.000000000               0.000000000               0.000138997               0.001399769               0.000019814              -0.000122847               0.000507534               0.000384687               0.000000000               0.000000000               0.000000000               0.000000000               0.000118380               0.001475027               0.000010261              -0.000139986               0.000538333               0.000398347               0.000000000               0.000000000               0.000000000               0.000000000               0.000099896               0.001548857               0.000003107              -0.000156146               0.000568329               0.000412183               0.000000000               0.000000000               0.000000000               0.000000000               0.000084200               0.001579383              -0.000002099              -0.000165847               0.000581738               0.000415891               0.000000000               0.000000000               0.000000000               0.000000000               0.000163245               0.000240967               0.000131691               0.000031096               0.000069956               0.000101052               0.000000000               0.000000000               0.000000000               0.000000000               0.000141806               0.000342741               0.000117538               0.000010334               0.000110801               0.000121136               0.000000000               0.000000000               0.000000000               0.000000000               0.000133554               0.000510707               0.000090430              -0.000013756               0.000174819               0.000161063               0.000000000               0.000000000               0.000000000               0.000000000               0.000149505               0.000630454               0.000064230              -0.000022742               0.000217730               0.000194988               0.000000000               0.000000000               0.000000000               0.000000000               0.000178238               0.000722319               0.000044581              -0.000023451               0.000248588               0.000225137               0.000000000               0.000000000               0.000000000               0.000000000               0.000219574               0.000803823               0.000030846              -0.000018138               0.000273984               0.000255847               0.000000000               0.000000000               0.000000000               0.000000000               0.000255254               0.000883095               0.000026309              -0.000014667               0.000299251               0.000284584               0.000000000               0.000000000               0.000000000               0.000000000               0.000267706               0.000960573               0.000031459              -0.000019682               0.000326748               0.000307067               0.000000000               0.000000000               0.000000000               0.000000000               0.000262652               0.001035684               0.000038410              -0.000030966               0.000355546               0.000324580               0.000000000               0.000000000               0.000000000               0.000000000               0.000253045               0.001106188               0.000042065              -0.000043382               0.000383186               0.000339805               0.000000000               0.000000000               0.000000000               0.000000000               0.000241306               0.001178813               0.000042511              -0.000056862               0.000411888               0.000355026               0.000000000               0.000000000               0.000000000               0.000000000               0.000229252               0.001255891               0.000038297              -0.000071017               0.000442298               0.000371282               0.000000000               0.000000000               0.000000000               0.000000000               0.000215881               0.001331654               0.000031558              -0.000085501               0.000472381               0.000386879               0.000000000               0.000000000               0.000000000               0.000000000               0.000199286               0.001403500               0.000023781              -0.000100705               0.000501397               0.000400692               0.000000000               0.000000000               0.000000000               0.000000000               0.000182519               0.001476475               0.000014712              -0.000116114               0.000530858               0.000414744               0.000000000               0.000000000               0.000000000               0.000000000               0.000166299               0.001552374               0.000005861              -0.000131684               0.000561347               0.000429663               0.000000000               0.000000000               0.000000000               0.000000000               0.000149152               0.001584248              -0.000001384              -0.000142099               0.000575444               0.000433345               0.000000000               0.000000000               0.000000000               0.000000000               0.000151301               0.000198765               0.000112242               0.000031892               0.000055624               0.000087516               0.000000000               0.000000000               0.000000000               0.000000000               0.000145525               0.000305326               0.000112062               0.000016406               0.000096306               0.000112711               0.000000000               0.000000000               0.000000000               0.000000000               0.000145554               0.000471364               0.000097653              -0.000004338               0.000158566               0.000154228               0.000000000               0.000000000               0.000000000               0.000000000               0.000159805               0.000601158               0.000075066              -0.000015218               0.000205457               0.000190239               0.000000000               0.000000000               0.000000000               0.000000000               0.000184256               0.000713200               0.000055323              -0.000020054               0.000244416               0.000224362               0.000000000               0.000000000               0.000000000               0.000000000               0.000221748               0.000812308               0.000038681              -0.000018383               0.000276894               0.000258511               0.000000000               0.000000000               0.000000000               0.000000000               0.000260776               0.000898422               0.000027252              -0.000014512               0.000304308               0.000289797               0.000000000               0.000000000               0.000000000               0.000000000               0.000284708               0.000977392               0.000024631              -0.000015408               0.000330930               0.000315522               0.000000000               0.000000000               0.000000000               0.000000000               0.000289663               0.001051564               0.000028507              -0.000022822               0.000358125               0.000335303               0.000000000               0.000000000               0.000000000               0.000000000               0.000286472               0.001119835               0.000033464              -0.000032552               0.000384125               0.000351573               0.000000000               0.000000000               0.000000000               0.000000000               0.000280293               0.001186899               0.000036013              -0.000043252               0.000410046               0.000366794               0.000000000               0.000000000               0.000000000               0.000000000               0.000273785               0.001258788               0.000035503              -0.000054679               0.000437818               0.000383139               0.000000000               0.000000000               0.000000000               0.000000000               0.000268040               0.001334214               0.000031419              -0.000066262               0.000466821               0.000400559               0.000000000               0.000000000               0.000000000               0.000000000               0.000260394               0.001408460               0.000025742              -0.000078409               0.000495619               0.000417209               0.000000000               0.000000000               0.000000000               0.000000000               0.000249578               0.001479576               0.000019116              -0.000091355               0.000523639               0.000432284               0.000000000               0.000000000               0.000000000               0.000000000               0.000237450               0.001553374               0.000010103              -0.000105128               0.000552829               0.000447701               0.000000000               0.000000000               0.000000000               0.000000000               0.000222396               0.001585935               0.000001556              -0.000114843               0.000566921               0.000452078               0.000000000               0.000000000               0.000000000               0.000000000               0.000132089               0.000154671               0.000087733               0.000030199               0.000041490               0.000071689               0.000000000               0.000000000               0.000000000               0.000000000               0.000146299               0.000259216               0.000098681               0.000022460               0.000078918               0.000101378               0.000000000               0.000000000               0.000000000               0.000000000               0.000159892               0.000426750               0.000097066               0.000006616               0.000140043               0.000146659               0.000000000               0.000000000               0.000000000               0.000000000               0.000176481               0.000570679               0.000080661              -0.000005154               0.000191943               0.000186788               0.000000000               0.000000000               0.000000000               0.000000000               0.000199019               0.000698811               0.000063136              -0.000012719               0.000237174               0.000224455               0.000000000               0.000000000               0.000000000               0.000000000               0.000228679               0.000807785               0.000045612              -0.000015219               0.000274332               0.000259113               0.000000000               0.000000000               0.000000000               0.000000000               0.000262659               0.000899342               0.000029239              -0.000013920               0.000304418               0.000290497               0.000000000               0.000000000               0.000000000               0.000000000               0.000292149               0.000982557               0.000019371              -0.000013264               0.000331937               0.000318673               0.000000000               0.000000000               0.000000000               0.000000000               0.000309871               0.001061428               0.000018568              -0.000016477               0.000359298               0.000342821               0.000000000               0.000000000               0.000000000               0.000000000               0.000317248               0.001133631               0.000022761              -0.000022736               0.000385452               0.000362716               0.000000000               0.000000000               0.000000000               0.000000000               0.000318872               0.001199206               0.000026593              -0.000030324               0.000409839               0.000379516               0.000000000               0.000000000               0.000000000               0.000000000               0.000318372               0.001265964               0.000028716              -0.000038856               0.000434936               0.000396080               0.000000000               0.000000000               0.000000000               0.000000000               0.000318546               0.001338235               0.000027588              -0.000047824               0.000462015               0.000414191               0.000000000               0.000000000               0.000000000               0.000000000               0.000319349               0.001414214               0.000023634              -0.000057021               0.000490407               0.000433386               0.000000000               0.000000000               0.000000000               0.000000000               0.000316734               0.001485210               0.000017942              -0.000066876               0.000517357               0.000450481               0.000000000               0.000000000               0.000000000               0.000000000               0.000311330               0.001553082               0.000010620              -0.000077386               0.000543484               0.000466098               0.000000000               0.000000000               0.000000000               0.000000000               0.000301928               0.001582799               0.000004026              -0.000084627               0.000555803               0.000471177               0.000000000               0.000000000               0.000000000               0.000000000               0.000108661               0.000116500               0.000063200               0.000026185               0.000030105               0.000056290               0.000000000               0.000000000               0.000000000               0.000000000               0.000143947               0.000219392               0.000079663               0.000026556               0.000064278               0.000090834               0.000000000               0.000000000               0.000000000               0.000000000               0.000174846               0.000386367               0.000086825               0.000017271               0.000123031               0.000140302               0.000000000               0.000000000               0.000000000               0.000000000               0.000197720               0.000535271               0.000077210               0.000007236               0.000176010               0.000183246               0.000000000               0.000000000               0.000000000               0.000000000               0.000218420               0.000670151               0.000062937              -0.000001861               0.000224002               0.000222141               0.000000000               0.000000000               0.000000000               0.000000000               0.000241117               0.000787211               0.000046070              -0.000007982               0.000265062               0.000257079               0.000000000               0.000000000               0.000000000               0.000000000               0.000269804               0.000889879               0.000029274              -0.000010058               0.000299976               0.000289918               0.000000000               0.000000000               0.000000000               0.000000000               0.000300963               0.000983141               0.000016650              -0.000010032               0.000331054               0.000321023               0.000000000               0.000000000               0.000000000               0.000000000               0.000326624               0.001068827               0.000012315              -0.000011119               0.000359978               0.000348859               0.000000000               0.000000000               0.000000000               0.000000000               0.000343578               0.001146617               0.000013500              -0.000014485               0.000387030               0.000372545               0.000000000               0.000000000               0.000000000               0.000000000               0.000352994               0.001214113               0.000015898              -0.000019391               0.000411164               0.000391773               0.000000000               0.000000000               0.000000000               0.000000000               0.000358071               0.001276199               0.000018388              -0.000025248               0.000433811               0.000408563               0.000000000               0.000000000               0.000000000               0.000000000               0.000363884               0.001343780               0.000019186              -0.000031516               0.000458427               0.000426911               0.000000000               0.000000000               0.000000000               0.000000000               0.000371255               0.001415874               0.000017075              -0.000037764               0.000484541               0.000446777               0.000000000               0.000000000               0.000000000               0.000000000               0.000378757               0.001488088               0.000012752              -0.000043977               0.000510683               0.000466706               0.000000000               0.000000000               0.000000000               0.000000000               0.000385687               0.001558186               0.000007816              -0.000050140               0.000536104               0.000485963               0.000000000               0.000000000               0.000000000               0.000000000               0.000384852               0.001588633               0.000004053              -0.000054259               0.000547626               0.000493366               0.000000000               0.000000000               0.000000000               0.000000000               0.000086272               0.000090647               0.000040045               0.000021021               0.000023209               0.000044229               0.000000000               0.000000000               0.000000000               0.000000000               0.000141384               0.000188939               0.000056321               0.000029401               0.000053179               0.000082580               0.000000000               0.000000000               0.000000000               0.000000000               0.000190168               0.000349285               0.000066153               0.000027652               0.000107210               0.000134862               0.000000000               0.000000000               0.000000000               0.000000000               0.000217902               0.000499087               0.000060757               0.000019327               0.000159918               0.000179246               0.000000000               0.000000000               0.000000000               0.000000000               0.000237686               0.000637905               0.000050941               0.000009394               0.000209501               0.000218895               0.000000000               0.000000000               0.000000000               0.000000000               0.000257096               0.000762901               0.000039022               0.000001048               0.000253948               0.000254997               0.000000000               0.000000000               0.000000000               0.000000000               0.000281379               0.000877038               0.000026505              -0.000004113               0.000293714               0.000289601               0.000000000               0.000000000               0.000000000               0.000000000               0.000309837               0.000979448               0.000014669              -0.000006242               0.000328560               0.000322318               0.000000000               0.000000000               0.000000000               0.000000000               0.000337593               0.001071512               0.000007883              -0.000007342               0.000359614               0.000352273               0.000000000               0.000000000               0.000000000               0.000000000               0.000360387               0.001153598               0.000006429              -0.000009054               0.000387547               0.000378492               0.000000000               0.000000000               0.000000000               0.000000000               0.000377870               0.001225175               0.000006696              -0.000011445               0.000412203               0.000400757               0.000000000               0.000000000               0.000000000               0.000000000               0.000390501               0.001287650               0.000008248              -0.000014518               0.000434052               0.000419533               0.000000000               0.000000000               0.000000000               0.000000000               0.000402063               0.001350282               0.000009727              -0.000018012               0.000456093               0.000438082               0.000000000               0.000000000               0.000000000               0.000000000               0.000414405               0.001415521               0.000008921              -0.000021538               0.000479015               0.000457477               0.000000000               0.000000000               0.000000000               0.000000000               0.000429837               0.001487762               0.000006623              -0.000024782               0.000504176               0.000479395               0.000000000               0.000000000               0.000000000               0.000000000               0.000447188               0.001562770               0.000003679              -0.000027651               0.000530135               0.000502484               0.000000000               0.000000000               0.000000000               0.000000000               0.000453920               0.001596341               0.000001592              -0.000029322               0.000541883               0.000512560               0.000000000               0.000000000               0.000000000               0.000000000               0.000071818               0.000074531               0.000018871               0.000017615               0.000018972               0.000036587               0.000000000               0.000000000               0.000000000               0.000000000               0.000141220               0.000168470               0.000028891               0.000031898               0.000045523               0.000077422               0.000000000               0.000000000               0.000000000               0.000000000               0.000200566               0.000322979               0.000035552               0.000034840               0.000096045               0.000130885               0.000000000               0.000000000               0.000000000               0.000000000               0.000232174               0.000472749               0.000033356               0.000027971               0.000148258               0.000176229               0.000000000               0.000000000               0.000000000               0.000000000               0.000253479               0.000613386               0.000028765               0.000018381               0.000198333               0.000216714               0.000000000               0.000000000               0.000000000               0.000000000               0.000271686               0.000744219               0.000022630               0.000008855               0.000245119               0.000253974               0.000000000               0.000000000               0.000000000               0.000000000               0.000291720               0.000865773               0.000015538               0.000001173               0.000288197               0.000289371               0.000000000               0.000000000               0.000000000               0.000000000               0.000315356               0.000972992               0.000008484              -0.000003365               0.000325449               0.000322084               0.000000000               0.000000000               0.000000000               0.000000000               0.000343170               0.001070384               0.000003899              -0.000005109               0.000358494               0.000353385               0.000000000               0.000000000               0.000000000               0.000000000               0.000369852               0.001156603               0.000002566              -0.000005881               0.000387491               0.000381610               0.000000000               0.000000000               0.000000000               0.000000000               0.000392775               0.001230786               0.000002109              -0.000006558               0.000412444               0.000405886               0.000000000               0.000000000               0.000000000               0.000000000               0.000411917               0.001295112               0.000002340              -0.000007420               0.000434173               0.000426753               0.000000000               0.000000000               0.000000000               0.000000000               0.000428057               0.001354118               0.000003057              -0.000008743               0.000454283               0.000445539               0.000000000               0.000000000               0.000000000               0.000000000               0.000443932               0.001414648               0.000002767              -0.000010356               0.000474997               0.000464640               0.000000000               0.000000000               0.000000000               0.000000000               0.000463405               0.001486082               0.000001924              -0.000011983               0.000499350               0.000487367               0.000000000               0.000000000               0.000000000               0.000000000               0.000484645               0.001562128               0.000000654              -0.000013524               0.000525212               0.000511688               0.000000000               0.000000000               0.000000000               0.000000000               0.000493931               0.001597046              -0.000000315              -0.000014407               0.000537146               0.000522739               0.000000000               0.000000000               0.000000000               0.000000000               0.000067227               0.000068575               0.000000000               0.000016638               0.000017312               0.000033950               0.000000000               0.000000000               0.000000000               0.000000000               0.000141511               0.000161394               0.000000000               0.000032892               0.000042833               0.000075726               0.000000000               0.000000000               0.000000000               0.000000000               0.000203531               0.000314061               0.000000000               0.000037066               0.000092331               0.000129397               0.000000000               0.000000000               0.000000000               0.000000000               0.000237801               0.000463458              -0.000000000               0.000031243               0.000144070               0.000175313               0.000000000               0.000000000               0.000000000               0.000000000               0.000259796               0.000603867               0.000000000               0.000021940               0.000193974               0.000215913               0.000000000               0.000000000               0.000000000               0.000000000               0.000276409               0.000735802              -0.000000000               0.000011678               0.000241372               0.000253050               0.000000000               0.000000000               0.000000000               0.000000000               0.000295242               0.000860117              -0.000000000               0.000003201               0.000285636               0.000288837               0.000000000               0.000000000               0.000000000               0.000000000               0.000318099               0.000970749              -0.000000000              -0.000002056               0.000324265               0.000322209               0.000000000               0.000000000               0.000000000               0.000000000               0.000346055               0.001070933              -0.000000000              -0.000004096               0.000358339               0.000354243               0.000000000               0.000000000               0.000000000               0.000000000               0.000373438               0.001157678              -0.000000000              -0.000004670               0.000387446               0.000382775               0.000000000               0.000000000               0.000000000               0.000000000               0.000397592               0.001232184               0.000000000              -0.000004926               0.000412366               0.000407440               0.000000000               0.000000000               0.000000000               0.000000000               0.000419124               0.001297559               0.000000000              -0.000005023               0.000434190               0.000429167               0.000000000               0.000000000               0.000000000               0.000000000               0.000437122               0.001354820               0.000000000              -0.000005432               0.000453413               0.000447981               0.000000000               0.000000000               0.000000000               0.000000000               0.000454433               0.001413679               0.000000000              -0.000006297               0.000473321               0.000467023               0.000000000               0.000000000               0.000000000               0.000000000               0.000475014               0.001484909               0.000000000              -0.000007483               0.000497459               0.000489976               0.000000000               0.000000000               0.000000000               0.000000000               0.000496615               0.001560683               0.000000000              -0.000008855               0.000523174               0.000514319               0.000000000               0.000000000               0.000000000               0.000000000               0.000505774               0.001595739               0.000000000              -0.000009802               0.000535175               0.000525373               0.000000000               0.000000000               0.000000000               0.000000000               0.000060499               0.000498280               0.000000000              -0.000039598               0.000179291               0.000139693               0.000000000               0.000000000               0.000000000               0.000000000               0.000080753               0.000426550               0.000000000              -0.000023036               0.000149861               0.000126824               0.000000000               0.000000000               0.000000000               0.000000000               0.000118183               0.000377149               0.000000000              -0.000002825               0.000126657               0.000123832               0.000000000               0.000000000               0.000000000               0.000000000               0.000128584               0.000364949               0.000000000               0.000002600               0.000120782               0.000123382               0.000000000               0.000000000               0.000000000               0.000000000               0.000125276               0.000371665               0.000000000               0.000000520               0.000123714               0.000124234               0.000000000               0.000000000               0.000000000               0.000000000               0.000117353               0.000377094              -0.000000000              -0.000003129               0.000126740               0.000123611               0.000000000               0.000000000               0.000000000               0.000000000               0.000112601               0.000370435              -0.000000000              -0.000004079               0.000124837               0.000120758               0.000000000               0.000000000               0.000000000               0.000000000               0.000112948               0.000362198              -0.000000000              -0.000002919               0.000121704               0.000118785               0.000000000               0.000000000               0.000000000               0.000000000               0.000115142               0.000351116              -0.000000000              -0.000000711               0.000117275               0.000116563               0.000000000               0.000000000               0.000000000               0.000000000               0.000118344               0.000336168              -0.000000000               0.000002358               0.000111269               0.000113627               0.000000000               0.000000000               0.000000000               0.000000000               0.000121141               0.000322542              -0.000000000               0.000005110               0.000105810               0.000110920               0.000000000               0.000000000               0.000000000               0.000000000               0.000119038               0.000312087               0.000000000               0.000005628               0.000102152               0.000107780               0.000000000               0.000000000               0.000000000               0.000000000               0.000109506               0.000307444               0.000000000               0.000002634               0.000101602               0.000104236               0.000000000               0.000000000               0.000000000               0.000000000               0.000092570               0.000310654               0.000000000              -0.000004118               0.000104923               0.000100805               0.000000000               0.000000000               0.000000000               0.000000000               0.000067667               0.000321211              -0.000000000              -0.000014776               0.000111995               0.000097218               0.000000000               0.000000000               0.000000000               0.000000000               0.000035472               0.000337689              -0.000000000              -0.000028909               0.000122198               0.000093289               0.000000000               0.000000000               0.000000000               0.000000000               0.000020471               0.000353723              -0.000000000              -0.000036539               0.000130086               0.000093548               0.000000000               0.000000000               0.000000000               0.000000000               0.000062607               0.000490060              -0.000039560              -0.000037780               0.000175945               0.000138165               0.000000000               0.000000000               0.000000000               0.000000000               0.000081173               0.000420611              -0.000026811              -0.000022137               0.000147581               0.000125444               0.000000000               0.000000000               0.000000000               0.000000000               0.000116862               0.000374222              -0.000009879              -0.000002955               0.000125724               0.000122770               0.000000000               0.000000000               0.000000000               0.000000000               0.000126550               0.000366005               0.000000573               0.000001706               0.000121432               0.000123138               0.000000000               0.000000000               0.000000000               0.000000000               0.000124717               0.000372098               0.000003341               0.000000257               0.000123946               0.000124203               0.000000000               0.000000000               0.000000000               0.000000000               0.000120530               0.000376990              -0.000001282              -0.000001925               0.000126304               0.000124379               0.000000000               0.000000000               0.000000000               0.000000000               0.000115459               0.000370192              -0.000004359              -0.000002977               0.000124389               0.000121412               0.000000000               0.000000000               0.000000000               0.000000000               0.000114884               0.000363473              -0.000003917              -0.000002352               0.000121941               0.000119588               0.000000000               0.000000000               0.000000000               0.000000000               0.000117530               0.000356260              -0.000005735              -0.000000459               0.000118905               0.000118446               0.000000000               0.000000000               0.000000000               0.000000000               0.000118520               0.000346547              -0.000007390               0.000001127               0.000115139               0.000116266               0.000000000               0.000000000               0.000000000               0.000000000               0.000118114               0.000338830              -0.000008137               0.000001939               0.000112296               0.000114235               0.000000000               0.000000000               0.000000000               0.000000000               0.000114872               0.000334974              -0.000008207               0.000001205               0.000111255               0.000112461               0.000000000               0.000000000               0.000000000               0.000000000               0.000104703               0.000336185              -0.000006626              -0.000002759               0.000112980               0.000110221               0.000000000               0.000000000               0.000000000               0.000000000               0.000087534               0.000343796              -0.000004311              -0.000010149               0.000117980               0.000107831               0.000000000               0.000000000               0.000000000               0.000000000               0.000064045               0.000358255              -0.000001960              -0.000020765               0.000126339               0.000105574               0.000000000               0.000000000               0.000000000               0.000000000               0.000033777               0.000379064              -0.000000217              -0.000034717               0.000137925               0.000103209               0.000000000               0.000000000               0.000000000               0.000000000               0.000020510               0.000399094              -0.000001084              -0.000042195               0.000147095               0.000104900               0.000000000               0.000000000               0.000000000               0.000000000               0.000074902               0.000475670              -0.000076258              -0.000031371               0.000169012               0.000137641               0.000000000               0.000000000               0.000000000               0.000000000               0.000087266               0.000409570              -0.000049506              -0.000018471               0.000142679               0.000124208               0.000000000               0.000000000               0.000000000               0.000000000               0.000117237               0.000373056              -0.000016092              -0.000002668               0.000125240               0.000122572               0.000000000               0.000000000               0.000000000               0.000000000               0.000122333               0.000370081               0.000001979              -0.000000385               0.000123488               0.000123102               0.000000000               0.000000000               0.000000000               0.000000000               0.000119498               0.000376496               0.000006315              -0.000002250               0.000126247               0.000123997               0.000000000               0.000000000               0.000000000               0.000000000               0.000121363               0.000380848              -0.000002176              -0.000002095               0.000127646               0.000125551               0.000000000               0.000000000               0.000000000               0.000000000               0.000124865               0.000378447              -0.000008054              -0.000000482               0.000126308               0.000125827               0.000000000               0.000000000               0.000000000               0.000000000               0.000128758               0.000378714              -0.000007706               0.000000945               0.000125922               0.000126867               0.000000000               0.000000000               0.000000000               0.000000000               0.000129428               0.000379631              -0.000011986               0.000001082               0.000126182               0.000127263               0.000000000               0.000000000               0.000000000               0.000000000               0.000123841               0.000382846              -0.000016123              -0.000001415               0.000128086               0.000126671               0.000000000               0.000000000               0.000000000               0.000000000               0.000115295               0.000390443              -0.000018457              -0.000005570               0.000132003               0.000126433               0.000000000               0.000000000               0.000000000               0.000000000               0.000105543               0.000403441              -0.000019707              -0.000010851               0.000138096               0.000127245               0.000000000               0.000000000               0.000000000               0.000000000               0.000091213               0.000420408              -0.000018509              -0.000018346               0.000146250               0.000127904               0.000000000               0.000000000               0.000000000               0.000000000               0.000072543               0.000440967              -0.000015645              -0.000027917               0.000156293               0.000128376               0.000000000               0.000000000               0.000000000               0.000000000               0.000051550               0.000466221              -0.000011527              -0.000038946               0.000168387               0.000129441               0.000000000               0.000000000               0.000000000               0.000000000               0.000027129               0.000496590              -0.000006147              -0.000051900               0.000182828               0.000130928               0.000000000               0.000000000               0.000000000               0.000000000               0.000018648               0.000522821              -0.000005832              -0.000058359               0.000193725               0.000135366               0.000000000               0.000000000               0.000000000               0.000000000               0.000093940               0.000459206              -0.000104488              -0.000022173               0.000160458               0.000138285               0.000000000               0.000000000               0.000000000               0.000000000               0.000093953               0.000396692              -0.000065125              -0.000014354               0.000137014               0.000122660               0.000000000               0.000000000               0.000000000               0.000000000               0.000112462               0.000376122              -0.000020165              -0.000004842               0.000126987               0.000122145               0.000000000               0.000000000               0.000000000               0.000000000               0.000114887               0.000381615               0.000003332              -0.000004619               0.000128744               0.000124124               0.000000000               0.000000000               0.000000000               0.000000000               0.000117837               0.000395401               0.000007769              -0.000005236               0.000133544               0.000128308               0.000000000               0.000000000               0.000000000               0.000000000               0.000128086               0.000402328              -0.000004241              -0.000002259               0.000134861               0.000132602               0.000000000               0.000000000               0.000000000               0.000000000               0.000139620               0.000410741              -0.000013690               0.000001015               0.000136574               0.000137589               0.000000000               0.000000000               0.000000000               0.000000000               0.000143597               0.000421110              -0.000016434               0.000001210               0.000139965               0.000141175               0.000000000               0.000000000               0.000000000               0.000000000               0.000142929               0.000436069              -0.000023109              -0.000000910               0.000145658               0.000144748               0.000000000               0.000000000               0.000000000               0.000000000               0.000134776               0.000457413              -0.000028687              -0.000006636               0.000154681               0.000148046               0.000000000               0.000000000               0.000000000               0.000000000               0.000120531               0.000484771              -0.000032025              -0.000015397               0.000166721               0.000151324               0.000000000               0.000000000               0.000000000               0.000000000               0.000105512               0.000518355              -0.000033353              -0.000025227               0.000181192               0.000155965               0.000000000               0.000000000               0.000000000               0.000000000               0.000086688               0.000554531              -0.000031999              -0.000036808               0.000197111               0.000160303               0.000000000               0.000000000               0.000000000               0.000000000               0.000064325               0.000591537              -0.000028173              -0.000049820               0.000213784               0.000163964               0.000000000               0.000000000               0.000000000               0.000000000               0.000042903               0.000629674              -0.000021677              -0.000062621               0.000230763               0.000168142               0.000000000               0.000000000               0.000000000               0.000000000               0.000021796               0.000668304              -0.000012158              -0.000075364               0.000247887               0.000172523               0.000000000               0.000000000               0.000000000               0.000000000               0.000016234               0.000696747              -0.000009726              -0.000081005               0.000259248               0.000178243               0.000000000               0.000000000               0.000000000               0.000000000               0.000111484               0.000431782              -0.000128885              -0.000012166               0.000147981               0.000135815               0.000000000               0.000000000               0.000000000               0.000000000               0.000098850               0.000382057              -0.000077138              -0.000010688               0.000130914               0.000120225               0.000000000               0.000000000               0.000000000               0.000000000               0.000106492               0.000385652              -0.000022583              -0.000008272               0.000131307               0.000123035               0.000000000               0.000000000               0.000000000               0.000000000               0.000109653               0.000408605               0.000002307              -0.000009956               0.000139519               0.000129563               0.000000000               0.000000000               0.000000000               0.000000000               0.000118667               0.000432223               0.000004138              -0.000009528               0.000147249               0.000137721               0.000000000               0.000000000               0.000000000               0.000000000               0.000137248               0.000452460              -0.000010026              -0.000005090               0.000152515               0.000147425               0.000000000               0.000000000               0.000000000               0.000000000               0.000155733               0.000478922              -0.000021511              -0.000001465               0.000160127               0.000158662               0.000000000               0.000000000               0.000000000               0.000000000               0.000162007               0.000506809              -0.000026238              -0.000002599               0.000169801               0.000167202               0.000000000               0.000000000               0.000000000               0.000000000               0.000160199               0.000540893              -0.000033165              -0.000007537               0.000182808               0.000175271               0.000000000               0.000000000               0.000000000               0.000000000               0.000147879               0.000578907              -0.000039109              -0.000016909               0.000198603               0.000181695               0.000000000               0.000000000               0.000000000               0.000000000               0.000131013               0.000622245              -0.000041620              -0.000028651               0.000216963               0.000188313               0.000000000               0.000000000               0.000000000               0.000000000               0.000114184               0.000670044              -0.000041645              -0.000040937               0.000236991               0.000196055               0.000000000               0.000000000               0.000000000               0.000000000               0.000092826               0.000718204              -0.000038821              -0.000054966               0.000257721               0.000202755               0.000000000               0.000000000               0.000000000               0.000000000               0.000068017               0.000764878              -0.000033315              -0.000070103               0.000278324               0.000208221               0.000000000               0.000000000               0.000000000               0.000000000               0.000044524               0.000809487              -0.000024988              -0.000084489               0.000297989               0.000213500               0.000000000               0.000000000               0.000000000               0.000000000               0.000022097               0.000850543              -0.000013578              -0.000098031               0.000316189               0.000218157               0.000000000               0.000000000               0.000000000               0.000000000               0.000016050               0.000878071              -0.000010183              -0.000103740               0.000327267               0.000223527               0.000000000               0.000000000               0.000000000               0.000000000               0.000125901               0.000399817              -0.000143859              -0.000002764               0.000134192               0.000131428               0.000000000               0.000000000               0.000000000               0.000000000               0.000102889               0.000374828              -0.000085414              -0.000008270               0.000127698               0.000119428               0.000000000               0.000000000               0.000000000               0.000000000               0.000102024               0.000408005              -0.000027265              -0.000012741               0.000140247               0.000127506               0.000000000               0.000000000               0.000000000               0.000000000               0.000108167               0.000454104              -0.000004300              -0.000016200               0.000156767               0.000140566               0.000000000               0.000000000               0.000000000               0.000000000               0.000128789               0.000496986              -0.000002049              -0.000013827               0.000170269               0.000156442               0.000000000               0.000000000               0.000000000               0.000000000               0.000158879               0.000537756              -0.000016025              -0.000007640               0.000181797               0.000174157               0.000000000               0.000000000               0.000000000               0.000000000               0.000177870               0.000577306              -0.000028426              -0.000005462               0.000194254               0.000188792               0.000000000               0.000000000               0.000000000               0.000000000               0.000181157               0.000622544              -0.000034568              -0.000009884               0.000210807               0.000200923               0.000000000               0.000000000               0.000000000               0.000000000               0.000174287               0.000671020              -0.000041944              -0.000018520               0.000229845               0.000211325               0.000000000               0.000000000               0.000000000               0.000000000               0.000157894               0.000721520              -0.000047888              -0.000030980               0.000250831               0.000219851               0.000000000               0.000000000               0.000000000               0.000000000               0.000139086               0.000774264              -0.000048460              -0.000044626               0.000272961               0.000228335               0.000000000               0.000000000               0.000000000               0.000000000               0.000120216               0.000828328              -0.000045860              -0.000058460               0.000295593               0.000237133               0.000000000               0.000000000               0.000000000               0.000000000               0.000097058               0.000879744              -0.000040685              -0.000073571               0.000317769               0.000244198               0.000000000               0.000000000               0.000000000               0.000000000               0.000071366               0.000927330              -0.000033246              -0.000089154               0.000338825               0.000249671               0.000000000               0.000000000               0.000000000               0.000000000               0.000047291               0.000971848              -0.000023658              -0.000103747               0.000358528               0.000254782               0.000000000               0.000000000               0.000000000               0.000000000               0.000023682               0.001011633              -0.000012257              -0.000117573               0.000376399               0.000258826               0.000000000               0.000000000               0.000000000               0.000000000               0.000016704               0.001038146              -0.000009279              -0.000123504               0.000387213               0.000263709               0.000000000               0.000000000               0.000000000               0.000000000               0.000137453               0.000369450              -0.000150110               0.000005363               0.000121361               0.000126724               0.000000000               0.000000000               0.000000000               0.000000000               0.000106254               0.000376054              -0.000093846              -0.000007162               0.000127737               0.000120576               0.000000000               0.000000000               0.000000000               0.000000000               0.000101593               0.000446551              -0.000036247              -0.000017722               0.000154756               0.000137035               0.000000000               0.000000000               0.000000000               0.000000000               0.000117866               0.000516900              -0.000012364              -0.000020413               0.000179102               0.000158690               0.000000000               0.000000000               0.000000000               0.000000000               0.000150373               0.000577926              -0.000010523              -0.000015851               0.000197924               0.000182073               0.000000000               0.000000000               0.000000000               0.000000000               0.000185592               0.000628246              -0.000026135              -0.000008934               0.000212391               0.000203457               0.000000000               0.000000000               0.000000000               0.000000000               0.000203781               0.000678582              -0.000038225              -0.000008405               0.000228994               0.000220588               0.000000000               0.000000000               0.000000000               0.000000000               0.000201070               0.000736034              -0.000043030              -0.000016603               0.000250876               0.000234274               0.000000000               0.000000000               0.000000000               0.000000000               0.000186096               0.000792482              -0.000049196              -0.000029274               0.000273916               0.000244642               0.000000000               0.000000000               0.000000000               0.000000000               0.000164380               0.000850046              -0.000052508              -0.000044613               0.000298217               0.000253604               0.000000000               0.000000000               0.000000000               0.000000000               0.000143530               0.000910276              -0.000050262              -0.000059960               0.000323409               0.000263449               0.000000000               0.000000000               0.000000000               0.000000000               0.000121823               0.000968929              -0.000044856              -0.000075432               0.000348117               0.000272685               0.000000000               0.000000000               0.000000000               0.000000000               0.000095510               0.001023549              -0.000038204              -0.000092127               0.000371888               0.000279762               0.000000000               0.000000000               0.000000000               0.000000000               0.000069484               0.001075094              -0.000029633              -0.000108330               0.000394471               0.000286141               0.000000000               0.000000000               0.000000000               0.000000000               0.000045828               0.001123597              -0.000019985              -0.000123264               0.000415616               0.000292353               0.000000000               0.000000000               0.000000000               0.000000000               0.000022150               0.001167516              -0.000010264              -0.000137633               0.000435046               0.000297413               0.000000000               0.000000000               0.000000000               0.000000000               0.000015426               0.001196776              -0.000008577              -0.000143812               0.000446859               0.000303047               0.000000000               0.000000000               0.000000000               0.000000000               0.000150149               0.000343876              -0.000151975               0.000013321               0.000110184               0.000123505               0.000000000               0.000000000               0.000000000               0.000000000               0.000114106               0.000382805              -0.000100481              -0.000005061               0.000129287               0.000124226               0.000000000               0.000000000               0.000000000               0.000000000               0.000108632               0.000491876              -0.000047029              -0.000020747               0.000170873               0.000150125               0.000000000               0.000000000               0.000000000               0.000000000               0.000133112               0.000582494              -0.000024760              -0.000022895               0.000201794               0.000178900               0.000000000               0.000000000               0.000000000               0.000000000               0.000174352               0.000652053              -0.000022607              -0.000016125               0.000222724               0.000206599               0.000000000               0.000000000               0.000000000               0.000000000               0.000210634               0.000706985              -0.000033425              -0.000009385               0.000238788               0.000229403               0.000000000               0.000000000               0.000000000               0.000000000               0.000224513               0.000769689              -0.000041738              -0.000012019               0.000260567               0.000248548               0.000000000               0.000000000               0.000000000               0.000000000               0.000213428               0.000834610              -0.000045168              -0.000024291               0.000286297               0.000262007               0.000000000               0.000000000               0.000000000               0.000000000               0.000192154               0.000898657              -0.000050744              -0.000040274               0.000312974               0.000272700               0.000000000               0.000000000               0.000000000               0.000000000               0.000168679               0.000964791              -0.000050243              -0.000057344               0.000340708               0.000283364               0.000000000               0.000000000               0.000000000               0.000000000               0.000146204               0.001034359              -0.000044948              -0.000074468               0.000369606               0.000295137               0.000000000               0.000000000               0.000000000               0.000000000               0.000121360               0.001101734              -0.000038927              -0.000092207               0.000397977               0.000305770               0.000000000               0.000000000               0.000000000               0.000000000               0.000095234               0.001166314              -0.000031119              -0.000110076               0.000425459               0.000315383               0.000000000               0.000000000               0.000000000               0.000000000               0.000070403               0.001229444              -0.000022678              -0.000127279               0.000452237               0.000324958               0.000000000               0.000000000               0.000000000               0.000000000               0.000046193               0.001288614              -0.000014604              -0.000143754               0.000477452               0.000333698               0.000000000               0.000000000               0.000000000               0.000000000               0.000022543               0.001342184              -0.000007156              -0.000159319               0.000500496               0.000341178               0.000000000               0.000000000               0.000000000               0.000000000               0.000014850               0.001376782              -0.000006966              -0.000166528               0.000514432               0.000347904               0.000000000               0.000000000               0.000000000               0.000000000               0.000159386               0.000322493              -0.000148739               0.000019458               0.000101011               0.000120468               0.000000000               0.000000000               0.000000000               0.000000000               0.000121525               0.000387868              -0.000106367              -0.000002912               0.000130259               0.000127347               0.000000000               0.000000000               0.000000000               0.000000000               0.000119007               0.000527438              -0.000060090              -0.000021302               0.000182912               0.000161610               0.000000000               0.000000000               0.000000000               0.000000000               0.000146762               0.000632536              -0.000036851              -0.000024031               0.000218854               0.000194823               0.000000000               0.000000000               0.000000000               0.000000000               0.000187533               0.000704697              -0.000029115              -0.000017762               0.000240817               0.000223055               0.000000000               0.000000000               0.000000000               0.000000000               0.000222610               0.000763713              -0.000030655              -0.000011985               0.000258564               0.000246578               0.000000000               0.000000000               0.000000000               0.000000000               0.000231294               0.000833850              -0.000035697              -0.000017496               0.000283779               0.000266283               0.000000000               0.000000000               0.000000000               0.000000000               0.000216671               0.000906447              -0.000041248              -0.000032054               0.000312831               0.000280776               0.000000000               0.000000000               0.000000000               0.000000000               0.000198566               0.000979492              -0.000046240              -0.000047974               0.000342485               0.000294511               0.000000000               0.000000000               0.000000000               0.000000000               0.000180160               0.001057206              -0.000044649              -0.000064591               0.000373929               0.000309338               0.000000000               0.000000000               0.000000000               0.000000000               0.000160106               0.001136411              -0.000038934              -0.000082011               0.000406137               0.000324126               0.000000000               0.000000000               0.000000000               0.000000000               0.000137580               0.001212900              -0.000033024              -0.000100020               0.000437636               0.000337616               0.000000000               0.000000000               0.000000000               0.000000000               0.000113912               0.001286988              -0.000024580              -0.000118156               0.000468377               0.000350221               0.000000000               0.000000000               0.000000000               0.000000000               0.000090650               0.001359091              -0.000015794              -0.000135892               0.000498323               0.000362431               0.000000000               0.000000000               0.000000000               0.000000000               0.000067739               0.001427172              -0.000008210              -0.000152994               0.000526717               0.000373723               0.000000000               0.000000000               0.000000000               0.000000000               0.000048037               0.001491018              -0.000002103              -0.000168363               0.000553122               0.000384759               0.000000000               0.000000000               0.000000000               0.000000000               0.000037359               0.001524646              -0.000000098              -0.000176570               0.000567067               0.000390497               0.000000000               0.000000000               0.000000000               0.000000000               0.000164674               0.000285156              -0.000142695               0.000026108               0.000086348               0.000112456               0.000000000               0.000000000               0.000000000               0.000000000               0.000131790               0.000369874              -0.000114550               0.000003187               0.000122228               0.000125415               0.000000000               0.000000000               0.000000000               0.000000000               0.000126170               0.000529962              -0.000077585              -0.000018931               0.000182963               0.000164031               0.000000000               0.000000000               0.000000000               0.000000000               0.000148472               0.000645704              -0.000051086              -0.000025036               0.000223578               0.000198542               0.000000000               0.000000000               0.000000000               0.000000000               0.000183098               0.000725297              -0.000036008              -0.000022000               0.000249097               0.000227097               0.000000000               0.000000000               0.000000000               0.000000000               0.000222068               0.000792258              -0.000028710              -0.000015757               0.000269336               0.000253579               0.000000000               0.000000000               0.000000000               0.000000000               0.000243539               0.000865225              -0.000029629              -0.000016826               0.000294014               0.000277188               0.000000000               0.000000000               0.000000000               0.000000000               0.000239943               0.000941000              -0.000037514              -0.000027646               0.000322879               0.000295233               0.000000000               0.000000000               0.000000000               0.000000000               0.000227307               0.001016281              -0.000043973              -0.000041795               0.000352688               0.000310894               0.000000000               0.000000000               0.000000000               0.000000000               0.000212904               0.001091886              -0.000045063              -0.000056646               0.000382841               0.000326194               0.000000000               0.000000000               0.000000000               0.000000000               0.000197754               0.001170890              -0.000042703              -0.000072203               0.000414361               0.000342157               0.000000000               0.000000000               0.000000000               0.000000000               0.000180643               0.001250052              -0.000036702              -0.000088515               0.000446185               0.000357670               0.000000000               0.000000000               0.000000000               0.000000000               0.000160290               0.001325510              -0.000028784              -0.000105580               0.000477026               0.000371446               0.000000000               0.000000000               0.000000000               0.000000000               0.000138997               0.001399769              -0.000019814              -0.000122847               0.000507534               0.000384687               0.000000000               0.000000000               0.000000000               0.000000000               0.000118380               0.001475027              -0.000010261              -0.000139986               0.000538333               0.000398347               0.000000000               0.000000000               0.000000000               0.000000000               0.000099896               0.001548857              -0.000003107              -0.000156146               0.000568329               0.000412183               0.000000000               0.000000000               0.000000000               0.000000000               0.000084200               0.001579383               0.000002099              -0.000165847               0.000581738               0.000415891               0.000000000               0.000000000               0.000000000               0.000000000               0.000163245               0.000240967              -0.000131691               0.000031096               0.000069956               0.000101052               0.000000000               0.000000000               0.000000000               0.000000000               0.000141806               0.000342741              -0.000117538               0.000010334               0.000110801               0.000121136               0.000000000               0.000000000               0.000000000               0.000000000               0.000133554               0.000510707              -0.000090430              -0.000013756               0.000174819               0.000161063               0.000000000               0.000000000               0.000000000               0.000000000               0.000149505               0.000630454              -0.000064230              -0.000022742               0.000217730               0.000194988               0.000000000               0.000000000               0.000000000               0.000000000               0.000178238               0.000722319              -0.000044581              -0.000023451               0.000248588               0.000225137               0.000000000               0.000000000               0.000000000               0.000000000               0.000219574               0.000803823              -0.000030846              -0.000018138               0.000273984               0.000255847               0.000000000               0.000000000               0.000000000               0.000000000               0.000255254               0.000883095              -0.000026309              -0.000014667               0.000299251               0.000284584               0.000000000               0.000000000               0.000000000               0.000000000               0.000267706               0.000960573              -0.000031459              -0.000019682               0.000326748               0.000307067               0.000000000               0.000000000               0.000000000               0.000000000               0.000262652               0.001035684              -0.000038410              -0.000030966               0.000355546               0.000324580               0.000000000               0.000000000               0.000000000               0.000000000               0.000253045               0.001106188              -0.000042065              -0.000043382               0.000383186               0.000339805               0.000000000               0.000000000               0.000000000               0.000000000               0.000241306               0.001178813              -0.000042511              -0.000056862               0.000411888               0.000355026               0.000000000               0.000000000               0.000000000               0.000000000               0.000229252               0.001255891              -0.000038297              -0.000071017               0.000442298               0.000371282               0.000000000               0.000000000               0.000000000               0.000000000               0.000215881               0.001331654              -0.000031558              -0.000085501               0.000472381               0.000386879               0.000000000               0.000000000               0.000000000               0.000000000               0.000199286               0.001403500              -0.000023781              -0.000100705               0.000501397               0.000400692               0.000000000               0.000000000               0.000000000               0.000000000               0.000182519               0.001476475              -0.000014712              -0.000116114               0.000530858               0.000414744               0.000000000               0.000000000               0.000000000               0.000000000               0.000166299               0.001552374              -0.000005861              -0.000131684               0.000561347               0.000429663               0.000000000               0.000000000               0.000000000               0.000000000               0.000149152               0.001584248               0.000001384              -0.000142099               0.000575444               0.000433345               0.000000000               0.000000000               0.000000000               0.000000000               0.000151301               0.000198765              -0.000112242               0.000031892               0.000055624               0.000087516               0.000000000               0.000000000               0.000000000               0.000000000               0.000145525               0.000305326              -0.000112062               0.000016406               0.000096306               0.000112711               0.000000000               0.000000000               0.000000000               0.000000000               0.000145554               0.000471364              -0.000097653              -0.000004338               0.000158566               0.000154228               0.000000000               0.000000000               0.000000000               0.000000000               0.000159805               0.000601158              -0.000075066              -0.000015218               0.000205457               0.000190239               0.000000000               0.000000000               0.000000000               0.000000000               0.000184256               0.000713200              -0.000055323              -0.000020054               0.000244416               0.000224362               0.000000000               0.000000000               0.000000000               0.000000000               0.000221748               0.000812308              -0.000038681              -0.000018383               0.000276894               0.000258511               0.000000000               0.000000000               0.000000000               0.000000000               0.000260776               0.000898422              -0.000027252              -0.000014512               0.000304308               0.000289797               0.000000000               0.000000000               0.000000000               0.000000000               0.000284708               0.000977392              -0.000024631              -0.000015408               0.000330930               0.000315522               0.000000000               0.000000000               0.000000000               0.000000000               0.000289663               0.001051564              -0.000028507              -0.000022822               0.000358125               0.000335303               0.000000000               0.000000000               0.000000000               0.000000000               0.000286472               0.001119835              -0.000033464              -0.000032552               0.000384125               0.000351573               0.000000000               0.000000000               0.000000000               0.000000000               0.000280293               0.001186899              -0.000036013              -0.000043252               0.000410046               0.000366794               0.000000000               0.000000000               0.000000000               0.000000000               0.000273785               0.001258788              -0.000035503              -0.000054679               0.000437818               0.000383139               0.000000000               0.000000000               0.000000000               0.000000000               0.000268040               0.001334214              -0.000031419              -0.000066262               0.000466821               0.000400559               0.000000000               0.000000000               0.000000000               0.000000000               0.000260394               0.001408460              -0.000025742              -0.000078409               0.000495619               0.000417209               0.000000000               0.000000000               0.000000000               0.000000000               0.000249578               0.001479576              -0.000019116              -0.000091355               0.000523639               0.000432284               0.000000000               0.000000000               0.000000000               0.000000000               0.000237450               0.001553374              -0.000010103              -0.000105128               0.000552829               0.000447701               0.000000000               0.000000000               0.000000000               0.000000000               0.000222396               0.001585935              -0.000001556              -0.000114843               0.000566921               0.000452078               0.000000000               0.000000000               0.000000000               0.000000000               0.000132089               0.000154671              -0.000087733               0.000030199               0.000041490               0.000071689               0.000000000               0.000000000               0.000000000               0.000000000               0.000146299               0.000259216              -0.000098681               0.000022460               0.000078918               0.000101378               0.000000000               0.000000000               0.000000000               0.000000000               0.000159892               0.000426750              -0.000097066               0.000006616               0.000140043               0.000146659               0.000000000               0.000000000               0.000000000               0.000000000               0.000176481               0.000570679              -0.000080661              -0.000005154               0.000191943               0.000186788               0.000000000               0.000000000               0.000000000               0.000000000               0.000199019               0.000698811              -0.000063136              -0.000012719               0.000237174               0.000224455               0.000000000               0.000000000               0.000000000               0.000000000               0.000228679               0.000807785              -0.000045612              -0.000015219               0.000274332               0.000259113               0.000000000               0.000000000               0.000000000               0.000000000               0.000262659               0.000899342              -0.000029239              -0.000013920               0.000304418               0.000290497               0.000000000               0.000000000               0.000000000               0.000000000               0.000292149               0.000982557              -0.000019371              -0.000013264               0.000331937               0.000318673               0.000000000               0.000000000               0.000000000               0.000000000               0.000309871               0.001061428              -0.000018568              -0.000016477               0.000359298               0.000342821               0.000000000               0.000000000               0.000000000               0.000000000               0.000317248               0.001133631              -0.000022761              -0.000022736               0.000385452               0.000362716               0.000000000               0.000000000               0.000000000               0.000000000               0.000318872               0.001199206              -0.000026593              -0.000030324               0.000409839               0.000379516               0.000000000               0.000000000               0.000000000               0.000000000               0.000318372               0.001265964              -0.000028716              -0.000038856               0.000434936               0.000396080               0.000000000               0.000000000               0.000000000               0.000000000               0.000318546               0.001338235              -0.000027588              -0.000047824               0.000462015               0.000414191               0.000000000               0.000000000               0.000000000               0.000000000               0.000319349               0.001414214              -0.000023634              -0.000057021               0.000490407               0.000433386               0.000000000               0.000000000               0.000000000               0.000000000               0.000316734               0.001485210              -0.000017942              -0.000066876               0.000517357               0.000450481               0.000000000               0.000000000               0.000000000               0.000000000               0.000311330               0.001553082              -0.000010620              -0.000077386               0.000543484               0.000466098               0.000000000               0.000000000               0.000000000               0.000000000               0.000301928               0.001582799              -0.000004026              -0.000084627               0.000555803               0.000471177               0.000000000               0.000000000               0.000000000               0.000000000               0.000108661               0.000116500              -0.000063200               0.000026185               0.000030105               0.000056290               0.000000000               0.000000000               0.000000000               0.000000000               0.000143947               0.000219392              -0.000079663               0.000026556               0.000064278               0.000090834               0.000000000               0.000000000               0.000000000               0.000000000               0.000174846               0.000386367              -0.000086825               0.000017271               0.000123031               0.000140302               0.000000000               0.000000000               0.000000000               0.000000000               0.000197720               0.000535271              -0.000077210               0.000007236               0.000176010               0.000183246               0.000000000               0.000000000               0.000000000               0.000000000               0.000218420               0.000670151              -0.000062937              -0.000001861               0.000224002               0.000222141               0.000000000               0.000000000               0.000000000               0.000000000               0.000241117               0.000787211              -0.000046070              -0.000007982               0.000265062               0.000257079               0.000000000               0.000000000               0.000000000               0.000000000               0.000269804               0.000889879              -0.000029274              -0.000010058               0.000299976               0.000289918               0.000000000               0.000000000               0.000000000               0.000000000               0.000300963               0.000983141              -0.000016650              -0.000010032               0.000331054               0.000321023               0.000000000               0.000000000               0.000000000               0.000000000               0.000326624               0.001068827              -0.000012315              -0.000011119               0.000359978               0.000348859               0.000000000               0.000000000               0.000000000               0.000000000               0.000343578               0.001146617              -0.000013500              -0.000014485               0.000387030               0.000372545               0.000000000               0.000000000               0.000000000               0.000000000               0.000352994               0.001214113              -0.000015898              -0.000019391               0.000411164               0.000391773               0.000000000               0.000000000               0.000000000               0.000000000               0.000358071               0.001276199              -0.000018388              -0.000025248               0.000433811               0.000408563               0.000000000               0.000000000               0.000000000               0.000000000               0.000363884               0.001343780              -0.000019186              -0.000031516               0.000458427               0.000426911               0.000000000               0.000000000               0.000000000               0.000000000               0.000371255               0.001415874              -0.000017075              -0.000037764               0.000484541               0.000446777               0.000000000               0.000000000               0.000000000               0.000000000               0.000378757               0.001488088              -0.000012752              -0.000043977               0.000510683               0.000466706               0.000000000               0.000000000               0.000000000               0.000000000               0.000385687               0.001558186              -0.000007816              -0.000050140               0.000536104               0.000485963               0.000000000               0.000000000               0.000000000               0.000000000               0.000384852               0.001588633              -0.000004053              -0.000054259               0.000547626               0.000493366               0.000000000               0.000000000               0.000000000               0.000000000               0.000086272               0.000090647              -0.000040045               0.000021021               0.000023209               0.000044229               0.000000000               0.000000000               0.000000000               0.000000000               0.000141384               0.000188939              -0.000056321               0.000029401               0.000053179               0.000082580               0.000000000               0.000000000               0.000000000               0.000000000               0.000190168               0.000349285              -0.000066153               0.000027652               0.000107210               0.000134862               0.000000000               0.000000000               0.000000000               0.000000000               0.000217902               0.000499087              -0.000060757               0.000019327               0.000159918               0.000179246               0.000000000               0.000000000               0.000000000               0.000000000               0.000237686               0.000637905              -0.000050941               0.000009394               0.000209501               0.000218895               0.000000000               0.000000000               0.000000000               0.000000000               0.000257096               0.000762901              -0.000039022               0.000001048               0.000253948               0.000254997               0.000000000               0.000000000               0.000000000               0.000000000               0.000281379               0.000877038              -0.000026505              -0.000004113               0.000293714               0.000289601               0.000000000               0.000000000               0.000000000               0.000000000               0.000309837               0.000979448              -0.000014669              -0.000006242               0.000328560               0.000322318               0.000000000               0.000000000               0.000000000               0.000000000               0.000337593               0.001071512              -0.000007883              -0.000007342               0.000359614               0.000352273               0.000000000               0.000000000               0.000000000               0.000000000               0.000360387               0.001153598              -0.000006429              -0.000009054               0.000387547               0.000378492               0.000000000               0.000000000               0.000000000               0.000000000               0.000377870               0.001225175              -0.000006696              -0.000011445               0.000412203               0.000400757               0.000000000               0.000000000               0.000000000               0.000000000               0.000390501               0.001287650              -0.000008248              -0.000014518               0.000434052               0.000419533               0.000000000               0.000000000               0.000000000               0.000000000               0.000402063               0.001350282              -0.000009727              -0.000018012               0.000456093               0.000438082               0.000000000               0.000000000               0.000000000               0.000000000               0.000414405               0.001415521              -0.000008921              -0.000021538               0.000479015               0.000457477               0.000000000               0.000000000               0.000000000               0.000000000               0.000429837               0.001487762              -0.000006623              -0.000024782               0.000504176               0.000479395               0.000000000               0.000000000               0.000000000               0.000000000               0.000447188               0.001562770              -0.000003679              -0.000027651               0.000530135               0.000502484               0.000000000               0.000000000               0.000000000               0.000000000               0.000453920               0.001596341              -0.000001592              -0.000029322               0.000541883               0.000512560               0.000000000               0.000000000               0.000000000               0.000000000               0.000071818               0.000074531              -0.000018871               0.000017615               0.000018972               0.000036587               0.000000000               0.000000000               0.000000000               0.000000000               0.000141220               0.000168470              -0.000028891               0.000031898               0.000045523               0.000077422               0.000000000               0.000000000               0.000000000               0.000000000               0.000200566               0.000322979              -0.000035552               0.000034840               0.000096045               0.000130885               0.000000000               0.000000000               0.000000000               0.000000000               0.000232174               0.000472749              -0.000033356               0.000027971               0.000148258               0.000176229               0.000000000               0.000000000               0.000000000               0.000000000               0.000253479               0.000613386              -0.000028765               0.000018381               0.000198333               0.000216714               0.000000000               0.000000000               0.000000000               0.000000000               0.000271686               0.000744219              -0.000022630               0.000008855               0.000245119               0.000253974               0.000000000               0.000000000               0.000000000               0.000000000               0.000291720               0.000865773              -0.000015538               0.000001173               0.000288197               0.000289371               0.000000000               0.000000000               0.000000000               0.000000000               0.000315356               0.000972992              -0.000008484              -0.000003365               0.000325449               0.000322084               0.000000000               0.000000000               0.000000000               0.000000000               0.000343170               0.001070384              -0.000003899              -0.000005109               0.000358494               0.000353385               0.000000000               0.000000000               0.000000000               0.000000000               0.000369852               0.001156603              -0.000002566              -0.000005881               0.000387491               0.000381610               0.000000000               0.000000000               0.000000000               0.000000000               0.000392775               0.001230786              -0.000002109              -0.000006558               0.000412444               0.000405886               0.000000000               0.000000000               0.000000000               0.000000000               0.000411917               0.001295112              -0.000002340              -0.000007420               0.000434173               0.000426753               0.000000000               0.000000000               0.000000000               0.000000000               0.000428057               0.001354118              -0.000003057              -0.000008743               0.000454283               0.000445539               0.000000000               0.000000000               0.000000000               0.000000000               0.000443932               0.001414648              -0.000002767              -0.000010356               0.000474997               0.000464640               0.000000000               0.000000000               0.000000000               0.000000000               0.000463405               0.001486082              -0.000001924              -0.000011983               0.000499350               0.000487367               0.000000000               0.000000000               0.000000000               0.000000000               0.000484645               0.001562128              -0.000000654              -0.000013524               0.000525212               0.000511688               0.000000000               0.000000000               0.000000000               0.000000000               0.000493931               0.001597046               0.000000315              -0.000014407               0.000537146               0.000522739               0.000000000               0.000000000               0.000000000               0.000000000               0.000000000               0.000000000               0.000000000               0.000000000               0.000000000               0.000000000               0.000000000               0.000000000               0.000000000               0.000000000               0.000000000               0.000000000               0.000000000               0.000000000               0.000000000               0.000000000               0.000000000               0.000000000               0.000000000               0.000000000               0.000000000               0.000000000               0.000000000               0.000000000               0.000000000               0.000000000               0.000000000               0.000000000               0.000000000               0.000000000               0.000000000               0.000000000               0.000000000               0.000000000               0.000000000               0.000000000               0.000000000               0.000000000               0.000000000               0.000000000               0.000000000               0.000000000               0.000000000               0.000000000               0.000000000               0.000000000               0.000000000               0.000000000               0.000000000               0.000000000               0.000000000               0.000000000               0.000000000               0.000000000               0.000000000               0.000000000               0.000000000               0.000000000               0.000000000               0.000000000               0.000000000               0.000000000               0.000000000               0.000000000               0.000000000               0.000000000               0.000000000               0.000000000               0.000000000               0.000000000               0.000000000               0.000000000               0.000000000               0.000000000               0.000000000               0.000000000               0.000000000               0.000000000               0.000000000               0.000000000               0.000000000               0.000000000               0.000000000               0.000000000               0.000000000               0.000000000               0.000000000               0.000000000               0.000000000               0.000000000               0.000000000               0.000000000               0.000000000               0.000000000               0.000000000               0.000000000               0.000000000               0.000000000               0.000000000               0.000000000               0.000000000               0.000000000               0.000000000               0.000000000               0.000000000               0.000000000               0.000000000               0.000000000               0.000000000               0.000000000               0.000000000               0.000000000               0.000000000               0.000000000               0.000000000               0.000000000               0.000000000               0.000000000               0.000000000               0.000000000               0.000000000               0.000000000               0.000000000               0.000000000               0.000000000               0.000000000               0.000000000               0.000000000               0.000000000               0.000000000               0.000000000               0.000000000               0.000000000               0.000000000               0.000000000               0.000000000               0.000000000               0.000000000               0.000000000               0.000000000               0.000000000               0.000000000               0.000000000               0.000000000               0.000000000               0.000000000               0.000000000               0.000000000               0.000000000               0.000000000               0.000000000               0.000000000               0.000000000               0.000000000               0.000000000               0.000000000               0.000000000               0.000000000               0.000000000               0.000000000               0.000000000               0.000000000               0.000000000               0.000000000               0.000000000               0.000000000               0.000000000               0.000000000               0.000000000               0.000000000               0.000000000               0.000000000               0.000000000               0.000000000               0.000000000               0.000000000               0.000000000               0.000000000               0.000000000               0.000000000               0.000000000               0.000000000               0.000000000               0.000000000               0.000000000               0.000000000               0.000000000               0.000000000               0.000000000               0.000000000               0.000000000               0.000000000               0.000000000               0.000000000               0.000000000               0.000000000               0.000000000               0.000000000               0.000000000               0.000000000               0.000000000               0.000000000               0.000000000               0.000000000               0.000000000               0.000000000               0.000000000               0.000000000               0.000000000               0.000000000               0.000000000               0.000000000               0.000000000               0.000000000               0.000000000               0.000000000               0.000000000               0.000000000               0.000000000               0.000000000               0.000000000               0.000000000               0.000000000               0.000000000               0.000000000               0.000000000               0.000000000               0.000000000               0.000000000               0.000000000               0.000000000               0.000000000               0.000000000               0.000000000               0.000000000               0.000000000               0.000000000               0.000000000               0.000000000               0.000000000               0.000000000               0.000000000               0.000000000               0.000000000               0.000000000               0.000000000               0.000000000               0.000000000               0.000000000               0.000000000               0.000000000               0.000000000               0.000000000               0.000000000               0.000000000               0.000000000               0.000000000               0.000000000               0.000000000               0.000000000               0.000000000               0.000000000               0.000000000               0.000000000               0.000000000               0.000000000               0.000000000               0.000000000               0.000000000               0.000000000               0.000000000               0.000000000               0.000000000               0.000000000               0.000000000               0.000000000               0.000000000               0.000000000               0.000000000               0.000000000               0.000000000               0.000000000               0.000000000               0.000000000               0.000000000               0.000000000               0.000000000               0.000000000               0.000000000               0.000000000               0.000000000               0.000000000               0.000000000               0.000000000               0.000000000               0.000000000               0.000000000               0.000000000               0.000000000               0.000000000               0.000000000               0.000000000               0.000000000               0.000000000               0.000000000               0.000000000               0.000000000               0.000000000               0.000000000               0.000000000               0.000000000               0.000000000               0.000000000               0.000000000               0.000000000               0.000000000               0.000000000               0.000000000               0.000000000               0.000000000               0.000000000               0.000000000               0.000000000               0.000000000               0.000000000               0.000000000               0.000000000               0.000000000               0.000000000               0.000000000               0.000000000               0.000000000               0.000000000               0.000000000               0.000000000               0.000000000               0.000000000               0.000000000               0.000000000               0.000000000               0.000062607               0.000490060               0.000039560              -0.000037780               0.000175945               0.000138165               0.000000000               0.000000000               0.000000000               0.000000000               0.000081173               0.000420611               0.000026811              -0.000022137               0.000147581               0.000125444               0.000000000               0.000000000               0.000000000               0.000000000               0.000116862               0.000374222               0.000009879              -0.000002955               0.000125724               0.000122770               0.000000000               0.000000000               0.000000000               0.000000000               0.000126550               0.000366005              -0.000000573               0.000001706               0.000121432               0.000123138               0.000000000               0.000000000               0.000000000               0.000000000               0.000124717               0.000372098              -0.000003341               0.000000257               0.000123946               0.000124203               0.000000000               0.000000000               0.000000000               0.000000000               0.000120530               0.000376990               0.000001282              -0.000001925               0.000126304               0.000124379               0.000000000               0.000000000               0.000000000               0.000000000               0.000115459               0.000370192               0.000004359              -0.000002977               0.000124389               0.000121412               0.000000000               0.000000000               0.000000000               0.000000000               0.000114884               0.000363473               0.000003917              -0.000002352               0.000121941               0.000119588               0.000000000               0.000000000               0.000000000               0.000000000               0.000117530               0.000356260               0.000005735              -0.000000459               0.000118905               0.000118446               0.000000000               0.000000000               0.000000000               0.000000000               0.000118520               0.000346547               0.000007390               0.000001127               0.000115139               0.000116266               0.000000000               0.000000000               0.000000000               0.000000000               0.000118114               0.000338830               0.000008137               0.000001939               0.000112296               0.000114235               0.000000000               0.000000000               0.000000000               0.000000000               0.000114872               0.000334974               0.000008207               0.000001205               0.000111255               0.000112461               0.000000000               0.000000000               0.000000000               0.000000000               0.000104703               0.000336185               0.000006626              -0.000002759               0.000112980               0.000110221               0.000000000               0.000000000               0.000000000               0.000000000               0.000087534               0.000343796               0.000004311              -0.000010149               0.000117980               0.000107831               0.000000000               0.000000000               0.000000000               0.000000000               0.000064045               0.000358255               0.000001960              -0.000020765               0.000126339               0.000105574               0.000000000               0.000000000               0.000000000               0.000000000               0.000033777               0.000379064               0.000000217              -0.000034717               0.000137925               0.000103209               0.000000000               0.000000000               0.000000000               0.000000000               0.000020510               0.000399094               0.000001084              -0.000042195               0.000147095               0.000104900               0.000000000               0.000000000               0.000000000               0.000000000               0.000074902               0.000475670               0.000076258              -0.000031371               0.000169012               0.000137641               0.000000000               0.000000000               0.000000000               0.000000000               0.000087266               0.000409570               0.000049506              -0.000018471               0.000142679               0.000124208               0.000000000               0.000000000               0.000000000               0.000000000               0.000117237               0.000373056               0.000016092              -0.000002668               0.000125240               0.000122572               0.000000000               0.000000000               0.000000000               0.000000000               0.000122333               0.000370081              -0.000001979              -0.000000385               0.000123488               0.000123102               0.000000000               0.000000000               0.000000000               0.000000000               0.000119498               0.000376496              -0.000006315              -0.000002250               0.000126247               0.000123997               0.000000000               0.000000000               0.000000000               0.000000000               0.000121363               0.000380848               0.000002176              -0.000002095               0.000127646               0.000125551               0.000000000               0.000000000               0.000000000               0.000000000               0.000124865               0.000378447               0.000008054              -0.000000482               0.000126308               0.000125827               0.000000000               0.000000000               0.000000000               0.000000000               0.000128758               0.000378714               0.000007706               0.000000945               0.000125922               0.000126867               0.000000000               0.000000000               0.000000000               0.000000000               0.000129428               0.000379631               0.000011986               0.000001082               0.000126182               0.000127263               0.000000000               0.000000000               0.000000000               0.000000000               0.000123841               0.000382846               0.000016123              -0.000001415               0.000128086               0.000126671               0.000000000               0.000000000               0.000000000               0.000000000               0.000115295               0.000390443               0.000018457              -0.000005570               0.000132003               0.000126433               0.000000000               0.000000000               0.000000000               0.000000000               0.000105543               0.000403441               0.000019707              -0.000010851               0.000138096               0.000127245               0.000000000               0.000000000               0.000000000               0.000000000               0.000091213               0.000420408               0.000018509              -0.000018346               0.000146250               0.000127904               0.000000000               0.000000000               0.000000000               0.000000000               0.000072543               0.000440967               0.000015645              -0.000027917               0.000156293               0.000128376               0.000000000               0.000000000               0.000000000               0.000000000               0.000051550               0.000466221               0.000011527              -0.000038946               0.000168387               0.000129441               0.000000000               0.000000000               0.000000000               0.000000000               0.000027129               0.000496590               0.000006147              -0.000051900               0.000182828               0.000130928               0.000000000               0.000000000               0.000000000               0.000000000               0.000018648               0.000522821               0.000005832              -0.000058359               0.000193725               0.000135366               0.000000000               0.000000000               0.000000000               0.000000000               0.000093940               0.000459206               0.000104488              -0.000022173               0.000160458               0.000138285               0.000000000               0.000000000               0.000000000               0.000000000               0.000093953               0.000396692               0.000065125              -0.000014354               0.000137014               0.000122660               0.000000000               0.000000000               0.000000000               0.000000000               0.000112462               0.000376122               0.000020165              -0.000004842               0.000126987               0.000122145               0.000000000               0.000000000               0.000000000               0.000000000               0.000114887               0.000381615              -0.000003332              -0.000004619               0.000128744               0.000124124               0.000000000               0.000000000               0.000000000               0.000000000               0.000117837               0.000395401              -0.000007769              -0.000005236               0.000133544               0.000128308               0.000000000               0.000000000               0.000000000               0.000000000               0.000128086               0.000402328               0.000004241              -0.000002259               0.000134861               0.000132602               0.000000000               0.000000000               0.000000000               0.000000000               0.000139620               0.000410741               0.000013690               0.000001015               0.000136574               0.000137589               0.000000000               0.000000000               0.000000000               0.000000000               0.000143597               0.000421110               0.000016434               0.000001210               0.000139965               0.000141175               0.000000000               0.000000000               0.000000000               0.000000000               0.000142929               0.000436069               0.000023109              -0.000000910               0.000145658               0.000144748               0.000000000               0.000000000               0.000000000               0.000000000               0.000134776               0.000457413               0.000028687              -0.000006636               0.000154681               0.000148046               0.000000000               0.000000000               0.000000000               0.000000000               0.000120531               0.000484771               0.000032025              -0.000015397               0.000166721               0.000151324               0.000000000               0.000000000               0.000000000               0.000000000               0.000105512               0.000518355               0.000033353              -0.000025227               0.000181192               0.000155965               0.000000000               0.000000000               0.000000000               0.000000000               0.000086688               0.000554531               0.000031999              -0.000036808               0.000197111               0.000160303               0.000000000               0.000000000               0.000000000               0.000000000               0.000064325               0.000591537               0.000028173              -0.000049820               0.000213784               0.000163964               0.000000000               0.000000000               0.000000000               0.000000000               0.000042903               0.000629674               0.000021677              -0.000062621               0.000230763               0.000168142               0.000000000               0.000000000               0.000000000               0.000000000               0.000021796               0.000668304               0.000012158              -0.000075364               0.000247887               0.000172523               0.000000000               0.000000000               0.000000000               0.000000000               0.000016234               0.000696747               0.000009726              -0.000081005               0.000259248               0.000178243               0.000000000               0.000000000               0.000000000               0.000000000               0.000111484               0.000431782               0.000128885              -0.000012166               0.000147981               0.000135815               0.000000000               0.000000000               0.000000000               0.000000000               0.000098850               0.000382057               0.000077138              -0.000010688               0.000130914               0.000120225               0.000000000               0.000000000               0.000000000               0.000000000               0.000106492               0.000385652               0.000022583              -0.000008272               0.000131307               0.000123035               0.000000000               0.000000000               0.000000000               0.000000000               0.000109653               0.000408605              -0.000002307              -0.000009956               0.000139519               0.000129563               0.000000000               0.000000000               0.000000000               0.000000000               0.000118667               0.000432223              -0.000004138              -0.000009528               0.000147249               0.000137721               0.000000000               0.000000000               0.000000000               0.000000000               0.000137248               0.000452460               0.000010026              -0.000005090               0.000152515               0.000147425               0.000000000               0.000000000               0.000000000               0.000000000               0.000155733               0.000478922               0.000021511              -0.000001465               0.000160127               0.000158662               0.000000000               0.000000000               0.000000000               0.000000000               0.000162007               0.000506809               0.000026238              -0.000002599               0.000169801               0.000167202               0.000000000               0.000000000               0.000000000               0.000000000               0.000160199               0.000540893               0.000033165              -0.000007537               0.000182808               0.000175271               0.000000000               0.000000000               0.000000000               0.000000000               0.000147879               0.000578907               0.000039109              -0.000016909               0.000198603               0.000181695               0.000000000               0.000000000               0.000000000               0.000000000               0.000131013               0.000622245               0.000041620              -0.000028651               0.000216963               0.000188313               0.000000000               0.000000000               0.000000000               0.000000000               0.000114184               0.000670044               0.000041645              -0.000040937               0.000236991               0.000196055               0.000000000               0.000000000               0.000000000               0.000000000               0.000092826               0.000718204               0.000038821              -0.000054966               0.000257721               0.000202755               0.000000000               0.000000000               0.000000000               0.000000000               0.000068017               0.000764878               0.000033315              -0.000070103               0.000278324               0.000208221               0.000000000               0.000000000               0.000000000               0.000000000               0.000044524               0.000809487               0.000024988              -0.000084489               0.000297989               0.000213500               0.000000000               0.000000000               0.000000000               0.000000000               0.000022097               0.000850543               0.000013578              -0.000098031               0.000316189               0.000218157               0.000000000               0.000000000               0.000000000               0.000000000               0.000016050               0.000878071               0.000010183              -0.000103740               0.000327267               0.000223527               0.000000000               0.000000000               0.000000000               0.000000000               0.000125901               0.000399817               0.000143859              -0.000002764               0.000134192               0.000131428               0.000000000               0.000000000               0.000000000               0.000000000               0.000102889               0.000374828               0.000085414              -0.000008270               0.000127698               0.000119428               0.000000000               0.000000000               0.000000000               0.000000000               0.000102024               0.000408005               0.000027265              -0.000012741               0.000140247               0.000127506               0.000000000               0.000000000               0.000000000               0.000000000               0.000108167               0.000454104               0.000004300              -0.000016200               0.000156767               0.000140566               0.000000000               0.000000000               0.000000000               0.000000000               0.000128789               0.000496986               0.000002049              -0.000013827               0.000170269               0.000156442               0.000000000               0.000000000               0.000000000               0.000000000               0.000158879               0.000537756               0.000016025              -0.000007640               0.000181797               0.000174157               0.000000000               0.000000000               0.000000000               0.000000000               0.000177870               0.000577306               0.000028426              -0.000005462               0.000194254               0.000188792               0.000000000               0.000000000               0.000000000               0.000000000               0.000181157               0.000622544               0.000034568              -0.000009884               0.000210807               0.000200923               0.000000000               0.000000000               0.000000000               0.000000000               0.000174287               0.000671020               0.000041944              -0.000018520               0.000229845               0.000211325               0.000000000               0.000000000               0.000000000               0.000000000               0.000157894               0.000721520               0.000047888              -0.000030980               0.000250831               0.000219851               0.000000000               0.000000000               0.000000000               0.000000000               0.000139086               0.000774264               0.000048460              -0.000044626               0.000272961               0.000228335               0.000000000               0.000000000               0.000000000               0.000000000               0.000120216               0.000828328               0.000045860              -0.000058460               0.000295593               0.000237133               0.000000000               0.000000000               0.000000000               0.000000000               0.000097058               0.000879744               0.000040685              -0.000073571               0.000317769               0.000244198               0.000000000               0.000000000               0.000000000               0.000000000               0.000071366               0.000927330               0.000033246              -0.000089154               0.000338825               0.000249671               0.000000000               0.000000000               0.000000000               0.000000000               0.000047291               0.000971848               0.000023658              -0.000103747               0.000358528               0.000254782               0.000000000               0.000000000               0.000000000               0.000000000               0.000023682               0.001011633               0.000012257              -0.000117573               0.000376399               0.000258826               0.000000000               0.000000000               0.000000000               0.000000000               0.000016704               0.001038146               0.000009279              -0.000123504               0.000387213               0.000263709               0.000000000               0.000000000               0.000000000               0.000000000               0.000137453               0.000369450               0.000150110               0.000005363               0.000121361               0.000126724               0.000000000               0.000000000               0.000000000               0.000000000               0.000106254               0.000376054               0.000093846              -0.000007162               0.000127737               0.000120576               0.000000000               0.000000000               0.000000000               0.000000000               0.000101593               0.000446551               0.000036247              -0.000017722               0.000154756               0.000137035               0.000000000               0.000000000               0.000000000               0.000000000               0.000117866               0.000516900               0.000012364              -0.000020413               0.000179102               0.000158690               0.000000000               0.000000000               0.000000000               0.000000000               0.000150373               0.000577926               0.000010523              -0.000015851               0.000197924               0.000182073               0.000000000               0.000000000               0.000000000               0.000000000               0.000185592               0.000628246               0.000026135              -0.000008934               0.000212391               0.000203457               0.000000000               0.000000000               0.000000000               0.000000000               0.000203781               0.000678582               0.000038225              -0.000008405               0.000228994               0.000220588               0.000000000               0.000000000               0.000000000               0.000000000               0.000201070               0.000736034               0.000043030              -0.000016603               0.000250876               0.000234274               0.000000000               0.000000000               0.000000000               0.000000000               0.000186096               0.000792482               0.000049196              -0.000029274               0.000273916               0.000244642               0.000000000               0.000000000               0.000000000               0.000000000               0.000164380               0.000850046               0.000052508              -0.000044613               0.000298217               0.000253604               0.000000000               0.000000000               0.000000000               0.000000000               0.000143530               0.000910276               0.000050262              -0.000059960               0.000323409               0.000263449               0.000000000               0.000000000               0.000000000               0.000000000               0.000121823               0.000968929               0.000044856              -0.000075432               0.000348117               0.000272685               0.000000000               0.000000000               0.000000000               0.000000000               0.000095510               0.001023549               0.000038204              -0.000092127               0.000371888               0.000279762               0.000000000               0.000000000               0.000000000               0.000000000               0.000069484               0.001075094               0.000029633              -0.000108330               0.000394471               0.000286141               0.000000000               0.000000000               0.000000000               0.000000000               0.000045828               0.001123597               0.000019985              -0.000123264               0.000415616               0.000292353               0.000000000               0.000000000               0.000000000               0.000000000               0.000022150               0.001167516               0.000010264              -0.000137633               0.000435046               0.000297413               0.000000000               0.000000000               0.000000000               0.000000000               0.000015426               0.001196776               0.000008577              -0.000143812               0.000446859               0.000303047               0.000000000               0.000000000               0.000000000               0.000000000               0.000150149               0.000343876               0.000151975               0.000013321               0.000110184               0.000123505               0.000000000               0.000000000               0.000000000               0.000000000               0.000114106               0.000382805               0.000100481              -0.000005061               0.000129287               0.000124226               0.000000000               0.000000000               0.000000000               0.000000000               0.000108632               0.000491876               0.000047029              -0.000020747               0.000170873               0.000150125               0.000000000               0.000000000               0.000000000               0.000000000               0.000133112               0.000582494               0.000024760              -0.000022895               0.000201794               0.000178900               0.000000000               0.000000000               0.000000000               0.000000000               0.000174352               0.000652053               0.000022607              -0.000016125               0.000222724               0.000206599               0.000000000               0.000000000               0.000000000               0.000000000               0.000210634               0.000706985               0.000033425              -0.000009385               0.000238788               0.000229403               0.000000000               0.000000000               0.000000000               0.000000000               0.000224513               0.000769689               0.000041738              -0.000012019               0.000260567               0.000248548               0.000000000               0.000000000               0.000000000               0.000000000               0.000213428               0.000834610               0.000045168              -0.000024291               0.000286297               0.000262007               0.000000000               0.000000000               0.000000000               0.000000000               0.000192154               0.000898657               0.000050744              -0.000040274               0.000312974               0.000272700               0.000000000               0.000000000               0.000000000               0.000000000               0.000168679               0.000964791               0.000050243              -0.000057344               0.000340708               0.000283364               0.000000000               0.000000000               0.000000000               0.000000000               0.000146204               0.001034359               0.000044948              -0.000074468               0.000369606               0.000295137               0.000000000               0.000000000               0.000000000               0.000000000               0.000121360               0.001101734               0.000038927              -0.000092207               0.000397977               0.000305770               0.000000000               0.000000000               0.000000000               0.000000000               0.000095234               0.001166314               0.000031119              -0.000110076               0.000425459               0.000315383               0.000000000               0.000000000               0.000000000               0.000000000               0.000070403               0.001229444               0.000022678              -0.000127279               0.000452237               0.000324958               0.000000000               0.000000000               0.000000000               0.000000000               0.000046193               0.001288614               0.000014604              -0.000143754               0.000477452               0.000333698               0.000000000               0.000000000               0.000000000               0.000000000               0.000022543               0.001342184               0.000007156              -0.000159319               0.000500496               0.000341178               0.000000000               0.000000000               0.000000000               0.000000000               0.000014850               0.001376782               0.000006966              -0.000166528               0.000514432               0.000347904               0.000000000               0.000000000               0.000000000               0.000000000               0.000159386               0.000322493               0.000148739               0.000019458               0.000101011               0.000120468               0.000000000               0.000000000               0.000000000               0.000000000               0.000121525               0.000387868               0.000106367              -0.000002912               0.000130259               0.000127347               0.000000000               0.000000000               0.000000000               0.000000000               0.000119007               0.000527438               0.000060090              -0.000021302               0.000182912               0.000161610               0.000000000               0.000000000               0.000000000               0.000000000               0.000146762               0.000632536               0.000036851              -0.000024031               0.000218854               0.000194823               0.000000000               0.000000000               0.000000000               0.000000000               0.000187533               0.000704697               0.000029115              -0.000017762               0.000240817               0.000223055               0.000000000               0.000000000               0.000000000               0.000000000               0.000222610               0.000763713               0.000030655              -0.000011985               0.000258564               0.000246578               0.000000000               0.000000000               0.000000000               0.000000000               0.000231294               0.000833850               0.000035697              -0.000017496               0.000283779               0.000266283               0.000000000               0.000000000               0.000000000               0.000000000               0.000216671               0.000906447               0.000041248              -0.000032054               0.000312831               0.000280776               0.000000000               0.000000000               0.000000000               0.000000000               0.000198566               0.000979492               0.000046240              -0.000047974               0.000342485               0.000294511               0.000000000               0.000000000               0.000000000               0.000000000               0.000180160               0.001057206               0.000044649              -0.000064591               0.000373929               0.000309338               0.000000000               0.000000000               0.000000000               0.000000000               0.000160106               0.001136411               0.000038934              -0.000082011               0.000406137               0.000324126               0.000000000               0.000000000               0.000000000               0.000000000               0.000137580               0.001212900               0.000033024              -0.000100020               0.000437636               0.000337616               0.000000000               0.000000000               0.000000000               0.000000000               0.000113912               0.001286988               0.000024580              -0.000118156               0.000468377               0.000350221               0.000000000               0.000000000               0.000000000               0.000000000               0.000090650               0.001359091               0.000015794              -0.000135892               0.000498323               0.000362431               0.000000000               0.000000000               0.000000000               0.000000000               0.000067739               0.001427172               0.000008210              -0.000152994               0.000526717               0.000373723               0.000000000               0.000000000               0.000000000               0.000000000               0.000048037               0.001491018               0.000002103              -0.000168363               0.000553122               0.000384759               0.000000000               0.000000000               0.000000000               0.000000000               0.000037359               0.001524646               0.000000098              -0.000176570               0.000567067               0.000390497               0.000000000               0.000000000               0.000000000               0.000000000               0.000164674               0.000285156               0.000142695               0.000026108               0.000086348               0.000112456               0.000000000               0.000000000               0.000000000               0.000000000               0.000131790               0.000369874               0.000114550               0.000003187               0.000122228               0.000125415               0.000000000               0.000000000               0.000000000               0.000000000               0.000126170               0.000529962               0.000077585              -0.000018931               0.000182963               0.000164031               0.000000000               0.000000000               0.000000000               0.000000000               0.000148472               0.000645704               0.000051086              -0.000025036               0.000223578               0.000198542               0.000000000               0.000000000               0.000000000               0.000000000               0.000183098               0.000725297               0.000036008              -0.000022000               0.000249097               0.000227097               0.000000000               0.000000000               0.000000000               0.000000000               0.000222068               0.000792258               0.000028710              -0.000015757               0.000269336               0.000253579               0.000000000               0.000000000               0.000000000               0.000000000               0.000243539               0.000865225               0.000029629              -0.000016826               0.000294014               0.000277188               0.000000000               0.000000000               0.000000000               0.000000000               0.000239943               0.000941000               0.000037514              -0.000027646               0.000322879               0.000295233               0.000000000               0.000000000               0.000000000               0.000000000               0.000227307               0.001016281               0.000043973              -0.000041795               0.000352688               0.000310894               0.000000000               0.000000000               0.000000000               0.000000000               0.000212904               0.001091886               0.000045063              -0.000056646               0.000382841               0.000326194               0.000000000               0.000000000               0.000000000               0.000000000               0.000197754               0.001170890               0.000042703              -0.000072203               0.000414361               0.000342157               0.000000000               0.000000000               0.000000000               0.000000000               0.000180643               0.001250052               0.000036702              -0.000088515               0.000446185               0.000357670               0.000000000               0.000000000               0.000000000               0.000000000               0.000160290               0.001325510               0.000028784              -0.000105580               0.000477026               0.000371446               0.000000000               0.000000000               0.000000000               0.000000000               0.000138997               0.001399769               0.000019814              -0.000122847               0.000507534               0.000384687               0.000000000               0.000000000               0.000000000               0.000000000               0.000118380               0.001475027               0.000010261              -0.000139986               0.000538333               0.000398347               0.000000000               0.000000000               0.000000000               0.000000000               0.000099896               0.001548857               0.000003107              -0.000156146               0.000568329               0.000412183               0.000000000               0.000000000               0.000000000               0.000000000               0.000084200               0.001579383              -0.000002099              -0.000165847               0.000581738               0.000415891               0.000000000               0.000000000               0.000000000               0.000000000               0.000163245               0.000240967               0.000131691               0.000031096               0.000069956               0.000101052               0.000000000               0.000000000               0.000000000               0.000000000               0.000141806               0.000342741               0.000117538               0.000010334               0.000110801               0.000121136               0.000000000               0.000000000               0.000000000               0.000000000               0.000133554               0.000510707               0.000090430              -0.000013756               0.000174819               0.000161063               0.000000000               0.000000000               0.000000000               0.000000000               0.000149505               0.000630454               0.000064230              -0.000022742               0.000217730               0.000194988               0.000000000               0.000000000               0.000000000               0.000000000               0.000178238               0.000722319               0.000044581              -0.000023451               0.000248588               0.000225137               0.000000000               0.000000000               0.000000000               0.000000000               0.000219574               0.000803823               0.000030846              -0.000018138               0.000273984               0.000255847               0.000000000               0.000000000               0.000000000               0.000000000               0.000255254               0.000883095               0.000026309              -0.000014667               0.000299251               0.000284584               0.000000000               0.000000000               0.000000000               0.000000000               0.000267706               0.000960573               0.000031459              -0.000019682               0.000326748               0.000307067               0.000000000               0.000000000               0.000000000               0.000000000               0.000262652               0.001035684               0.000038410              -0.000030966               0.000355546               0.000324580               0.000000000               0.000000000               0.000000000               0.000000000               0.000253045               0.001106188               0.000042065              -0.000043382               0.000383186               0.000339805               0.000000000               0.000000000               0.000000000               0.000000000               0.000241306               0.001178813               0.000042511              -0.000056862               0.000411888               0.000355026               0.000000000               0.000000000               0.000000000               0.000000000               0.000229252               0.001255891               0.000038297              -0.000071017               0.000442298               0.000371282               0.000000000               0.000000000               0.000000000               0.000000000               0.000215881               0.001331654               0.000031558              -0.000085501               0.000472381               0.000386879               0.000000000               0.000000000               0.000000000               0.000000000               0.000199286               0.001403500               0.000023781              -0.000100705               0.000501397               0.000400692               0.000000000               0.000000000               0.000000000               0.000000000               0.000182519               0.001476475               0.000014712              -0.000116114               0.000530858               0.000414744               0.000000000               0.000000000               0.000000000               0.000000000               0.000166299               0.001552374               0.000005861              -0.000131684               0.000561347               0.000429663               0.000000000               0.000000000               0.000000000               0.000000000               0.000149152               0.001584248              -0.000001384              -0.000142099               0.000575444               0.000433345               0.000000000               0.000000000               0.000000000               0.000000000               0.000151301               0.000198765               0.000112242               0.000031892               0.000055624               0.000087516               0.000000000               0.000000000               0.000000000               0.000000000               0.000145525               0.000305326               0.000112062               0.000016406               0.000096306               0.000112711               0.000000000               0.000000000               0.000000000               0.000000000               0.000145554               0.000471364               0.000097653              -0.000004338               0.000158566               0.000154228               0.000000000               0.000000000               0.000000000               0.000000000               0.000159805               0.000601158               0.000075066              -0.000015218               0.000205457               0.000190239               0.000000000               0.000000000               0.000000000               0.000000000               0.000184256               0.000713200               0.000055323              -0.000020054               0.000244416               0.000224362               0.000000000               0.000000000               0.000000000               0.000000000               0.000221748               0.000812308               0.000038681              -0.000018383               0.000276894               0.000258511               0.000000000               0.000000000               0.000000000               0.000000000               0.000260776               0.000898422               0.000027252              -0.000014512               0.000304308               0.000289797               0.000000000               0.000000000               0.000000000               0.000000000               0.000284708               0.000977392               0.000024631              -0.000015408               0.000330930               0.000315522               0.000000000               0.000000000               0.000000000               0.000000000               0.000289663               0.001051564               0.000028507              -0.000022822               0.000358125               0.000335303               0.000000000               0.000000000               0.000000000               0.000000000               0.000286472               0.001119835               0.000033464              -0.000032552               0.000384125               0.000351573               0.000000000               0.000000000               0.000000000               0.000000000               0.000280293               0.001186899               0.000036013              -0.000043252               0.000410046               0.000366794               0.000000000               0.000000000               0.000000000               0.000000000               0.000273785               0.001258788               0.000035503              -0.000054679               0.000437818               0.000383139               0.000000000               0.000000000               0.000000000               0.000000000               0.000268040               0.001334214               0.000031419              -0.000066262               0.000466821               0.000400559               0.000000000               0.000000000               0.000000000               0.000000000               0.000260394               0.001408460               0.000025742              -0.000078409               0.000495619               0.000417209               0.000000000               0.000000000               0.000000000               0.000000000               0.000249578               0.001479576               0.000019116              -0.000091355               0.000523639               0.000432284               0.000000000               0.000000000               0.000000000               0.000000000               0.000237450               0.001553374               0.000010103              -0.000105128               0.000552829               0.000447701               0.000000000               0.000000000               0.000000000               0.000000000               0.000222396               0.001585935               0.000001556              -0.000114843               0.000566921               0.000452078               0.000000000               0.000000000               0.000000000               0.000000000               0.000132089               0.000154671               0.000087733               0.000030199               0.000041490               0.000071689               0.000000000               0.000000000               0.000000000               0.000000000               0.000146299               0.000259216               0.000098681               0.000022460               0.000078918               0.000101378               0.000000000               0.000000000               0.000000000               0.000000000               0.000159892               0.000426750               0.000097066               0.000006616               0.000140043               0.000146659               0.000000000               0.000000000               0.000000000               0.000000000               0.000176481               0.000570679               0.000080661              -0.000005154               0.000191943               0.000186788               0.000000000               0.000000000               0.000000000               0.000000000               0.000199019               0.000698811               0.000063136              -0.000012719               0.000237174               0.000224455               0.000000000               0.000000000               0.000000000               0.000000000               0.000228679               0.000807785               0.000045612              -0.000015219               0.000274332               0.000259113               0.000000000               0.000000000               0.000000000               0.000000000               0.000262659               0.000899342               0.000029239              -0.000013920               0.000304418               0.000290497               0.000000000               0.000000000               0.000000000               0.000000000               0.000292149               0.000982557               0.000019371              -0.000013264               0.000331937               0.000318673               0.000000000               0.000000000               0.000000000               0.000000000               0.000309871               0.001061428               0.000018568              -0.000016477               0.000359298               0.000342821               0.000000000               0.000000000               0.000000000               0.000000000               0.000317248               0.001133631               0.000022761              -0.000022736               0.000385452               0.000362716               0.000000000               0.000000000               0.000000000               0.000000000               0.000318872               0.001199206               0.000026593              -0.000030324               0.000409839               0.000379516               0.000000000               0.000000000               0.000000000               0.000000000               0.000318372               0.001265964               0.000028716              -0.000038856               0.000434936               0.000396080               0.000000000               0.000000000               0.000000000               0.000000000               0.000318546               0.001338235               0.000027588              -0.000047824               0.000462015               0.000414191               0.000000000               0.000000000               0.000000000               0.000000000               0.000319349               0.001414214               0.000023634              -0.000057021               0.000490407               0.000433386               0.000000000               0.000000000               0.000000000               0.000000000               0.000316734               0.001485210               0.000017942              -0.000066876               0.000517357               0.000450481               0.000000000               0.000000000               0.000000000               0.000000000               0.000311330               0.001553082               0.000010620              -0.000077386               0.000543484               0.000466098               0.000000000               0.000000000               0.000000000               0.000000000               0.000301928               0.001582799               0.000004026              -0.000084627               0.000555803               0.000471177               0.000000000               0.000000000               0.000000000               0.000000000               0.000108661               0.000116500               0.000063200               0.000026185               0.000030105               0.000056290               0.000000000               0.000000000               0.000000000               0.000000000               0.000143947               0.000219392               0.000079663               0.000026556               0.000064278               0.000090834               0.000000000               0.000000000               0.000000000               0.000000000               0.000174846               0.000386367               0.000086825               0.000017271               0.000123031               0.000140302               0.000000000               0.000000000               0.000000000               0.000000000               0.000197720               0.000535271               0.000077210               0.000007236               0.000176010               0.000183246               0.000000000               0.000000000               0.000000000               0.000000000               0.000218420               0.000670151               0.000062937              -0.000001861               0.000224002               0.000222141               0.000000000               0.000000000               0.000000000               0.000000000               0.000241117               0.000787211               0.000046070              -0.000007982               0.000265062               0.000257079               0.000000000               0.000000000               0.000000000               0.000000000               0.000269804               0.000889879               0.000029274              -0.000010058               0.000299976               0.000289918               0.000000000               0.000000000               0.000000000               0.000000000               0.000300963               0.000983141               0.000016650              -0.000010032               0.000331054               0.000321023               0.000000000               0.000000000               0.000000000               0.000000000               0.000326624               0.001068827               0.000012315              -0.000011119               0.000359978               0.000348859               0.000000000               0.000000000               0.000000000               0.000000000               0.000343578               0.001146617               0.000013500              -0.000014485               0.000387030               0.000372545               0.000000000               0.000000000               0.000000000               0.000000000               0.000352994               0.001214113               0.000015898              -0.000019391               0.000411164               0.000391773               0.000000000               0.000000000               0.000000000               0.000000000               0.000358071               0.001276199               0.000018388              -0.000025248               0.000433811               0.000408563               0.000000000               0.000000000               0.000000000               0.000000000               0.000363884               0.001343780               0.000019186              -0.000031516               0.000458427               0.000426911               0.000000000               0.000000000               0.000000000               0.000000000               0.000371255               0.001415874               0.000017075              -0.000037764               0.000484541               0.000446777               0.000000000               0.000000000               0.000000000               0.000000000               0.000378757               0.001488088               0.000012752              -0.000043977               0.000510683               0.000466706               0.000000000               0.000000000               0.000000000               0.000000000               0.000385687               0.001558186               0.000007816              -0.000050140               0.000536104               0.000485963               0.000000000               0.000000000               0.000000000               0.000000000               0.000384852               0.001588633               0.000004053              -0.000054259               0.000547626               0.000493366               0.000000000               0.000000000               0.000000000               0.000000000               0.000086272               0.000090647               0.000040045               0.000021021               0.000023209               0.000044229               0.000000000               0.000000000               0.000000000               0.000000000               0.000141384               0.000188939               0.000056321               0.000029401               0.000053179               0.000082580               0.000000000               0.000000000               0.000000000               0.000000000               0.000190168               0.000349285               0.000066153               0.000027652               0.000107210               0.000134862               0.000000000               0.000000000               0.000000000               0.000000000               0.000217902               0.000499087               0.000060757               0.000019327               0.000159918               0.000179246               0.000000000               0.000000000               0.000000000               0.000000000               0.000237686               0.000637905               0.000050941               0.000009394               0.000209501               0.000218895               0.000000000               0.000000000               0.000000000               0.000000000               0.000257096               0.000762901               0.000039022               0.000001048               0.000253948               0.000254997               0.000000000               0.000000000               0.000000000               0.000000000               0.000281379               0.000877038               0.000026505              -0.000004113               0.000293714               0.000289601               0.000000000               0.000000000               0.000000000               0.000000000               0.000309837               0.000979448               0.000014669              -0.000006242               0.000328560               0.000322318               0.000000000               0.000000000               0.000000000               0.000000000               0.000337593               0.001071512               0.000007883              -0.000007342               0.000359614               0.000352273               0.000000000               0.000000000               0.000000000               0.000000000               0.000360387               0.001153598               0.000006429              -0.000009054               0.000387547               0.000378492               0.000000000               0.000000000               0.000000000               0.000000000               0.000377870               0.001225175               0.000006696              -0.000011445               0.000412203               0.000400757               0.000000000               0.000000000               0.000000000               0.000000000               0.000390501               0.001287650               0.000008248              -0.000014518               0.000434052               0.000419533               0.000000000               0.000000000               0.000000000               0.000000000               0.000402063               0.001350282               0.000009727              -0.000018012               0.000456093               0.000438082               0.000000000               0.000000000               0.000000000               0.000000000               0.000414405               0.001415521               0.000008921              -0.000021538               0.000479015               0.000457477               0.000000000               0.000000000               0.000000000               0.000000000               0.000429837               0.001487762               0.000006623              -0.000024782               0.000504176               0.000479395               0.000000000               0.000000000               0.000000000               0.000000000               0.000447188               0.001562770               0.000003679              -0.000027651               0.000530135               0.000502484               0.000000000               0.000000000               0.000000000               0.000000000               0.000453920               0.001596341               0.000001592              -0.000029322               0.000541883               0.000512560               0.000000000               0.000000000               0.000000000               0.000000000               0.000071818               0.000074531               0.000018871               0.000017615               0.000018972               0.000036587               0.000000000               0.000000000               0.000000000               0.000000000               0.000141220               0.000168470               0.000028891               0.000031898               0.000045523               0.000077422               0.000000000               0.000000000               0.000000000               0.000000000               0.000200566               0.000322979               0.000035552               0.000034840               0.000096045               0.000130885               0.000000000               0.000000000               0.000000000               0.000000000               0.000232174               0.000472749               0.000033356               0.000027971               0.000148258               0.000176229               0.000000000               0.000000000               0.000000000               0.000000000               0.000253479               0.000613386               0.000028765               0.000018381               0.000198333               0.000216714               0.000000000               0.000000000               0.000000000               0.000000000               0.000271686               0.000744219               0.000022630               0.000008855               0.000245119               0.000253974               0.000000000               0.000000000               0.000000000               0.000000000               0.000291720               0.000865773               0.000015538               0.000001173               0.000288197               0.000289371               0.000000000               0.000000000               0.000000000               0.000000000               0.000315356               0.000972992               0.000008484              -0.000003365               0.000325449               0.000322084               0.000000000               0.000000000               0.000000000               0.000000000               0.000343170               0.001070384               0.000003899              -0.000005109               0.000358494               0.000353385               0.000000000               0.000000000               0.000000000               0.000000000               0.000369852               0.001156603               0.000002566              -0.000005881               0.000387491               0.000381610               0.000000000               0.000000000               0.000000000               0.000000000               0.000392775               0.001230786               0.000002109              -0.000006558               0.000412444               0.000405886               0.000000000               0.000000000               0.000000000               0.000000000               0.000411917               0.001295112               0.000002340              -0.000007420               0.000434173               0.000426753               0.000000000               0.000000000               0.000000000               0.000000000               0.000428057               0.001354118               0.000003057              -0.000008743               0.000454283               0.000445539               0.000000000               0.000000000               0.000000000               0.000000000               0.000443932               0.001414648               0.000002767              -0.000010356               0.000474997               0.000464640               0.000000000               0.000000000               0.000000000               0.000000000               0.000463405               0.001486082               0.000001924              -0.000011983               0.000499350               0.000487367               0.000000000               0.000000000               0.000000000               0.000000000               0.000484645               0.001562128               0.000000654              -0.000013524               0.000525212               0.000511688               0.000000000               0.000000000               0.000000000               0.000000000               0.000493931               0.001597046              -0.000000315              -0.000014407               0.000537146               0.000522739               0.000000000               0.000000000               0.000000000               0.000000000               0.000000000               0.000000000               0.000000000               0.000000000               0.000000000               0.000000000               0.000000000               0.000000000               0.000000000               0.000000000               0.000000000               0.000000000               0.000000000               0.000000000               0.000000000               0.000000000               0.000000000               0.000000000               0.000000000               0.000000000               0.000000000               0.000000000               0.000000000               0.000000000               0.000000000               0.000000000               0.000000000               0.000000000               0.000000000               0.000000000               0.000000000               0.000000000               0.000000000               0.000000000               0.000000000               0.000000000               0.000000000               0.000000000               0.000000000               0.000000000               0.000000000               0.000000000               0.000000000               0.000000000               0.000000000               0.000000000               0.000000000               0.000000000               0.000000000               0.000000000               0.000000000               0.000000000               0.000000000               0.000000000               0.000000000               0.000000000               0.000000000               0.000000000               0.000000000               0.000000000               0.000000000               0.000000000               0.000000000               0.000000000               0.000000000               0.000000000               0.000000000               0.000000000               0.000000000               0.000000000               0.000000000               0.000000000               0.000000000               0.000000000               0.000000000               0.000000000               0.000000000               0.000000000               0.000000000               0.000000000               0.000000000               0.000000000               0.000000000               0.000000000               0.000000000               0.000000000               0.000000000               0.000000000               0.000000000               0.000000000               0.000000000               0.000000000               0.000000000               0.000000000               0.000000000               0.000000000               0.000000000               0.000000000               0.000000000               0.000000000               0.000000000               0.000000000               0.000000000               0.000000000               0.000000000               0.000000000               0.000000000               0.000000000               0.000000000               0.000000000               0.000000000               0.000000000               0.000000000               0.000000000               0.000000000               0.000000000               0.000000000               0.000000000               0.000000000               0.000000000               0.000000000               0.000000000               0.000000000               0.000000000               0.000000000               0.000000000               0.000000000               0.000000000               0.000000000               0.000000000               0.000000000               0.000000000               0.000000000               0.000000000               0.000000000               0.000000000               0.000000000               0.000000000               0.000000000               0.000000000               0.000000000               0.000000000               0.000000000               0.000000000               0.000000000               0.000000000               0.000000000               0.000000000               0.000000000               0.000000000               0.000000000               0.000000000               0.000000000               0.000000000               0.000000000               0.000000000               0.000000000               0.000000000               0.000000000               0.000000000               0.000000000               0.000000000               0.000000000               0.000000000               0.000000000               0.000000000               0.000000000               0.000000000               0.000000000               0.000000000 </DataArray>
</PointData>
</Piece>
</UnstructuredGrid> </VTKFile>
