<?xml version="1.0"?>
<VTKFile type="UnstructuredGrid" version="0.1">
<UnstructuredGrid>
<Piece NumberOfPoints="      1156" NumberOfCells="      1024">
<Points>
<DataArray type="Float64"                                    Name="coordinates"                                                      NumberOfComponents=" 3" format="ascii">
              0.133000000               0.000000000               0.000000000               0.155937500               0.000000000               0.000000000               0.178875000               0.000000000               0.000000000               0.201812500               0.000000000               0.000000000               0.224750000               0.000000000               0.000000000               0.247687500               0.000000000               0.000000000               0.270625000               0.000000000               0.000000000               0.293562500               0.000000000               0.000000000               0.316500000               0.000000000               0.000000000               0.339437500               0.000000000               0.000000000               0.362375000               0.000000000               0.000000000               0.385312500               0.000000000               0.000000000               0.408250000               0.000000000               0.000000000               0.431187500               0.000000000               0.000000000               0.454125000               0.000000000               0.000000000               0.477062500               0.000000000               0.000000000               0.500000000               0.000000000               0.000000000               0.132359569               0.013036280               0.000000000               0.155337096               0.016127762               0.000000000               0.178314623               0.019219245               0.000000000               0.201292150               0.022310727               0.000000000               0.224269676               0.025402210               0.000000000               0.247247203               0.028493692               0.000000000               0.270224730               0.031585175               0.000000000               0.293202257               0.034676657               0.000000000               0.316179784               0.037768140               0.000000000               0.339157311               0.040859622               0.000000000               0.362134838               0.043951105               0.000000000               0.385112365               0.047042587               0.000000000               0.408089892               0.050134070               0.000000000               0.431067419               0.053225552               0.000000000               0.454044946               0.056317035               0.000000000               0.477022473               0.059408517               0.000000000               0.500000000               0.062500000               0.000000000               0.130444442               0.025947013               0.000000000               0.153541665               0.032137825               0.000000000               0.176638887               0.038328636               0.000000000               0.199736109               0.044519448               0.000000000               0.222833332               0.050710260               0.000000000               0.245930554               0.056901071               0.000000000               0.269027776               0.063091883               0.000000000               0.292124999               0.069282695               0.000000000               0.315222221               0.075473506               0.000000000               0.338319444               0.081664318               0.000000000               0.361416666               0.087855130               0.000000000               0.384513888               0.094045942               0.000000000               0.407611111               0.100236753               0.000000000               0.430708333               0.106427565               0.000000000               0.453805555               0.112618377               0.000000000               0.476902778               0.118809188               0.000000000               0.500000000               0.125000000               0.000000000               0.127273065               0.038607862               0.000000000               0.150568498               0.047913621               0.000000000               0.173863932               0.057219379               0.000000000               0.197159365               0.066525138               0.000000000               0.220454798               0.075830897               0.000000000               0.243750232               0.085136655               0.000000000               0.267045665               0.094442414               0.000000000               0.290341099               0.103748172               0.000000000               0.313636532               0.113053931               0.000000000               0.336931966               0.122359690               0.000000000               0.360227399               0.131665448               0.000000000               0.383522833               0.140971207               0.000000000               0.406818266               0.150276966               0.000000000               0.430113700               0.159582724               0.000000000               0.453409133               0.168888483               0.000000000               0.476704567               0.178194241               0.000000000               0.500000000               0.187500000               0.000000000               0.122875978               0.050896897               0.000000000               0.146446229               0.063340840               0.000000000               0.170016481               0.075784784               0.000000000               0.193586732               0.088228728               0.000000000               0.217156983               0.100672672               0.000000000               0.240727235               0.113116616               0.000000000               0.264297486               0.125560560               0.000000000               0.287867738               0.138004504               0.000000000               0.311437989               0.150448448               0.000000000               0.335008240               0.162892392               0.000000000               0.358578492               0.175336336               0.000000000               0.382148743               0.187780280               0.000000000               0.405718994               0.200224224               0.000000000               0.429289246               0.212668168               0.000000000               0.452859497               0.225112112               0.000000000               0.476429749               0.237556056               0.000000000               0.500000000               0.250000000               0.000000000               0.117295528               0.062695766               0.000000000               0.141214558               0.078308531               0.000000000               0.165133587               0.093921295               0.000000000               0.189052617               0.109534060               0.000000000               0.212971646               0.125146824               0.000000000               0.236890676               0.140759589               0.000000000               0.260809705               0.156372354               0.000000000               0.284728735               0.171985118               0.000000000               0.308647764               0.187597883               0.000000000               0.332566794               0.203210648               0.000000000               0.356485823               0.218823412               0.000000000               0.380404853               0.234436177               0.000000000               0.404323882               0.250048941               0.000000000               0.428242912               0.265661706               0.000000000               0.452161941               0.281274471               0.000000000               0.476080971               0.296887235               0.000000000               0.500000000               0.312500000               0.000000000               0.110585458               0.073890841               0.000000000               0.134923867               0.092710163               0.000000000               0.159262276               0.111529486               0.000000000               0.183600685               0.130348808               0.000000000               0.207939094               0.149168131               0.000000000               0.232277503               0.167987453               0.000000000               0.256615912               0.186806776               0.000000000               0.280954320               0.205626098               0.000000000               0.305292729               0.224445420               0.000000000               0.329631138               0.243264743               0.000000000               0.353969547               0.262084065               0.000000000               0.378307956               0.280903388               0.000000000               0.402646365               0.299722710               0.000000000               0.426984773               0.318542033               0.000000000               0.451323182               0.337361355               0.000000000               0.475661591               0.356180678               0.000000000               0.500000000               0.375000000               0.000000000               0.102810390               0.084374307               0.000000000               0.127634741               0.106444663               0.000000000               0.152459092               0.128515018               0.000000000               0.177283442               0.150585374               0.000000000               0.202107793               0.172655730               0.000000000               0.226932143               0.194726086               0.000000000               0.251756494               0.216796442               0.000000000               0.276580845               0.238866798               0.000000000               0.301405195               0.260937153               0.000000000               0.326229546               0.283007509               0.000000000               0.351053896               0.305077865               0.000000000               0.375878247               0.327148221               0.000000000               0.400702598               0.349218577               0.000000000               0.425526948               0.371288933               0.000000000               0.450351299               0.393359288               0.000000000               0.475175649               0.415429644               0.000000000               0.500000000               0.437500000               0.000000000               0.094045202               0.094045202               0.000000000               0.119417377               0.119417377               0.000000000               0.144789552               0.144789552               0.000000000               0.170161727               0.170161727               0.000000000               0.195533901               0.195533901               0.000000000               0.220906076               0.220906076               0.000000000               0.246278251               0.246278251               0.000000000               0.271650426               0.271650426               0.000000000               0.297022601               0.297022601               0.000000000               0.322394776               0.322394776               0.000000000               0.347766951               0.347766951               0.000000000               0.373139126               0.373139126               0.000000000               0.398511300               0.398511300               0.000000000               0.423883475               0.423883475               0.000000000               0.449255650               0.449255650               0.000000000               0.474627825               0.474627825               0.000000000               0.500000000               0.500000000               0.000000000               0.084374307               0.102810390               0.000000000               0.106444663               0.127634741               0.000000000               0.128515018               0.152459092               0.000000000               0.150585374               0.177283442               0.000000000               0.172655730               0.202107793               0.000000000               0.194726086               0.226932143               0.000000000               0.216796442               0.251756494               0.000000000               0.238866798               0.276580845               0.000000000               0.260937153               0.301405195               0.000000000               0.283007509               0.326229546               0.000000000               0.305077865               0.351053896               0.000000000               0.327148221               0.375878247               0.000000000               0.349218577               0.400702598               0.000000000               0.371288933               0.425526948               0.000000000               0.393359288               0.450351299               0.000000000               0.415429644               0.475175649               0.000000000               0.437500000               0.500000000               0.000000000               0.073890841               0.110585458               0.000000000               0.092710163               0.134923867               0.000000000               0.111529486               0.159262276               0.000000000               0.130348808               0.183600685               0.000000000               0.149168131               0.207939094               0.000000000               0.167987453               0.232277503               0.000000000               0.186806776               0.256615912               0.000000000               0.205626098               0.280954320               0.000000000               0.224445420               0.305292729               0.000000000               0.243264743               0.329631138               0.000000000               0.262084065               0.353969547               0.000000000               0.280903388               0.378307956               0.000000000               0.299722710               0.402646365               0.000000000               0.318542033               0.426984773               0.000000000               0.337361355               0.451323182               0.000000000               0.356180678               0.475661591               0.000000000               0.375000000               0.500000000               0.000000000               0.062695766               0.117295528               0.000000000               0.078308531               0.141214558               0.000000000               0.093921295               0.165133587               0.000000000               0.109534060               0.189052617               0.000000000               0.125146824               0.212971646               0.000000000               0.140759589               0.236890676               0.000000000               0.156372354               0.260809705               0.000000000               0.171985118               0.284728735               0.000000000               0.187597883               0.308647764               0.000000000               0.203210648               0.332566794               0.000000000               0.218823412               0.356485823               0.000000000               0.234436177               0.380404853               0.000000000               0.250048941               0.404323882               0.000000000               0.265661706               0.428242912               0.000000000               0.281274471               0.452161941               0.000000000               0.296887235               0.476080971               0.000000000               0.312500000               0.500000000               0.000000000               0.050896897               0.122875978               0.000000000               0.063340840               0.146446229               0.000000000               0.075784784               0.170016481               0.000000000               0.088228728               0.193586732               0.000000000               0.100672672               0.217156983               0.000000000               0.113116616               0.240727235               0.000000000               0.125560560               0.264297486               0.000000000               0.138004504               0.287867738               0.000000000               0.150448448               0.311437989               0.000000000               0.162892392               0.335008240               0.000000000               0.175336336               0.358578492               0.000000000               0.187780280               0.382148743               0.000000000               0.200224224               0.405718994               0.000000000               0.212668168               0.429289246               0.000000000               0.225112112               0.452859497               0.000000000               0.237556056               0.476429749               0.000000000               0.250000000               0.500000000               0.000000000               0.038607862               0.127273065               0.000000000               0.047913621               0.150568498               0.000000000               0.057219379               0.173863932               0.000000000               0.066525138               0.197159365               0.000000000               0.075830897               0.220454798               0.000000000               0.085136655               0.243750232               0.000000000               0.094442414               0.267045665               0.000000000               0.103748172               0.290341099               0.000000000               0.113053931               0.313636532               0.000000000               0.122359690               0.336931966               0.000000000               0.131665448               0.360227399               0.000000000               0.140971207               0.383522833               0.000000000               0.150276966               0.406818266               0.000000000               0.159582724               0.430113700               0.000000000               0.168888483               0.453409133               0.000000000               0.178194241               0.476704567               0.000000000               0.187500000               0.500000000               0.000000000               0.025947013               0.130444442               0.000000000               0.032137825               0.153541665               0.000000000               0.038328636               0.176638887               0.000000000               0.044519448               0.199736109               0.000000000               0.050710260               0.222833332               0.000000000               0.056901071               0.245930554               0.000000000               0.063091883               0.269027776               0.000000000               0.069282695               0.292124999               0.000000000               0.075473506               0.315222221               0.000000000               0.081664318               0.338319444               0.000000000               0.087855130               0.361416666               0.000000000               0.094045942               0.384513888               0.000000000               0.100236753               0.407611111               0.000000000               0.106427565               0.430708333               0.000000000               0.112618377               0.453805555               0.000000000               0.118809188               0.476902778               0.000000000               0.125000000               0.500000000               0.000000000               0.013036280               0.132359569               0.000000000               0.016127762               0.155337096               0.000000000               0.019219245               0.178314623               0.000000000               0.022310727               0.201292150               0.000000000               0.025402210               0.224269676               0.000000000               0.028493692               0.247247203               0.000000000               0.031585175               0.270224730               0.000000000               0.034676657               0.293202257               0.000000000               0.037768140               0.316179784               0.000000000               0.040859622               0.339157311               0.000000000               0.043951105               0.362134838               0.000000000               0.047042587               0.385112365               0.000000000               0.050134070               0.408089892               0.000000000               0.053225552               0.431067419               0.000000000               0.056317035               0.454044946               0.000000000               0.059408517               0.477022473               0.000000000               0.062500000               0.500000000               0.000000000               0.000000000               0.133000000               0.000000000               0.000000000               0.155937500               0.000000000               0.000000000               0.178875000               0.000000000               0.000000000               0.201812500               0.000000000               0.000000000               0.224750000               0.000000000               0.000000000               0.247687500               0.000000000               0.000000000               0.270625000               0.000000000               0.000000000               0.293562500               0.000000000               0.000000000               0.316500000               0.000000000               0.000000000               0.339437500               0.000000000               0.000000000               0.362375000               0.000000000               0.000000000               0.385312500               0.000000000               0.000000000               0.408250000               0.000000000               0.000000000               0.431187500               0.000000000               0.000000000               0.454125000               0.000000000               0.000000000               0.477062500               0.000000000               0.000000000               0.500000000               0.000000000               0.133000000               0.000000000               0.000000000               0.155937500               0.000000000               0.000000000               0.178875000               0.000000000               0.000000000               0.201812500               0.000000000               0.000000000               0.224750000               0.000000000               0.000000000               0.247687500               0.000000000               0.000000000               0.270625000               0.000000000               0.000000000               0.293562500               0.000000000               0.000000000               0.316500000               0.000000000               0.000000000               0.339437500               0.000000000               0.000000000               0.362375000               0.000000000               0.000000000               0.385312500               0.000000000               0.000000000               0.408250000               0.000000000               0.000000000               0.431187500               0.000000000               0.000000000               0.454125000               0.000000000               0.000000000               0.477062500               0.000000000               0.000000000               0.500000000               0.000000000               0.000000000               0.132359569              -0.013036280               0.000000000               0.155337096              -0.016127762               0.000000000               0.178314623              -0.019219245               0.000000000               0.201292150              -0.022310727               0.000000000               0.224269676              -0.025402210               0.000000000               0.247247203              -0.028493692               0.000000000               0.270224730              -0.031585175               0.000000000               0.293202257              -0.034676657               0.000000000               0.316179784              -0.037768140               0.000000000               0.339157311              -0.040859622               0.000000000               0.362134838              -0.043951105               0.000000000               0.385112365              -0.047042587               0.000000000               0.408089892              -0.050134070               0.000000000               0.431067419              -0.053225552               0.000000000               0.454044946              -0.056317035               0.000000000               0.477022473              -0.059408517               0.000000000               0.500000000              -0.062500000               0.000000000               0.130444442              -0.025947013               0.000000000               0.153541665              -0.032137825               0.000000000               0.176638887              -0.038328636               0.000000000               0.199736109              -0.044519448               0.000000000               0.222833332              -0.050710260               0.000000000               0.245930554              -0.056901071               0.000000000               0.269027776              -0.063091883               0.000000000               0.292124999              -0.069282695               0.000000000               0.315222221              -0.075473506               0.000000000               0.338319444              -0.081664318               0.000000000               0.361416666              -0.087855130               0.000000000               0.384513888              -0.094045942               0.000000000               0.407611111              -0.100236753               0.000000000               0.430708333              -0.106427565               0.000000000               0.453805555              -0.112618377               0.000000000               0.476902778              -0.118809188               0.000000000               0.500000000              -0.125000000               0.000000000               0.127273065              -0.038607862               0.000000000               0.150568498              -0.047913621               0.000000000               0.173863932              -0.057219379               0.000000000               0.197159365              -0.066525138               0.000000000               0.220454798              -0.075830897               0.000000000               0.243750232              -0.085136655               0.000000000               0.267045665              -0.094442414               0.000000000               0.290341099              -0.103748172               0.000000000               0.313636532              -0.113053931               0.000000000               0.336931966              -0.122359690               0.000000000               0.360227399              -0.131665448               0.000000000               0.383522833              -0.140971207               0.000000000               0.406818266              -0.150276966               0.000000000               0.430113700              -0.159582724               0.000000000               0.453409133              -0.168888483               0.000000000               0.476704567              -0.178194241               0.000000000               0.500000000              -0.187500000               0.000000000               0.122875978              -0.050896897               0.000000000               0.146446229              -0.063340840               0.000000000               0.170016481              -0.075784784               0.000000000               0.193586732              -0.088228728               0.000000000               0.217156983              -0.100672672               0.000000000               0.240727235              -0.113116616               0.000000000               0.264297486              -0.125560560               0.000000000               0.287867738              -0.138004504               0.000000000               0.311437989              -0.150448448               0.000000000               0.335008240              -0.162892392               0.000000000               0.358578492              -0.175336336               0.000000000               0.382148743              -0.187780280               0.000000000               0.405718994              -0.200224224               0.000000000               0.429289246              -0.212668168               0.000000000               0.452859497              -0.225112112               0.000000000               0.476429749              -0.237556056               0.000000000               0.500000000              -0.250000000               0.000000000               0.117295528              -0.062695766               0.000000000               0.141214558              -0.078308531               0.000000000               0.165133587              -0.093921295               0.000000000               0.189052617              -0.109534060               0.000000000               0.212971646              -0.125146824               0.000000000               0.236890676              -0.140759589               0.000000000               0.260809705              -0.156372354               0.000000000               0.284728735              -0.171985118               0.000000000               0.308647764              -0.187597883               0.000000000               0.332566794              -0.203210648               0.000000000               0.356485823              -0.218823412               0.000000000               0.380404853              -0.234436177               0.000000000               0.404323882              -0.250048941               0.000000000               0.428242912              -0.265661706               0.000000000               0.452161941              -0.281274471               0.000000000               0.476080971              -0.296887235               0.000000000               0.500000000              -0.312500000               0.000000000               0.110585458              -0.073890841               0.000000000               0.134923867              -0.092710163               0.000000000               0.159262276              -0.111529486               0.000000000               0.183600685              -0.130348808               0.000000000               0.207939094              -0.149168131               0.000000000               0.232277503              -0.167987453               0.000000000               0.256615912              -0.186806776               0.000000000               0.280954320              -0.205626098               0.000000000               0.305292729              -0.224445420               0.000000000               0.329631138              -0.243264743               0.000000000               0.353969547              -0.262084065               0.000000000               0.378307956              -0.280903388               0.000000000               0.402646365              -0.299722710               0.000000000               0.426984773              -0.318542033               0.000000000               0.451323182              -0.337361355               0.000000000               0.475661591              -0.356180678               0.000000000               0.500000000              -0.375000000               0.000000000               0.102810390              -0.084374307               0.000000000               0.127634741              -0.106444663               0.000000000               0.152459092              -0.128515018               0.000000000               0.177283442              -0.150585374               0.000000000               0.202107793              -0.172655730               0.000000000               0.226932143              -0.194726086               0.000000000               0.251756494              -0.216796442               0.000000000               0.276580845              -0.238866798               0.000000000               0.301405195              -0.260937153               0.000000000               0.326229546              -0.283007509               0.000000000               0.351053896              -0.305077865               0.000000000               0.375878247              -0.327148221               0.000000000               0.400702598              -0.349218577               0.000000000               0.425526948              -0.371288933               0.000000000               0.450351299              -0.393359288               0.000000000               0.475175649              -0.415429644               0.000000000               0.500000000              -0.437500000               0.000000000               0.094045202              -0.094045202               0.000000000               0.119417377              -0.119417377               0.000000000               0.144789552              -0.144789552               0.000000000               0.170161727              -0.170161727               0.000000000               0.195533901              -0.195533901               0.000000000               0.220906076              -0.220906076               0.000000000               0.246278251              -0.246278251               0.000000000               0.271650426              -0.271650426               0.000000000               0.297022601              -0.297022601               0.000000000               0.322394776              -0.322394776               0.000000000               0.347766951              -0.347766951               0.000000000               0.373139126              -0.373139126               0.000000000               0.398511300              -0.398511300               0.000000000               0.423883475              -0.423883475               0.000000000               0.449255650              -0.449255650               0.000000000               0.474627825              -0.474627825               0.000000000               0.500000000              -0.500000000               0.000000000               0.084374307              -0.102810390               0.000000000               0.106444663              -0.127634741               0.000000000               0.128515018              -0.152459092               0.000000000               0.150585374              -0.177283442               0.000000000               0.172655730              -0.202107793               0.000000000               0.194726086              -0.226932143               0.000000000               0.216796442              -0.251756494               0.000000000               0.238866798              -0.276580845               0.000000000               0.260937153              -0.301405195               0.000000000               0.283007509              -0.326229546               0.000000000               0.305077865              -0.351053896               0.000000000               0.327148221              -0.375878247               0.000000000               0.349218577              -0.400702598               0.000000000               0.371288933              -0.425526948               0.000000000               0.393359288              -0.450351299               0.000000000               0.415429644              -0.475175649               0.000000000               0.437500000              -0.500000000               0.000000000               0.073890841              -0.110585458               0.000000000               0.092710163              -0.134923867               0.000000000               0.111529486              -0.159262276               0.000000000               0.130348808              -0.183600685               0.000000000               0.149168131              -0.207939094               0.000000000               0.167987453              -0.232277503               0.000000000               0.186806776              -0.256615912               0.000000000               0.205626098              -0.280954320               0.000000000               0.224445420              -0.305292729               0.000000000               0.243264743              -0.329631138               0.000000000               0.262084065              -0.353969547               0.000000000               0.280903388              -0.378307956               0.000000000               0.299722710              -0.402646365               0.000000000               0.318542033              -0.426984773               0.000000000               0.337361355              -0.451323182               0.000000000               0.356180678              -0.475661591               0.000000000               0.375000000              -0.500000000               0.000000000               0.062695766              -0.117295528               0.000000000               0.078308531              -0.141214558               0.000000000               0.093921295              -0.165133587               0.000000000               0.109534060              -0.189052617               0.000000000               0.125146824              -0.212971646               0.000000000               0.140759589              -0.236890676               0.000000000               0.156372354              -0.260809705               0.000000000               0.171985118              -0.284728735               0.000000000               0.187597883              -0.308647764               0.000000000               0.203210648              -0.332566794               0.000000000               0.218823412              -0.356485823               0.000000000               0.234436177              -0.380404853               0.000000000               0.250048941              -0.404323882               0.000000000               0.265661706              -0.428242912               0.000000000               0.281274471              -0.452161941               0.000000000               0.296887235              -0.476080971               0.000000000               0.312500000              -0.500000000               0.000000000               0.050896897              -0.122875978               0.000000000               0.063340840              -0.146446229               0.000000000               0.075784784              -0.170016481               0.000000000               0.088228728              -0.193586732               0.000000000               0.100672672              -0.217156983               0.000000000               0.113116616              -0.240727235               0.000000000               0.125560560              -0.264297486               0.000000000               0.138004504              -0.287867738               0.000000000               0.150448448              -0.311437989               0.000000000               0.162892392              -0.335008240               0.000000000               0.175336336              -0.358578492               0.000000000               0.187780280              -0.382148743               0.000000000               0.200224224              -0.405718994               0.000000000               0.212668168              -0.429289246               0.000000000               0.225112112              -0.452859497               0.000000000               0.237556056              -0.476429749               0.000000000               0.250000000              -0.500000000               0.000000000               0.038607862              -0.127273065               0.000000000               0.047913621              -0.150568498               0.000000000               0.057219379              -0.173863932               0.000000000               0.066525138              -0.197159365               0.000000000               0.075830897              -0.220454798               0.000000000               0.085136655              -0.243750232               0.000000000               0.094442414              -0.267045665               0.000000000               0.103748172              -0.290341099               0.000000000               0.113053931              -0.313636532               0.000000000               0.122359690              -0.336931966               0.000000000               0.131665448              -0.360227399               0.000000000               0.140971207              -0.383522833               0.000000000               0.150276966              -0.406818266               0.000000000               0.159582724              -0.430113700               0.000000000               0.168888483              -0.453409133               0.000000000               0.178194241              -0.476704567               0.000000000               0.187500000              -0.500000000               0.000000000               0.025947013              -0.130444442               0.000000000               0.032137825              -0.153541665               0.000000000               0.038328636              -0.176638887               0.000000000               0.044519448              -0.199736109               0.000000000               0.050710260              -0.222833332               0.000000000               0.056901071              -0.245930554               0.000000000               0.063091883              -0.269027776               0.000000000               0.069282695              -0.292124999               0.000000000               0.075473506              -0.315222221               0.000000000               0.081664318              -0.338319444               0.000000000               0.087855130              -0.361416666               0.000000000               0.094045942              -0.384513888               0.000000000               0.100236753              -0.407611111               0.000000000               0.106427565              -0.430708333               0.000000000               0.112618377              -0.453805555               0.000000000               0.118809188              -0.476902778               0.000000000               0.125000000              -0.500000000               0.000000000               0.013036280              -0.132359569               0.000000000               0.016127762              -0.155337096               0.000000000               0.019219245              -0.178314623               0.000000000               0.022310727              -0.201292150               0.000000000               0.025402210              -0.224269676               0.000000000               0.028493692              -0.247247203               0.000000000               0.031585175              -0.270224730               0.000000000               0.034676657              -0.293202257               0.000000000               0.037768140              -0.316179784               0.000000000               0.040859622              -0.339157311               0.000000000               0.043951105              -0.362134838               0.000000000               0.047042587              -0.385112365               0.000000000               0.050134070              -0.408089892               0.000000000               0.053225552              -0.431067419               0.000000000               0.056317035              -0.454044946               0.000000000               0.059408517              -0.477022473               0.000000000               0.062500000              -0.500000000               0.000000000               0.000000000              -0.133000000               0.000000000               0.000000000              -0.155937500               0.000000000               0.000000000              -0.178875000               0.000000000               0.000000000              -0.201812500               0.000000000               0.000000000              -0.224750000               0.000000000               0.000000000              -0.247687500               0.000000000               0.000000000              -0.270625000               0.000000000               0.000000000              -0.293562500               0.000000000               0.000000000              -0.316500000               0.000000000               0.000000000              -0.339437500               0.000000000               0.000000000              -0.362375000               0.000000000               0.000000000              -0.385312500               0.000000000               0.000000000              -0.408250000               0.000000000               0.000000000              -0.431187500               0.000000000               0.000000000              -0.454125000               0.000000000               0.000000000              -0.477062500               0.000000000               0.000000000              -0.500000000               0.000000000              -0.133000000               0.000000000               0.000000000              -0.155937500               0.000000000               0.000000000              -0.178875000               0.000000000               0.000000000              -0.201812500               0.000000000               0.000000000              -0.224750000               0.000000000               0.000000000              -0.247687500               0.000000000               0.000000000              -0.270625000               0.000000000               0.000000000              -0.293562500               0.000000000               0.000000000              -0.316500000               0.000000000               0.000000000              -0.339437500               0.000000000               0.000000000              -0.362375000               0.000000000               0.000000000              -0.385312500               0.000000000               0.000000000              -0.408250000               0.000000000               0.000000000              -0.431187500               0.000000000               0.000000000              -0.454125000               0.000000000               0.000000000              -0.477062500               0.000000000               0.000000000              -0.500000000               0.000000000               0.000000000              -0.132359569              -0.013036280               0.000000000              -0.155337096              -0.016127762               0.000000000              -0.178314623              -0.019219245               0.000000000              -0.201292150              -0.022310727               0.000000000              -0.224269676              -0.025402210               0.000000000              -0.247247203              -0.028493692               0.000000000              -0.270224730              -0.031585175               0.000000000              -0.293202257              -0.034676657               0.000000000              -0.316179784              -0.037768140               0.000000000              -0.339157311              -0.040859622               0.000000000              -0.362134838              -0.043951105               0.000000000              -0.385112365              -0.047042587               0.000000000              -0.408089892              -0.050134070               0.000000000              -0.431067419              -0.053225552               0.000000000              -0.454044946              -0.056317035               0.000000000              -0.477022473              -0.059408517               0.000000000              -0.500000000              -0.062500000               0.000000000              -0.130444442              -0.025947013               0.000000000              -0.153541665              -0.032137825               0.000000000              -0.176638887              -0.038328636               0.000000000              -0.199736109              -0.044519448               0.000000000              -0.222833332              -0.050710260               0.000000000              -0.245930554              -0.056901071               0.000000000              -0.269027776              -0.063091883               0.000000000              -0.292124999              -0.069282695               0.000000000              -0.315222221              -0.075473506               0.000000000              -0.338319444              -0.081664318               0.000000000              -0.361416666              -0.087855130               0.000000000              -0.384513888              -0.094045942               0.000000000              -0.407611111              -0.100236753               0.000000000              -0.430708333              -0.106427565               0.000000000              -0.453805555              -0.112618377               0.000000000              -0.476902778              -0.118809188               0.000000000              -0.500000000              -0.125000000               0.000000000              -0.127273065              -0.038607862               0.000000000              -0.150568498              -0.047913621               0.000000000              -0.173863932              -0.057219379               0.000000000              -0.197159365              -0.066525138               0.000000000              -0.220454798              -0.075830897               0.000000000              -0.243750232              -0.085136655               0.000000000              -0.267045665              -0.094442414               0.000000000              -0.290341099              -0.103748172               0.000000000              -0.313636532              -0.113053931               0.000000000              -0.336931966              -0.122359690               0.000000000              -0.360227399              -0.131665448               0.000000000              -0.383522833              -0.140971207               0.000000000              -0.406818266              -0.150276966               0.000000000              -0.430113700              -0.159582724               0.000000000              -0.453409133              -0.168888483               0.000000000              -0.476704567              -0.178194241               0.000000000              -0.500000000              -0.187500000               0.000000000              -0.122875978              -0.050896897               0.000000000              -0.146446229              -0.063340840               0.000000000              -0.170016481              -0.075784784               0.000000000              -0.193586732              -0.088228728               0.000000000              -0.217156983              -0.100672672               0.000000000              -0.240727235              -0.113116616               0.000000000              -0.264297486              -0.125560560               0.000000000              -0.287867738              -0.138004504               0.000000000              -0.311437989              -0.150448448               0.000000000              -0.335008240              -0.162892392               0.000000000              -0.358578492              -0.175336336               0.000000000              -0.382148743              -0.187780280               0.000000000              -0.405718994              -0.200224224               0.000000000              -0.429289246              -0.212668168               0.000000000              -0.452859497              -0.225112112               0.000000000              -0.476429749              -0.237556056               0.000000000              -0.500000000              -0.250000000               0.000000000              -0.117295528              -0.062695766               0.000000000              -0.141214558              -0.078308531               0.000000000              -0.165133587              -0.093921295               0.000000000              -0.189052617              -0.109534060               0.000000000              -0.212971646              -0.125146824               0.000000000              -0.236890676              -0.140759589               0.000000000              -0.260809705              -0.156372354               0.000000000              -0.284728735              -0.171985118               0.000000000              -0.308647764              -0.187597883               0.000000000              -0.332566794              -0.203210648               0.000000000              -0.356485823              -0.218823412               0.000000000              -0.380404853              -0.234436177               0.000000000              -0.404323882              -0.250048941               0.000000000              -0.428242912              -0.265661706               0.000000000              -0.452161941              -0.281274471               0.000000000              -0.476080971              -0.296887235               0.000000000              -0.500000000              -0.312500000               0.000000000              -0.110585458              -0.073890841               0.000000000              -0.134923867              -0.092710163               0.000000000              -0.159262276              -0.111529486               0.000000000              -0.183600685              -0.130348808               0.000000000              -0.207939094              -0.149168131               0.000000000              -0.232277503              -0.167987453               0.000000000              -0.256615912              -0.186806776               0.000000000              -0.280954320              -0.205626098               0.000000000              -0.305292729              -0.224445420               0.000000000              -0.329631138              -0.243264743               0.000000000              -0.353969547              -0.262084065               0.000000000              -0.378307956              -0.280903388               0.000000000              -0.402646365              -0.299722710               0.000000000              -0.426984773              -0.318542033               0.000000000              -0.451323182              -0.337361355               0.000000000              -0.475661591              -0.356180678               0.000000000              -0.500000000              -0.375000000               0.000000000              -0.102810390              -0.084374307               0.000000000              -0.127634741              -0.106444663               0.000000000              -0.152459092              -0.128515018               0.000000000              -0.177283442              -0.150585374               0.000000000              -0.202107793              -0.172655730               0.000000000              -0.226932143              -0.194726086               0.000000000              -0.251756494              -0.216796442               0.000000000              -0.276580845              -0.238866798               0.000000000              -0.301405195              -0.260937153               0.000000000              -0.326229546              -0.283007509               0.000000000              -0.351053896              -0.305077865               0.000000000              -0.375878247              -0.327148221               0.000000000              -0.400702598              -0.349218577               0.000000000              -0.425526948              -0.371288933               0.000000000              -0.450351299              -0.393359288               0.000000000              -0.475175649              -0.415429644               0.000000000              -0.500000000              -0.437500000               0.000000000              -0.094045202              -0.094045202               0.000000000              -0.119417377              -0.119417377               0.000000000              -0.144789552              -0.144789552               0.000000000              -0.170161727              -0.170161727               0.000000000              -0.195533901              -0.195533901               0.000000000              -0.220906076              -0.220906076               0.000000000              -0.246278251              -0.246278251               0.000000000              -0.271650426              -0.271650426               0.000000000              -0.297022601              -0.297022601               0.000000000              -0.322394776              -0.322394776               0.000000000              -0.347766951              -0.347766951               0.000000000              -0.373139126              -0.373139126               0.000000000              -0.398511300              -0.398511300               0.000000000              -0.423883475              -0.423883475               0.000000000              -0.449255650              -0.449255650               0.000000000              -0.474627825              -0.474627825               0.000000000              -0.500000000              -0.500000000               0.000000000              -0.084374307              -0.102810390               0.000000000              -0.106444663              -0.127634741               0.000000000              -0.128515018              -0.152459092               0.000000000              -0.150585374              -0.177283442               0.000000000              -0.172655730              -0.202107793               0.000000000              -0.194726086              -0.226932143               0.000000000              -0.216796442              -0.251756494               0.000000000              -0.238866798              -0.276580845               0.000000000              -0.260937153              -0.301405195               0.000000000              -0.283007509              -0.326229546               0.000000000              -0.305077865              -0.351053896               0.000000000              -0.327148221              -0.375878247               0.000000000              -0.349218577              -0.400702598               0.000000000              -0.371288933              -0.425526948               0.000000000              -0.393359288              -0.450351299               0.000000000              -0.415429644              -0.475175649               0.000000000              -0.437500000              -0.500000000               0.000000000              -0.073890841              -0.110585458               0.000000000              -0.092710163              -0.134923867               0.000000000              -0.111529486              -0.159262276               0.000000000              -0.130348808              -0.183600685               0.000000000              -0.149168131              -0.207939094               0.000000000              -0.167987453              -0.232277503               0.000000000              -0.186806776              -0.256615912               0.000000000              -0.205626098              -0.280954320               0.000000000              -0.224445420              -0.305292729               0.000000000              -0.243264743              -0.329631138               0.000000000              -0.262084065              -0.353969547               0.000000000              -0.280903388              -0.378307956               0.000000000              -0.299722710              -0.402646365               0.000000000              -0.318542033              -0.426984773               0.000000000              -0.337361355              -0.451323182               0.000000000              -0.356180678              -0.475661591               0.000000000              -0.375000000              -0.500000000               0.000000000              -0.062695766              -0.117295528               0.000000000              -0.078308531              -0.141214558               0.000000000              -0.093921295              -0.165133587               0.000000000              -0.109534060              -0.189052617               0.000000000              -0.125146824              -0.212971646               0.000000000              -0.140759589              -0.236890676               0.000000000              -0.156372354              -0.260809705               0.000000000              -0.171985118              -0.284728735               0.000000000              -0.187597883              -0.308647764               0.000000000              -0.203210648              -0.332566794               0.000000000              -0.218823412              -0.356485823               0.000000000              -0.234436177              -0.380404853               0.000000000              -0.250048941              -0.404323882               0.000000000              -0.265661706              -0.428242912               0.000000000              -0.281274471              -0.452161941               0.000000000              -0.296887235              -0.476080971               0.000000000              -0.312500000              -0.500000000               0.000000000              -0.050896897              -0.122875978               0.000000000              -0.063340840              -0.146446229               0.000000000              -0.075784784              -0.170016481               0.000000000              -0.088228728              -0.193586732               0.000000000              -0.100672672              -0.217156983               0.000000000              -0.113116616              -0.240727235               0.000000000              -0.125560560              -0.264297486               0.000000000              -0.138004504              -0.287867738               0.000000000              -0.150448448              -0.311437989               0.000000000              -0.162892392              -0.335008240               0.000000000              -0.175336336              -0.358578492               0.000000000              -0.187780280              -0.382148743               0.000000000              -0.200224224              -0.405718994               0.000000000              -0.212668168              -0.429289246               0.000000000              -0.225112112              -0.452859497               0.000000000              -0.237556056              -0.476429749               0.000000000              -0.250000000              -0.500000000               0.000000000              -0.038607862              -0.127273065               0.000000000              -0.047913621              -0.150568498               0.000000000              -0.057219379              -0.173863932               0.000000000              -0.066525138              -0.197159365               0.000000000              -0.075830897              -0.220454798               0.000000000              -0.085136655              -0.243750232               0.000000000              -0.094442414              -0.267045665               0.000000000              -0.103748172              -0.290341099               0.000000000              -0.113053931              -0.313636532               0.000000000              -0.122359690              -0.336931966               0.000000000              -0.131665448              -0.360227399               0.000000000              -0.140971207              -0.383522833               0.000000000              -0.150276966              -0.406818266               0.000000000              -0.159582724              -0.430113700               0.000000000              -0.168888483              -0.453409133               0.000000000              -0.178194241              -0.476704567               0.000000000              -0.187500000              -0.500000000               0.000000000              -0.025947013              -0.130444442               0.000000000              -0.032137825              -0.153541665               0.000000000              -0.038328636              -0.176638887               0.000000000              -0.044519448              -0.199736109               0.000000000              -0.050710260              -0.222833332               0.000000000              -0.056901071              -0.245930554               0.000000000              -0.063091883              -0.269027776               0.000000000              -0.069282695              -0.292124999               0.000000000              -0.075473506              -0.315222221               0.000000000              -0.081664318              -0.338319444               0.000000000              -0.087855130              -0.361416666               0.000000000              -0.094045942              -0.384513888               0.000000000              -0.100236753              -0.407611111               0.000000000              -0.106427565              -0.430708333               0.000000000              -0.112618377              -0.453805555               0.000000000              -0.118809188              -0.476902778               0.000000000              -0.125000000              -0.500000000               0.000000000              -0.013036280              -0.132359569               0.000000000              -0.016127762              -0.155337096               0.000000000              -0.019219245              -0.178314623               0.000000000              -0.022310727              -0.201292150               0.000000000              -0.025402210              -0.224269676               0.000000000              -0.028493692              -0.247247203               0.000000000              -0.031585175              -0.270224730               0.000000000              -0.034676657              -0.293202257               0.000000000              -0.037768140              -0.316179784               0.000000000              -0.040859622              -0.339157311               0.000000000              -0.043951105              -0.362134838               0.000000000              -0.047042587              -0.385112365               0.000000000              -0.050134070              -0.408089892               0.000000000              -0.053225552              -0.431067419               0.000000000              -0.056317035              -0.454044946               0.000000000              -0.059408517              -0.477022473               0.000000000              -0.062500000              -0.500000000               0.000000000               0.000000000              -0.133000000               0.000000000               0.000000000              -0.155937500               0.000000000               0.000000000              -0.178875000               0.000000000               0.000000000              -0.201812500               0.000000000               0.000000000              -0.224750000               0.000000000               0.000000000              -0.247687500               0.000000000               0.000000000              -0.270625000               0.000000000               0.000000000              -0.293562500               0.000000000               0.000000000              -0.316500000               0.000000000               0.000000000              -0.339437500               0.000000000               0.000000000              -0.362375000               0.000000000               0.000000000              -0.385312500               0.000000000               0.000000000              -0.408250000               0.000000000               0.000000000              -0.431187500               0.000000000               0.000000000              -0.454125000               0.000000000               0.000000000              -0.477062500               0.000000000               0.000000000              -0.500000000               0.000000000              -0.133000000               0.000000000               0.000000000              -0.155937500               0.000000000               0.000000000              -0.178875000               0.000000000               0.000000000              -0.201812500               0.000000000               0.000000000              -0.224750000               0.000000000               0.000000000              -0.247687500               0.000000000               0.000000000              -0.270625000               0.000000000               0.000000000              -0.293562500               0.000000000               0.000000000              -0.316500000               0.000000000               0.000000000              -0.339437500               0.000000000               0.000000000              -0.362375000               0.000000000               0.000000000              -0.385312500               0.000000000               0.000000000              -0.408250000               0.000000000               0.000000000              -0.431187500               0.000000000               0.000000000              -0.454125000               0.000000000               0.000000000              -0.477062500               0.000000000               0.000000000              -0.500000000               0.000000000               0.000000000              -0.132359569               0.013036280               0.000000000              -0.155337096               0.016127762               0.000000000              -0.178314623               0.019219245               0.000000000              -0.201292150               0.022310727               0.000000000              -0.224269676               0.025402210               0.000000000              -0.247247203               0.028493692               0.000000000              -0.270224730               0.031585175               0.000000000              -0.293202257               0.034676657               0.000000000              -0.316179784               0.037768140               0.000000000              -0.339157311               0.040859622               0.000000000              -0.362134838               0.043951105               0.000000000              -0.385112365               0.047042587               0.000000000              -0.408089892               0.050134070               0.000000000              -0.431067419               0.053225552               0.000000000              -0.454044946               0.056317035               0.000000000              -0.477022473               0.059408517               0.000000000              -0.500000000               0.062500000               0.000000000              -0.130444442               0.025947013               0.000000000              -0.153541665               0.032137825               0.000000000              -0.176638887               0.038328636               0.000000000              -0.199736109               0.044519448               0.000000000              -0.222833332               0.050710260               0.000000000              -0.245930554               0.056901071               0.000000000              -0.269027776               0.063091883               0.000000000              -0.292124999               0.069282695               0.000000000              -0.315222221               0.075473506               0.000000000              -0.338319444               0.081664318               0.000000000              -0.361416666               0.087855130               0.000000000              -0.384513888               0.094045942               0.000000000              -0.407611111               0.100236753               0.000000000              -0.430708333               0.106427565               0.000000000              -0.453805555               0.112618377               0.000000000              -0.476902778               0.118809188               0.000000000              -0.500000000               0.125000000               0.000000000              -0.127273065               0.038607862               0.000000000              -0.150568498               0.047913621               0.000000000              -0.173863932               0.057219379               0.000000000              -0.197159365               0.066525138               0.000000000              -0.220454798               0.075830897               0.000000000              -0.243750232               0.085136655               0.000000000              -0.267045665               0.094442414               0.000000000              -0.290341099               0.103748172               0.000000000              -0.313636532               0.113053931               0.000000000              -0.336931966               0.122359690               0.000000000              -0.360227399               0.131665448               0.000000000              -0.383522833               0.140971207               0.000000000              -0.406818266               0.150276966               0.000000000              -0.430113700               0.159582724               0.000000000              -0.453409133               0.168888483               0.000000000              -0.476704567               0.178194241               0.000000000              -0.500000000               0.187500000               0.000000000              -0.122875978               0.050896897               0.000000000              -0.146446229               0.063340840               0.000000000              -0.170016481               0.075784784               0.000000000              -0.193586732               0.088228728               0.000000000              -0.217156983               0.100672672               0.000000000              -0.240727235               0.113116616               0.000000000              -0.264297486               0.125560560               0.000000000              -0.287867738               0.138004504               0.000000000              -0.311437989               0.150448448               0.000000000              -0.335008240               0.162892392               0.000000000              -0.358578492               0.175336336               0.000000000              -0.382148743               0.187780280               0.000000000              -0.405718994               0.200224224               0.000000000              -0.429289246               0.212668168               0.000000000              -0.452859497               0.225112112               0.000000000              -0.476429749               0.237556056               0.000000000              -0.500000000               0.250000000               0.000000000              -0.117295528               0.062695766               0.000000000              -0.141214558               0.078308531               0.000000000              -0.165133587               0.093921295               0.000000000              -0.189052617               0.109534060               0.000000000              -0.212971646               0.125146824               0.000000000              -0.236890676               0.140759589               0.000000000              -0.260809705               0.156372354               0.000000000              -0.284728735               0.171985118               0.000000000              -0.308647764               0.187597883               0.000000000              -0.332566794               0.203210648               0.000000000              -0.356485823               0.218823412               0.000000000              -0.380404853               0.234436177               0.000000000              -0.404323882               0.250048941               0.000000000              -0.428242912               0.265661706               0.000000000              -0.452161941               0.281274471               0.000000000              -0.476080971               0.296887235               0.000000000              -0.500000000               0.312500000               0.000000000              -0.110585458               0.073890841               0.000000000              -0.134923867               0.092710163               0.000000000              -0.159262276               0.111529486               0.000000000              -0.183600685               0.130348808               0.000000000              -0.207939094               0.149168131               0.000000000              -0.232277503               0.167987453               0.000000000              -0.256615912               0.186806776               0.000000000              -0.280954320               0.205626098               0.000000000              -0.305292729               0.224445420               0.000000000              -0.329631138               0.243264743               0.000000000              -0.353969547               0.262084065               0.000000000              -0.378307956               0.280903388               0.000000000              -0.402646365               0.299722710               0.000000000              -0.426984773               0.318542033               0.000000000              -0.451323182               0.337361355               0.000000000              -0.475661591               0.356180678               0.000000000              -0.500000000               0.375000000               0.000000000              -0.102810390               0.084374307               0.000000000              -0.127634741               0.106444663               0.000000000              -0.152459092               0.128515018               0.000000000              -0.177283442               0.150585374               0.000000000              -0.202107793               0.172655730               0.000000000              -0.226932143               0.194726086               0.000000000              -0.251756494               0.216796442               0.000000000              -0.276580845               0.238866798               0.000000000              -0.301405195               0.260937153               0.000000000              -0.326229546               0.283007509               0.000000000              -0.351053896               0.305077865               0.000000000              -0.375878247               0.327148221               0.000000000              -0.400702598               0.349218577               0.000000000              -0.425526948               0.371288933               0.000000000              -0.450351299               0.393359288               0.000000000              -0.475175649               0.415429644               0.000000000              -0.500000000               0.437500000               0.000000000              -0.094045202               0.094045202               0.000000000              -0.119417377               0.119417377               0.000000000              -0.144789552               0.144789552               0.000000000              -0.170161727               0.170161727               0.000000000              -0.195533901               0.195533901               0.000000000              -0.220906076               0.220906076               0.000000000              -0.246278251               0.246278251               0.000000000              -0.271650426               0.271650426               0.000000000              -0.297022601               0.297022601               0.000000000              -0.322394776               0.322394776               0.000000000              -0.347766951               0.347766951               0.000000000              -0.373139126               0.373139126               0.000000000              -0.398511300               0.398511300               0.000000000              -0.423883475               0.423883475               0.000000000              -0.449255650               0.449255650               0.000000000              -0.474627825               0.474627825               0.000000000              -0.500000000               0.500000000               0.000000000              -0.084374307               0.102810390               0.000000000              -0.106444663               0.127634741               0.000000000              -0.128515018               0.152459092               0.000000000              -0.150585374               0.177283442               0.000000000              -0.172655730               0.202107793               0.000000000              -0.194726086               0.226932143               0.000000000              -0.216796442               0.251756494               0.000000000              -0.238866798               0.276580845               0.000000000              -0.260937153               0.301405195               0.000000000              -0.283007509               0.326229546               0.000000000              -0.305077865               0.351053896               0.000000000              -0.327148221               0.375878247               0.000000000              -0.349218577               0.400702598               0.000000000              -0.371288933               0.425526948               0.000000000              -0.393359288               0.450351299               0.000000000              -0.415429644               0.475175649               0.000000000              -0.437500000               0.500000000               0.000000000              -0.073890841               0.110585458               0.000000000              -0.092710163               0.134923867               0.000000000              -0.111529486               0.159262276               0.000000000              -0.130348808               0.183600685               0.000000000              -0.149168131               0.207939094               0.000000000              -0.167987453               0.232277503               0.000000000              -0.186806776               0.256615912               0.000000000              -0.205626098               0.280954320               0.000000000              -0.224445420               0.305292729               0.000000000              -0.243264743               0.329631138               0.000000000              -0.262084065               0.353969547               0.000000000              -0.280903388               0.378307956               0.000000000              -0.299722710               0.402646365               0.000000000              -0.318542033               0.426984773               0.000000000              -0.337361355               0.451323182               0.000000000              -0.356180678               0.475661591               0.000000000              -0.375000000               0.500000000               0.000000000              -0.062695766               0.117295528               0.000000000              -0.078308531               0.141214558               0.000000000              -0.093921295               0.165133587               0.000000000              -0.109534060               0.189052617               0.000000000              -0.125146824               0.212971646               0.000000000              -0.140759589               0.236890676               0.000000000              -0.156372354               0.260809705               0.000000000              -0.171985118               0.284728735               0.000000000              -0.187597883               0.308647764               0.000000000              -0.203210648               0.332566794               0.000000000              -0.218823412               0.356485823               0.000000000              -0.234436177               0.380404853               0.000000000              -0.250048941               0.404323882               0.000000000              -0.265661706               0.428242912               0.000000000              -0.281274471               0.452161941               0.000000000              -0.296887235               0.476080971               0.000000000              -0.312500000               0.500000000               0.000000000              -0.050896897               0.122875978               0.000000000              -0.063340840               0.146446229               0.000000000              -0.075784784               0.170016481               0.000000000              -0.088228728               0.193586732               0.000000000              -0.100672672               0.217156983               0.000000000              -0.113116616               0.240727235               0.000000000              -0.125560560               0.264297486               0.000000000              -0.138004504               0.287867738               0.000000000              -0.150448448               0.311437989               0.000000000              -0.162892392               0.335008240               0.000000000              -0.175336336               0.358578492               0.000000000              -0.187780280               0.382148743               0.000000000              -0.200224224               0.405718994               0.000000000              -0.212668168               0.429289246               0.000000000              -0.225112112               0.452859497               0.000000000              -0.237556056               0.476429749               0.000000000              -0.250000000               0.500000000               0.000000000              -0.038607862               0.127273065               0.000000000              -0.047913621               0.150568498               0.000000000              -0.057219379               0.173863932               0.000000000              -0.066525138               0.197159365               0.000000000              -0.075830897               0.220454798               0.000000000              -0.085136655               0.243750232               0.000000000              -0.094442414               0.267045665               0.000000000              -0.103748172               0.290341099               0.000000000              -0.113053931               0.313636532               0.000000000              -0.122359690               0.336931966               0.000000000              -0.131665448               0.360227399               0.000000000              -0.140971207               0.383522833               0.000000000              -0.150276966               0.406818266               0.000000000              -0.159582724               0.430113700               0.000000000              -0.168888483               0.453409133               0.000000000              -0.178194241               0.476704567               0.000000000              -0.187500000               0.500000000               0.000000000              -0.025947013               0.130444442               0.000000000              -0.032137825               0.153541665               0.000000000              -0.038328636               0.176638887               0.000000000              -0.044519448               0.199736109               0.000000000              -0.050710260               0.222833332               0.000000000              -0.056901071               0.245930554               0.000000000              -0.063091883               0.269027776               0.000000000              -0.069282695               0.292124999               0.000000000              -0.075473506               0.315222221               0.000000000              -0.081664318               0.338319444               0.000000000              -0.087855130               0.361416666               0.000000000              -0.094045942               0.384513888               0.000000000              -0.100236753               0.407611111               0.000000000              -0.106427565               0.430708333               0.000000000              -0.112618377               0.453805555               0.000000000              -0.118809188               0.476902778               0.000000000              -0.125000000               0.500000000               0.000000000              -0.013036280               0.132359569               0.000000000              -0.016127762               0.155337096               0.000000000              -0.019219245               0.178314623               0.000000000              -0.022310727               0.201292150               0.000000000              -0.025402210               0.224269676               0.000000000              -0.028493692               0.247247203               0.000000000              -0.031585175               0.270224730               0.000000000              -0.034676657               0.293202257               0.000000000              -0.037768140               0.316179784               0.000000000              -0.040859622               0.339157311               0.000000000              -0.043951105               0.362134838               0.000000000              -0.047042587               0.385112365               0.000000000              -0.050134070               0.408089892               0.000000000              -0.053225552               0.431067419               0.000000000              -0.056317035               0.454044946               0.000000000              -0.059408517               0.477022473               0.000000000              -0.062500000               0.500000000               0.000000000               0.000000000               0.133000000               0.000000000               0.000000000               0.155937500               0.000000000               0.000000000               0.178875000               0.000000000               0.000000000               0.201812500               0.000000000               0.000000000               0.224750000               0.000000000               0.000000000               0.247687500               0.000000000               0.000000000               0.270625000               0.000000000               0.000000000               0.293562500               0.000000000               0.000000000               0.316500000               0.000000000               0.000000000               0.339437500               0.000000000               0.000000000               0.362375000               0.000000000               0.000000000               0.385312500               0.000000000               0.000000000               0.408250000               0.000000000               0.000000000               0.431187500               0.000000000               0.000000000               0.454125000               0.000000000               0.000000000               0.477062500               0.000000000               0.000000000               0.500000000               0.000000000 </DataArray>
</Points>
<Cells>
<DataArray type="Int32"                                    Name="connectivity"                                                      NumberOfComponents=" 1" format="ascii">
         0          1         18         17          1          2         19         18          2          3         20         19          3          4         21         20          4          5         22         21          5          6         23         22          6          7         24         23          7          8         25         24          8          9         26         25          9         10         27         26         10         11         28         27         11         12         29         28         12         13         30         29         13         14         31         30         14         15         32         31         15         16         33         32         17         18         35         34         18         19         36         35         19         20         37         36         20         21         38         37         21         22         39         38         22         23         40         39         23         24         41         40         24         25         42         41         25         26         43         42         26         27         44         43         27         28         45         44         28         29         46         45         29         30         47         46         30         31         48         47         31         32         49         48         32         33         50         49         34         35         52         51         35         36         53         52         36         37         54         53         37         38         55         54         38         39         56         55         39         40         57         56         40         41         58         57         41         42         59         58         42         43         60         59         43         44         61         60         44         45         62         61         45         46         63         62         46         47         64         63         47         48         65         64         48         49         66         65         49         50         67         66         51         52         69         68         52         53         70         69         53         54         71         70         54         55         72         71         55         56         73         72         56         57         74         73         57         58         75         74         58         59         76         75         59         60         77         76         60         61         78         77         61         62         79         78         62         63         80         79         63         64         81         80         64         65         82         81         65         66         83         82         66         67         84         83         68         69         86         85         69         70         87         86         70         71         88         87         71         72         89         88         72         73         90         89         73         74         91         90         74         75         92         91         75         76         93         92         76         77         94         93         77         78         95         94         78         79         96         95         79         80         97         96         80         81         98         97         81         82         99         98         82         83        100         99         83         84        101        100         85         86        103        102         86         87        104        103         87         88        105        104         88         89        106        105         89         90        107        106         90         91        108        107         91         92        109        108         92         93        110        109         93         94        111        110         94         95        112        111         95         96        113        112         96         97        114        113         97         98        115        114         98         99        116        115         99        100        117        116        100        101        118        117        102        103        120        119        103        104        121        120        104        105        122        121        105        106        123        122        106        107        124        123        107        108        125        124        108        109        126        125        109        110        127        126        110        111        128        127        111        112        129        128        112        113        130        129        113        114        131        130        114        115        132        131        115        116        133        132        116        117        134        133        117        118        135        134        119        120        137        136        120        121        138        137        121        122        139        138        122        123        140        139        123        124        141        140        124        125        142        141        125        126        143        142        126        127        144        143        127        128        145        144        128        129        146        145        129        130        147        146        130        131        148        147        131        132        149        148        132        133        150        149        133        134        151        150        134        135        152        151        136        137        154        153        137        138        155        154        138        139        156        155        139        140        157        156        140        141        158        157        141        142        159        158        142        143        160        159        143        144        161        160        144        145        162        161        145        146        163        162        146        147        164        163        147        148        165        164        148        149        166        165        149        150        167        166        150        151        168        167        151        152        169        168        153        154        171        170        154        155        172        171        155        156        173        172        156        157        174        173        157        158        175        174        158        159        176        175        159        160        177        176        160        161        178        177        161        162        179        178        162        163        180        179        163        164        181        180        164        165        182        181        165        166        183        182        166        167        184        183        167        168        185        184        168        169        186        185        170        171        188        187        171        172        189        188        172        173        190        189        173        174        191        190        174        175        192        191        175        176        193        192        176        177        194        193        177        178        195        194        178        179        196        195        179        180        197        196        180        181        198        197        181        182        199        198        182        183        200        199        183        184        201        200        184        185        202        201        185        186        203        202        187        188        205        204        188        189        206        205        189        190        207        206        190        191        208        207        191        192        209        208        192        193        210        209        193        194        211        210        194        195        212        211        195        196        213        212        196        197        214        213        197        198        215        214        198        199        216        215        199        200        217        216        200        201        218        217        201        202        219        218        202        203        220        219        204        205        222        221        205        206        223        222        206        207        224        223        207        208        225        224        208        209        226        225        209        210        227        226        210        211        228        227        211        212        229        228        212        213        230        229        213        214        231        230        214        215        232        231        215        216        233        232        216        217        234        233        217        218        235        234        218        219        236        235        219        220        237        236        221        222        239        238        222        223        240        239        223        224        241        240        224        225        242        241        225        226        243        242        226        227        244        243        227        228        245        244        228        229        246        245        229        230        247        246        230        231        248        247        231        232        249        248        232        233        250        249        233        234        251        250        234        235        252        251        235        236        253        252        236        237        254        253        238        239        256        255        239        240        257        256        240        241        258        257        241        242        259        258        242        243        260        259        243        244        261        260        244        245        262        261        245        246        263        262        246        247        264        263        247        248        265        264        248        249        266        265        249        250        267        266        250        251        268        267        251        252        269        268        252        253        270        269        253        254        271        270        255        256        273        272        256        257        274        273        257        258        275        274        258        259        276        275        259        260        277        276        260        261        278        277        261        262        279        278        262        263        280        279        263        264        281        280        264        265        282        281        265        266        283        282        266        267        284        283        267        268        285        284        268        269        286        285        269        270        287        286        270        271        288        287        306        307          1          0        307        308          2          1        308        309          3          2        309        310          4          3        310        311          5          4        311        312          6          5        312        313          7          6        313        314          8          7        314        315          9          8        315        316         10          9        316        317         11         10        317        318         12         11        318        319         13         12        319        320         14         13        320        321         15         14        321        322         16         15        323        324        307        306        324        325        308        307        325        326        309        308        326        327        310        309        327        328        311        310        328        329        312        311        329        330        313        312        330        331        314        313        331        332        315        314        332        333        316        315        333        334        317        316        334        335        318        317        335        336        319        318        336        337        320        319        337        338        321        320        338        339        322        321        340        341        324        323        341        342        325        324        342        343        326        325        343        344        327        326        344        345        328        327        345        346        329        328        346        347        330        329        347        348        331        330        348        349        332        331        349        350        333        332        350        351        334        333        351        352        335        334        352        353        336        335        353        354        337        336        354        355        338        337        355        356        339        338        357        358        341        340        358        359        342        341        359        360        343        342        360        361        344        343        361        362        345        344        362        363        346        345        363        364        347        346        364        365        348        347        365        366        349        348        366        367        350        349        367        368        351        350        368        369        352        351        369        370        353        352        370        371        354        353        371        372        355        354        372        373        356        355        374        375        358        357        375        376        359        358        376        377        360        359        377        378        361        360        378        379        362        361        379        380        363        362        380        381        364        363        381        382        365        364        382        383        366        365        383        384        367        366        384        385        368        367        385        386        369        368        386        387        370        369        387        388        371        370        388        389        372        371        389        390        373        372        391        392        375        374        392        393        376        375        393        394        377        376        394        395        378        377        395        396        379        378        396        397        380        379        397        398        381        380        398        399        382        381        399        400        383        382        400        401        384        383        401        402        385        384        402        403        386        385        403        404        387        386        404        405        388        387        405        406        389        388        406        407        390        389        408        409        392        391        409        410        393        392        410        411        394        393        411        412        395        394        412        413        396        395        413        414        397        396        414        415        398        397        415        416        399        398        416        417        400        399        417        418        401        400        418        419        402        401        419        420        403        402        420        421        404        403        421        422        405        404        422        423        406        405        423        424        407        406        425        426        409        408        426        427        410        409        427        428        411        410        428        429        412        411        429        430        413        412        430        431        414        413        431        432        415        414        432        433        416        415        433        434        417        416        434        435        418        417        435        436        419        418        436        437        420        419        437        438        421        420        438        439        422        421        439        440        423        422        440        441        424        423        442        443        426        425        443        444        427        426        444        445        428        427        445        446        429        428        446        447        430        429        447        448        431        430        448        449        432        431        449        450        433        432        450        451        434        433        451        452        435        434        452        453        436        435        453        454        437        436        454        455        438        437        455        456        439        438        456        457        440        439        457        458        441        440        459        460        443        442        460        461        444        443        461        462        445        444        462        463        446        445        463        464        447        446        464        465        448        447        465        466        449        448        466        467        450        449        467        468        451        450        468        469        452        451        469        470        453        452        470        471        454        453        471        472        455        454        472        473        456        455        473        474        457        456        474        475        458        457        476        477        460        459        477        478        461        460        478        479        462        461        479        480        463        462        480        481        464        463        481        482        465        464        482        483        466        465        483        484        467        466        484        485        468        467        485        486        469        468        486        487        470        469        487        488        471        470        488        489        472        471        489        490        473        472        490        491        474        473        491        492        475        474        493        494        477        476        494        495        478        477        495        496        479        478        496        497        480        479        497        498        481        480        498        499        482        481        499        500        483        482        500        501        484        483        501        502        485        484        502        503        486        485        503        504        487        486        504        505        488        487        505        506        489        488        506        507        490        489        507        508        491        490        508        509        492        491        510        511        494        493        511        512        495        494        512        513        496        495        513        514        497        496        514        515        498        497        515        516        499        498        516        517        500        499        517        518        501        500        518        519        502        501        519        520        503        502        520        521        504        503        521        522        505        504        522        523        506        505        523        524        507        506        524        525        508        507        525        526        509        508        527        528        511        510        528        529        512        511        529        530        513        512        530        531        514        513        531        532        515        514        532        533        516        515        533        534        517        516        534        535        518        517        535        536        519        518        536        537        520        519        537        538        521        520        538        539        522        521        539        540        523        522        540        541        524        523        541        542        525        524        542        543        526        525        544        545        528        527        545        546        529        528        546        547        530        529        547        548        531        530        548        549        532        531        549        550        533        532        550        551        534        533        551        552        535        534        552        553        536        535        553        554        537        536        554        555        538        537        555        556        539        538        556        557        540        539        557        558        541        540        558        559        542        541        559        560        543        542        561        562        545        544        562        563        546        545        563        564        547        546        564        565        548        547        565        566        549        548        566        567        550        549        567        568        551        550        568        569        552        551        569        570        553        552        570        571        554        553        571        572        555        554        572        573        556        555        573        574        557        556        574        575        558        557        575        576        559        558        576        577        560        559        578        579        596        595        579        580        597        596        580        581        598        597        581        582        599        598        582        583        600        599        583        584        601        600        584        585        602        601        585        586        603        602        586        587        604        603        587        588        605        604        588        589        606        605        589        590        607        606        590        591        608        607        591        592        609        608        592        593        610        609        593        594        611        610        595        596        613        612        596        597        614        613        597        598        615        614        598        599        616        615        599        600        617        616        600        601        618        617        601        602        619        618        602        603        620        619        603        604        621        620        604        605        622        621        605        606        623        622        606        607        624        623        607        608        625        624        608        609        626        625        609        610        627        626        610        611        628        627        612        613        630        629        613        614        631        630        614        615        632        631        615        616        633        632        616        617        634        633        617        618        635        634        618        619        636        635        619        620        637        636        620        621        638        637        621        622        639        638        622        623        640        639        623        624        641        640        624        625        642        641        625        626        643        642        626        627        644        643        627        628        645        644        629        630        647        646        630        631        648        647        631        632        649        648        632        633        650        649        633        634        651        650        634        635        652        651        635        636        653        652        636        637        654        653        637        638        655        654        638        639        656        655        639        640        657        656        640        641        658        657        641        642        659        658        642        643        660        659        643        644        661        660        644        645        662        661        646        647        664        663        647        648        665        664        648        649        666        665        649        650        667        666        650        651        668        667        651        652        669        668        652        653        670        669        653        654        671        670        654        655        672        671        655        656        673        672        656        657        674        673        657        658        675        674        658        659        676        675        659        660        677        676        660        661        678        677        661        662        679        678        663        664        681        680        664        665        682        681        665        666        683        682        666        667        684        683        667        668        685        684        668        669        686        685        669        670        687        686        670        671        688        687        671        672        689        688        672        673        690        689        673        674        691        690        674        675        692        691        675        676        693        692        676        677        694        693        677        678        695        694        678        679        696        695        680        681        698        697        681        682        699        698        682        683        700        699        683        684        701        700        684        685        702        701        685        686        703        702        686        687        704        703        687        688        705        704        688        689        706        705        689        690        707        706        690        691        708        707        691        692        709        708        692        693        710        709        693        694        711        710        694        695        712        711        695        696        713        712        697        698        715        714        698        699        716        715        699        700        717        716        700        701        718        717        701        702        719        718        702        703        720        719        703        704        721        720        704        705        722        721        705        706        723        722        706        707        724        723        707        708        725        724        708        709        726        725        709        710        727        726        710        711        728        727        711        712        729        728        712        713        730        729        714        715        732        731        715        716        733        732        716        717        734        733        717        718        735        734        718        719        736        735        719        720        737        736        720        721        738        737        721        722        739        738        722        723        740        739        723        724        741        740        724        725        742        741        725        726        743        742        726        727        744        743        727        728        745        744        728        729        746        745        729        730        747        746        731        732        749        748        732        733        750        749        733        734        751        750        734        735        752        751        735        736        753        752        736        737        754        753        737        738        755        754        738        739        756        755        739        740        757        756        740        741        758        757        741        742        759        758        742        743        760        759        743        744        761        760        744        745        762        761        745        746        763        762        746        747        764        763        748        749        766        765        749        750        767        766        750        751        768        767        751        752        769        768        752        753        770        769        753        754        771        770        754        755        772        771        755        756        773        772        756        757        774        773        757        758        775        774        758        759        776        775        759        760        777        776        760        761        778        777        761        762        779        778        762        763        780        779        763        764        781        780        765        766        783        782        766        767        784        783        767        768        785        784        768        769        786        785        769        770        787        786        770        771        788        787        771        772        789        788        772        773        790        789        773        774        791        790        774        775        792        791        775        776        793        792        776        777        794        793        777        778        795        794        778        779        796        795        779        780        797        796        780        781        798        797        782        783        800        799        783        784        801        800        784        785        802        801        785        786        803        802        786        787        804        803        787        788        805        804        788        789        806        805        789        790        807        806        790        791        808        807        791        792        809        808        792        793        810        809        793        794        811        810        794        795        812        811        795        796        813        812        796        797        814        813        797        798        815        814        799        800        817        816        800        801        818        817        801        802        819        818        802        803        820        819        803        804        821        820        804        805        822        821        805        806        823        822        806        807        824        823        807        808        825        824        808        809        826        825        809        810        827        826        810        811        828        827        811        812        829        828        812        813        830        829        813        814        831        830        814        815        832        831        816        817        834        833        817        818        835        834        818        819        836        835        819        820        837        836        820        821        838        837        821        822        839        838        822        823        840        839        823        824        841        840        824        825        842        841        825        826        843        842        826        827        844        843        827        828        845        844        828        829        846        845        829        830        847        846        830        831        848        847        831        832        849        848        833        834        562        561        834        835        563        562        835        836        564        563        836        837        565        564        837        838        566        565        838        839        567        566        839        840        568        567        840        841        569        568        841        842        570        569        842        843        571        570        843        844        572        571        844        845        573        572        845        846        574        573        846        847        575        574        847        848        576        575        848        849        577        576        884        885        579        578        885        886        580        579        886        887        581        580        887        888        582        581        888        889        583        582        889        890        584        583        890        891        585        584        891        892        586        585        892        893        587        586        893        894        588        587        894        895        589        588        895        896        590        589        896        897        591        590        897        898        592        591        898        899        593        592        899        900        594        593        901        902        885        884        902        903        886        885        903        904        887        886        904        905        888        887        905        906        889        888        906        907        890        889        907        908        891        890        908        909        892        891        909        910        893        892        910        911        894        893        911        912        895        894        912        913        896        895        913        914        897        896        914        915        898        897        915        916        899        898        916        917        900        899        918        919        902        901        919        920        903        902        920        921        904        903        921        922        905        904        922        923        906        905        923        924        907        906        924        925        908        907        925        926        909        908        926        927        910        909        927        928        911        910        928        929        912        911        929        930        913        912        930        931        914        913        931        932        915        914        932        933        916        915        933        934        917        916        935        936        919        918        936        937        920        919        937        938        921        920        938        939        922        921        939        940        923        922        940        941        924        923        941        942        925        924        942        943        926        925        943        944        927        926        944        945        928        927        945        946        929        928        946        947        930        929        947        948        931        930        948        949        932        931        949        950        933        932        950        951        934        933        952        953        936        935        953        954        937        936        954        955        938        937        955        956        939        938        956        957        940        939        957        958        941        940        958        959        942        941        959        960        943        942        960        961        944        943        961        962        945        944        962        963        946        945        963        964        947        946        964        965        948        947        965        966        949        948        966        967        950        949        967        968        951        950        969        970        953        952        970        971        954        953        971        972        955        954        972        973        956        955        973        974        957        956        974        975        958        957        975        976        959        958        976        977        960        959        977        978        961        960        978        979        962        961        979        980        963        962        980        981        964        963        981        982        965        964        982        983        966        965        983        984        967        966        984        985        968        967        986        987        970        969        987        988        971        970        988        989        972        971        989        990        973        972        990        991        974        973        991        992        975        974        992        993        976        975        993        994        977        976        994        995        978        977        995        996        979        978        996        997        980        979        997        998        981        980        998        999        982        981        999       1000        983        982       1000       1001        984        983       1001       1002        985        984       1003       1004        987        986       1004       1005        988        987       1005       1006        989        988       1006       1007        990        989       1007       1008        991        990       1008       1009        992        991       1009       1010        993        992       1010       1011        994        993       1011       1012        995        994       1012       1013        996        995       1013       1014        997        996       1014       1015        998        997       1015       1016        999        998       1016       1017       1000        999       1017       1018       1001       1000       1018       1019       1002       1001       1020       1021       1004       1003       1021       1022       1005       1004       1022       1023       1006       1005       1023       1024       1007       1006       1024       1025       1008       1007       1025       1026       1009       1008       1026       1027       1010       1009       1027       1028       1011       1010       1028       1029       1012       1011       1029       1030       1013       1012       1030       1031       1014       1013       1031       1032       1015       1014       1032       1033       1016       1015       1033       1034       1017       1016       1034       1035       1018       1017       1035       1036       1019       1018       1037       1038       1021       1020       1038       1039       1022       1021       1039       1040       1023       1022       1040       1041       1024       1023       1041       1042       1025       1024       1042       1043       1026       1025       1043       1044       1027       1026       1044       1045       1028       1027       1045       1046       1029       1028       1046       1047       1030       1029       1047       1048       1031       1030       1048       1049       1032       1031       1049       1050       1033       1032       1050       1051       1034       1033       1051       1052       1035       1034       1052       1053       1036       1035       1054       1055       1038       1037       1055       1056       1039       1038       1056       1057       1040       1039       1057       1058       1041       1040       1058       1059       1042       1041       1059       1060       1043       1042       1060       1061       1044       1043       1061       1062       1045       1044       1062       1063       1046       1045       1063       1064       1047       1046       1064       1065       1048       1047       1065       1066       1049       1048       1066       1067       1050       1049       1067       1068       1051       1050       1068       1069       1052       1051       1069       1070       1053       1052       1071       1072       1055       1054       1072       1073       1056       1055       1073       1074       1057       1056       1074       1075       1058       1057       1075       1076       1059       1058       1076       1077       1060       1059       1077       1078       1061       1060       1078       1079       1062       1061       1079       1080       1063       1062       1080       1081       1064       1063       1081       1082       1065       1064       1082       1083       1066       1065       1083       1084       1067       1066       1084       1085       1068       1067       1085       1086       1069       1068       1086       1087       1070       1069       1088       1089       1072       1071       1089       1090       1073       1072       1090       1091       1074       1073       1091       1092       1075       1074       1092       1093       1076       1075       1093       1094       1077       1076       1094       1095       1078       1077       1095       1096       1079       1078       1096       1097       1080       1079       1097       1098       1081       1080       1098       1099       1082       1081       1099       1100       1083       1082       1100       1101       1084       1083       1101       1102       1085       1084       1102       1103       1086       1085       1103       1104       1087       1086       1105       1106       1089       1088       1106       1107       1090       1089       1107       1108       1091       1090       1108       1109       1092       1091       1109       1110       1093       1092       1110       1111       1094       1093       1111       1112       1095       1094       1112       1113       1096       1095       1113       1114       1097       1096       1114       1115       1098       1097       1115       1116       1099       1098       1116       1117       1100       1099       1117       1118       1101       1100       1118       1119       1102       1101       1119       1120       1103       1102       1120       1121       1104       1103       1122       1123       1106       1105       1123       1124       1107       1106       1124       1125       1108       1107       1125       1126       1109       1108       1126       1127       1110       1109       1127       1128       1111       1110       1128       1129       1112       1111       1129       1130       1113       1112       1130       1131       1114       1113       1131       1132       1115       1114       1132       1133       1116       1115       1133       1134       1117       1116       1134       1135       1118       1117       1135       1136       1119       1118       1136       1137       1120       1119       1137       1138       1121       1120        272        273       1123       1122        273        274       1124       1123        274        275       1125       1124        275        276       1126       1125        276        277       1127       1126        277        278       1128       1127        278        279       1129       1128        279        280       1130       1129        280        281       1131       1130        281        282       1132       1131        282        283       1133       1132        283        284       1134       1133        284        285       1135       1134        285        286       1136       1135        286        287       1137       1136        287        288       1138       1137 </DataArray>
<DataArray type="Int32"                                    Name="offsets"                                                      NumberOfComponents=" 1" format="ascii">
         4          8         12         16         20         24         28         32         36         40         44         48         52         56         60         64         68         72         76         80         84         88         92         96        100        104        108        112        116        120        124        128        132        136        140        144        148        152        156        160        164        168        172        176        180        184        188        192        196        200        204        208        212        216        220        224        228        232        236        240        244        248        252        256        260        264        268        272        276        280        284        288        292        296        300        304        308        312        316        320        324        328        332        336        340        344        348        352        356        360        364        368        372        376        380        384        388        392        396        400        404        408        412        416        420        424        428        432        436        440        444        448        452        456        460        464        468        472        476        480        484        488        492        496        500        504        508        512        516        520        524        528        532        536        540        544        548        552        556        560        564        568        572        576        580        584        588        592        596        600        604        608        612        616        620        624        628        632        636        640        644        648        652        656        660        664        668        672        676        680        684        688        692        696        700        704        708        712        716        720        724        728        732        736        740        744        748        752        756        760        764        768        772        776        780        784        788        792        796        800        804        808        812        816        820        824        828        832        836        840        844        848        852        856        860        864        868        872        876        880        884        888        892        896        900        904        908        912        916        920        924        928        932        936        940        944        948        952        956        960        964        968        972        976        980        984        988        992        996       1000       1004       1008       1012       1016       1020       1024       1028       1032       1036       1040       1044       1048       1052       1056       1060       1064       1068       1072       1076       1080       1084       1088       1092       1096       1100       1104       1108       1112       1116       1120       1124       1128       1132       1136       1140       1144       1148       1152       1156       1160       1164       1168       1172       1176       1180       1184       1188       1192       1196       1200       1204       1208       1212       1216       1220       1224       1228       1232       1236       1240       1244       1248       1252       1256       1260       1264       1268       1272       1276       1280       1284       1288       1292       1296       1300       1304       1308       1312       1316       1320       1324       1328       1332       1336       1340       1344       1348       1352       1356       1360       1364       1368       1372       1376       1380       1384       1388       1392       1396       1400       1404       1408       1412       1416       1420       1424       1428       1432       1436       1440       1444       1448       1452       1456       1460       1464       1468       1472       1476       1480       1484       1488       1492       1496       1500       1504       1508       1512       1516       1520       1524       1528       1532       1536       1540       1544       1548       1552       1556       1560       1564       1568       1572       1576       1580       1584       1588       1592       1596       1600       1604       1608       1612       1616       1620       1624       1628       1632       1636       1640       1644       1648       1652       1656       1660       1664       1668       1672       1676       1680       1684       1688       1692       1696       1700       1704       1708       1712       1716       1720       1724       1728       1732       1736       1740       1744       1748       1752       1756       1760       1764       1768       1772       1776       1780       1784       1788       1792       1796       1800       1804       1808       1812       1816       1820       1824       1828       1832       1836       1840       1844       1848       1852       1856       1860       1864       1868       1872       1876       1880       1884       1888       1892       1896       1900       1904       1908       1912       1916       1920       1924       1928       1932       1936       1940       1944       1948       1952       1956       1960       1964       1968       1972       1976       1980       1984       1988       1992       1996       2000       2004       2008       2012       2016       2020       2024       2028       2032       2036       2040       2044       2048       2052       2056       2060       2064       2068       2072       2076       2080       2084       2088       2092       2096       2100       2104       2108       2112       2116       2120       2124       2128       2132       2136       2140       2144       2148       2152       2156       2160       2164       2168       2172       2176       2180       2184       2188       2192       2196       2200       2204       2208       2212       2216       2220       2224       2228       2232       2236       2240       2244       2248       2252       2256       2260       2264       2268       2272       2276       2280       2284       2288       2292       2296       2300       2304       2308       2312       2316       2320       2324       2328       2332       2336       2340       2344       2348       2352       2356       2360       2364       2368       2372       2376       2380       2384       2388       2392       2396       2400       2404       2408       2412       2416       2420       2424       2428       2432       2436       2440       2444       2448       2452       2456       2460       2464       2468       2472       2476       2480       2484       2488       2492       2496       2500       2504       2508       2512       2516       2520       2524       2528       2532       2536       2540       2544       2548       2552       2556       2560       2564       2568       2572       2576       2580       2584       2588       2592       2596       2600       2604       2608       2612       2616       2620       2624       2628       2632       2636       2640       2644       2648       2652       2656       2660       2664       2668       2672       2676       2680       2684       2688       2692       2696       2700       2704       2708       2712       2716       2720       2724       2728       2732       2736       2740       2744       2748       2752       2756       2760       2764       2768       2772       2776       2780       2784       2788       2792       2796       2800       2804       2808       2812       2816       2820       2824       2828       2832       2836       2840       2844       2848       2852       2856       2860       2864       2868       2872       2876       2880       2884       2888       2892       2896       2900       2904       2908       2912       2916       2920       2924       2928       2932       2936       2940       2944       2948       2952       2956       2960       2964       2968       2972       2976       2980       2984       2988       2992       2996       3000       3004       3008       3012       3016       3020       3024       3028       3032       3036       3040       3044       3048       3052       3056       3060       3064       3068       3072       3076       3080       3084       3088       3092       3096       3100       3104       3108       3112       3116       3120       3124       3128       3132       3136       3140       3144       3148       3152       3156       3160       3164       3168       3172       3176       3180       3184       3188       3192       3196       3200       3204       3208       3212       3216       3220       3224       3228       3232       3236       3240       3244       3248       3252       3256       3260       3264       3268       3272       3276       3280       3284       3288       3292       3296       3300       3304       3308       3312       3316       3320       3324       3328       3332       3336       3340       3344       3348       3352       3356       3360       3364       3368       3372       3376       3380       3384       3388       3392       3396       3400       3404       3408       3412       3416       3420       3424       3428       3432       3436       3440       3444       3448       3452       3456       3460       3464       3468       3472       3476       3480       3484       3488       3492       3496       3500       3504       3508       3512       3516       3520       3524       3528       3532       3536       3540       3544       3548       3552       3556       3560       3564       3568       3572       3576       3580       3584       3588       3592       3596       3600       3604       3608       3612       3616       3620       3624       3628       3632       3636       3640       3644       3648       3652       3656       3660       3664       3668       3672       3676       3680       3684       3688       3692       3696       3700       3704       3708       3712       3716       3720       3724       3728       3732       3736       3740       3744       3748       3752       3756       3760       3764       3768       3772       3776       3780       3784       3788       3792       3796       3800       3804       3808       3812       3816       3820       3824       3828       3832       3836       3840       3844       3848       3852       3856       3860       3864       3868       3872       3876       3880       3884       3888       3892       3896       3900       3904       3908       3912       3916       3920       3924       3928       3932       3936       3940       3944       3948       3952       3956       3960       3964       3968       3972       3976       3980       3984       3988       3992       3996       4000       4004       4008       4012       4016       4020       4024       4028       4032       4036       4040       4044       4048       4052       4056       4060       4064       4068       4072       4076       4080       4084       4088       4092       4096 </DataArray>
<DataArray type="UInt8"                                    Name="types"                                                      NumberOfComponents=" 1" format="ascii">
         9          9          9          9          9          9          9          9          9          9          9          9          9          9          9          9          9          9          9          9          9          9          9          9          9          9          9          9          9          9          9          9          9          9          9          9          9          9          9          9          9          9          9          9          9          9          9          9          9          9          9          9          9          9          9          9          9          9          9          9          9          9          9          9          9          9          9          9          9          9          9          9          9          9          9          9          9          9          9          9          9          9          9          9          9          9          9          9          9          9          9          9          9          9          9          9          9          9          9          9          9          9          9          9          9          9          9          9          9          9          9          9          9          9          9          9          9          9          9          9          9          9          9          9          9          9          9          9          9          9          9          9          9          9          9          9          9          9          9          9          9          9          9          9          9          9          9          9          9          9          9          9          9          9          9          9          9          9          9          9          9          9          9          9          9          9          9          9          9          9          9          9          9          9          9          9          9          9          9          9          9          9          9          9          9          9          9          9          9          9          9          9          9          9          9          9          9          9          9          9          9          9          9          9          9          9          9          9          9          9          9          9          9          9          9          9          9          9          9          9          9          9          9          9          9          9          9          9          9          9          9          9          9          9          9          9          9          9          9          9          9          9          9          9          9          9          9          9          9          9          9          9          9          9          9          9          9          9          9          9          9          9          9          9          9          9          9          9          9          9          9          9          9          9          9          9          9          9          9          9          9          9          9          9          9          9          9          9          9          9          9          9          9          9          9          9          9          9          9          9          9          9          9          9          9          9          9          9          9          9          9          9          9          9          9          9          9          9          9          9          9          9          9          9          9          9          9          9          9          9          9          9          9          9          9          9          9          9          9          9          9          9          9          9          9          9          9          9          9          9          9          9          9          9          9          9          9          9          9          9          9          9          9          9          9          9          9          9          9          9          9          9          9          9          9          9          9          9          9          9          9          9          9          9          9          9          9          9          9          9          9          9          9          9          9          9          9          9          9          9          9          9          9          9          9          9          9          9          9          9          9          9          9          9          9          9          9          9          9          9          9          9          9          9          9          9          9          9          9          9          9          9          9          9          9          9          9          9          9          9          9          9          9          9          9          9          9          9          9          9          9          9          9          9          9          9          9          9          9          9          9          9          9          9          9          9          9          9          9          9          9          9          9          9          9          9          9          9          9          9          9          9          9          9          9          9          9          9          9          9          9          9          9          9          9          9          9          9          9          9          9          9          9          9          9          9          9          9          9          9          9          9          9          9          9          9          9          9          9          9          9          9          9          9          9          9          9          9          9          9          9          9          9          9          9          9          9          9          9          9          9          9          9          9          9          9          9          9          9          9          9          9          9          9          9          9          9          9          9          9          9          9          9          9          9          9          9          9          9          9          9          9          9          9          9          9          9          9          9          9          9          9          9          9          9          9          9          9          9          9          9          9          9          9          9          9          9          9          9          9          9          9          9          9          9          9          9          9          9          9          9          9          9          9          9          9          9          9          9          9          9          9          9          9          9          9          9          9          9          9          9          9          9          9          9          9          9          9          9          9          9          9          9          9          9          9          9          9          9          9          9          9          9          9          9          9          9          9          9          9          9          9          9          9          9          9          9          9          9          9          9          9          9          9          9          9          9          9          9          9          9          9          9          9          9          9          9          9          9          9          9          9          9          9          9          9          9          9          9          9          9          9          9          9          9          9          9          9          9          9          9          9          9          9          9          9          9          9          9          9          9          9          9          9          9          9          9          9          9          9          9          9          9          9          9          9          9          9          9          9          9          9          9          9          9          9          9          9          9          9          9          9          9          9          9          9          9          9          9          9          9          9          9          9          9          9          9          9          9          9          9          9          9          9          9          9          9          9          9          9          9          9          9          9          9          9          9          9          9          9          9          9          9          9          9          9          9          9          9          9          9          9          9          9          9          9          9          9          9          9          9          9          9          9          9          9          9          9          9          9          9          9          9          9          9          9          9          9          9          9          9          9          9          9          9          9          9          9          9          9          9          9          9          9          9          9          9          9          9          9          9          9          9          9          9          9          9          9          9          9          9          9          9          9          9          9          9          9          9          9          9          9          9          9          9          9          9          9          9          9          9          9          9          9          9          9          9          9          9          9          9          9          9          9          9          9          9          9          9          9          9          9          9          9          9          9          9          9          9          9          9          9          9          9          9          9          9          9          9          9          9          9          9          9          9          9          9          9          9          9          9          9          9          9          9          9          9          9          9          9          9          9          9          9          9          9          9          9          9          9          9          9          9          9          9          9          9          9          9          9          9          9          9          9          9          9          9          9          9          9          9          9          9          9          9          9          9          9          9          9          9          9          9          9          9          9          9          9          9          9          9          9          9          9          9          9          9          9          9          9          9          9          9          9          9          9          9          9          9          9          9          9          9          9          9          9          9          9          9          9          9          9          9          9 </DataArray>
</Cells>
<CellData>
<DataArray type="Int32"                                    Name="material"                                                      NumberOfComponents=" 1" format="ascii">
         1          1          1          1          1          1          1          1          1          1          1          1          1          1          1          1          1          1          1          1          1          1          1          1          1          1          1          1          1          1          1          1          1          1          1          1          1          1          1          1          1          1          1          1          1          1          1          1          1          1          1          1          1          1          1          1          1          1          1          1          1          1          1          1          1          1          1          1          1          1          1          1          1          1          1          1          1          1          1          1          1          1          1          1          1          1          1          1          1          1          1          1          1          1          1          1          1          1          1          1          1          1          1          1          1          1          1          1          1          1          1          1          1          1          1          1          1          1          1          1          1          1          1          1          1          1          1          1          1          1          1          1          1          1          1          1          1          1          1          1          1          1          1          1          1          1          1          1          1          1          1          1          1          1          1          1          1          1          1          1          1          1          1          1          1          1          1          1          1          1          1          1          1          1          1          1          1          1          1          1          1          1          1          1          1          1          1          1          1          1          1          1          1          1          1          1          1          1          1          1          1          1          1          1          1          1          1          1          1          1          1          1          1          1          1          1          1          1          1          1          1          1          1          1          1          1          1          1          1          1          1          1          1          1          1          1          1          1          1          1          1          1          1          1          1          1          1          1          1          1          1          1          1          1          1          1          1          1          1          1          1          1          1          1          1          1          1          1          1          1          1          1          1          1          1          1          1          1          1          1          1          1          1          1          1          1          1          1          1          1          1          1          1          1          1          1          1          1          1          1          1          1          1          1          1          1          1          1          1          1          1          1          1          1          1          1          1          1          1          1          1          1          1          1          1          1          1          1          1          1          1          1          1          1          1          1          1          1          1          1          1          1          1          1          1          1          1          1          1          1          1          1          1          1          1          1          1          1          1          1          1          1          1          1          1          1          1          1          1          1          1          1          1          1          1          1          1          1          1          1          1          1          1          1          1          1          1          1          1          1          1          1          1          1          1          1          1          1          1          1          1          1          1          1          1          1          1          1          1          1          1          1          1          1          1          1          1          1          1          1          1          1          1          1          1          1          1          1          1          1          1          1          1          1          1          1          1          1          1          1          1          1          1          1          1          1          1          1          1          1          1          1          1          1          1          1          1          1          1          1          1          1          1          1          1          1          1          1          1          1          1          1          1          1          1          1          1          1          1          1          1          1          1          1          1          1          1          1          1          1          1          1          1          1          1          1          1          1          1          1          1          1          1          1          1          1          1          1          1          1          1          1          1          1          1          1          1          1          1          1          1          1          1          1          1          1          1          1          1          1          1          1          1          1          1          1          1          1          1          1          1          1          1          1          1          1          1          1          1          1          1          1          1          1          1          1          1          1          1          1          1          1          1          1          1          1          1          1          1          1          1          1          1          1          1          1          1          1          1          1          1          1          1          1          1          1          1          1          1          1          1          1          1          1          1          1          1          1          1          1          1          1          1          1          1          1          1          1          1          1          1          1          1          1          1          1          1          1          1          1          1          1          1          1          1          1          1          1          1          1          1          1          1          1          1          1          1          1          1          1          1          1          1          1          1          1          1          1          1          1          1          1          1          1          1          1          1          1          1          1          1          1          1          1          1          1          1          1          1          1          1          1          1          1          1          1          1          1          1          1          1          1          1          1          1          1          1          1          1          1          1          1          1          1          1          1          1          1          1          1          1          1          1          1          1          1          1          1          1          1          1          1          1          1          1          1          1          1          1          1          1          1          1          1          1          1          1          1          1          1          1          1          1          1          1          1          1          1          1          1          1          1          1          1          1          1          1          1          1          1          1          1          1          1          1          1          1          1          1          1          1          1          1          1          1          1          1          1          1          1          1          1          1          1          1          1          1          1          1          1          1          1          1          1          1          1          1          1          1          1          1          1          1          1          1          1          1          1          1          1          1          1          1          1          1          1          1          1          1          1          1          1          1          1          1          1          1          1          1          1          1          1          1          1          1          1          1          1          1          1          1          1          1          1          1          1          1          1          1          1          1          1          1          1          1          1          1          1          1          1          1          1          1          1          1          1          1          1          1          1          1          1          1          1          1          1          1          1          1          1          1          1          1          1          1          1          1          1          1          1          1          1          1          1          1          1          1          1          1          1          1          1          1          1          1          1          1          1          1          1          1          1          1          1          1          1          1          1          1          1          1          1          1          1          1          1          1          1          1          1          1          1          1          1          1          1          1          1          1          1          1          1          1          1          1          1          1          1          1          1          1          1          1          1          1          1          1          1          1          1          1          1          1          1          1          1          1          1          1          1          1          1          1          1          1          1          1          1          1          1          1          1          1          1          1          1          1          1          1          1          1          1          1          1          1          1          1          1          1          1          1          1          1          1          1          1          1          1          1          1          1          1          1          1          1          1          1          1          1          1          1          1          1          1          1          1          1          1          1          1          1          1          1          1 </DataArray>
</CellData>
<PointData>
<DataArray type="Float64"                                    Name="u"                                                      NumberOfComponents=" 3" format="ascii">
             -0.000053232               0.000000000               0.999999995              -0.000072023               0.000000000               0.999999995              -0.000080955               0.000000000               0.999999995              -0.000086208               0.000000000               0.999999995              -0.000090266               0.000000000               0.999999995              -0.000094160               0.000000000               0.999999995              -0.000098411              -0.000000000               0.999999995              -0.000103292               0.000000000               0.999999995              -0.000108852               0.000000000               0.999999995              -0.000115157               0.000000000               0.999999995              -0.000122363              -0.000000000               0.999999995              -0.000130407              -0.000000000               0.999999995              -0.000139237               0.000000000               0.999999995              -0.000148823               0.000000000               0.999999995              -0.000159085               0.000000000               0.999999995              -0.000169901               0.000000000               0.999999995              -0.000181086               0.000000000               0.999999995              -0.000052809               0.000047073               0.999999995              -0.000070765               0.000041301               0.999999995              -0.000079242               0.000039765               0.999999995              -0.000084240               0.000040467               0.999999995              -0.000088153               0.000042535               0.999999995              -0.000092010               0.000045348               0.999999995              -0.000096293               0.000048699               0.999999995              -0.000101222               0.000052508               0.999999995              -0.000106916               0.000056650               0.999999995              -0.000113406               0.000061088               0.999999995              -0.000120718               0.000065726               0.999999995              -0.000128858               0.000070513               0.999999995              -0.000137727               0.000075327               0.999999995              -0.000147276               0.000080140               0.999999995              -0.000157488               0.000084814               0.999999995              -0.000168205               0.000089174               0.999999995              -0.000179342               0.000093002               0.999999995              -0.000051723               0.000093648               0.999999995              -0.000067144               0.000082191               0.999999995              -0.000074194               0.000079322               0.999999995              -0.000078499               0.000080993               0.999999995              -0.000082201               0.000085290               0.999999995              -0.000086123               0.000091109               0.999999995              -0.000090653               0.000097927               0.999999995              -0.000095916               0.000105631               0.999999995              -0.000101972               0.000113979               0.999999995              -0.000108847               0.000122878               0.999999995              -0.000116499               0.000132144               0.999999995              -0.000124900               0.000141616               0.999999995              -0.000133937               0.000151250               0.999999995              -0.000143547               0.000160863               0.999999995              -0.000153719               0.000170396               0.999999995              -0.000164417               0.000179518               0.999999995              -0.000175670               0.000188096               0.999999995              -0.000049909               0.000139247               0.999999995              -0.000061272               0.000122278               0.999999995              -0.000066385               0.000118537               0.999999995              -0.000069997               0.000121532               0.999999995              -0.000073666               0.000128317               0.999999995              -0.000077883               0.000137332               0.999999995              -0.000082903               0.000147826               0.999999995              -0.000088731               0.000159473               0.999999995              -0.000095375               0.000172061               0.999999995              -0.000102807               0.000185453               0.999999995              -0.000110928               0.000199386               0.999999995              -0.000119722               0.000213587               0.999999995              -0.000129103               0.000228069               0.999999995              -0.000139049               0.000242714               0.999999995              -0.000149605               0.000257483               0.999999995              -0.000160809               0.000272295               0.999999995              -0.000172730               0.000286930               0.999999995              -0.000047396               0.000183327               0.999999995              -0.000053615               0.000161256               0.999999995              -0.000056688               0.000157277               0.999999995              -0.000059791               0.000162054               0.999999995              -0.000063698               0.000171616               0.999999995              -0.000068497               0.000183961               0.999999995              -0.000074294               0.000198206               0.999999995              -0.000081003               0.000213864               0.999999995              -0.000088568               0.000230754               0.999999995              -0.000096840               0.000248667               0.999999995              -0.000105803               0.000267208               0.999999995              -0.000115459               0.000286234               0.999999995              -0.000125817               0.000305715               0.999999995              -0.000136858               0.000325637               0.999999995              -0.000148590               0.000345984               0.999999995              -0.000161014               0.000366816               0.999999995              -0.000174101               0.000388092               0.999999995              -0.000044397               0.000225339               0.999999995              -0.000044772               0.000198894               0.999999995              -0.000046037               0.000195242               0.999999995              -0.000049035               0.000202144               0.999999995              -0.000053579               0.000214639               0.999999995              -0.000059363               0.000230497               0.999999995              -0.000066343               0.000248622               0.999999995              -0.000074389               0.000268367               0.999999995              -0.000083249               0.000289483               0.999999995              -0.000092821               0.000311752               0.999999995              -0.000103154               0.000334919               0.999999995              -0.000114295               0.000358800               0.999999995              -0.000126194               0.000383267               0.999999995              -0.000138823               0.000408319               0.999999995              -0.000152085               0.000434065               0.999999995              -0.000165853               0.000460474               0.999999995              -0.000179929               0.000487382               0.999999995              -0.000041007               0.000264837               0.999999995              -0.000035281               0.000235043               0.999999995              -0.000035290               0.000232149               0.999999995              -0.000038742               0.000241393               0.999999995              -0.000044387               0.000256975               0.999999995              -0.000051612               0.000276358               0.999999995              -0.000060150               0.000298505               0.999999995              -0.000069716               0.000322354               0.999999995              -0.000080118               0.000347571               0.999999995              -0.000091343               0.000374202               0.999999995              -0.000103325               0.000401886               0.999999995              -0.000116139               0.000430460               0.999999995              -0.000129615               0.000459682               0.999999995              -0.000143682               0.000489601               0.999999995              -0.000158175               0.000520239               0.999999995              -0.000172885               0.000551450               0.999999995              -0.000187519               0.000582765               0.999999995              -0.000037305               0.000301424               0.999999995              -0.000025753               0.000269543               0.999999995              -0.000025221               0.000267755               0.999999995              -0.000029746               0.000279451               0.999999995              -0.000036919               0.000298150               0.999999995              -0.000045806               0.000321099               0.999999995              -0.000056006               0.000347205               0.999999995              -0.000067214               0.000375126               0.999999995              -0.000079236               0.000404391               0.999999995              -0.000092079               0.000435241               0.999999995              -0.000105740               0.000467269               0.999999995              -0.000120044               0.000500248               0.999999995              -0.000134892               0.000533937               0.999999995              -0.000150164               0.000568289               0.999999995              -0.000165624               0.000603254               0.999999995              -0.000181014               0.000638456               0.999999995              -0.000196037               0.000673483               0.999999995              -0.000033616               0.000334502               0.999999995              -0.000016591               0.000302314               0.999999995              -0.000016491               0.000301782               0.999999995              -0.000022480               0.000315853               0.999999995              -0.000031328               0.000337717               0.999999995              -0.000041913               0.000364288               0.999999995              -0.000053741               0.000394136               0.999999995              -0.000066482               0.000425992               0.999999995              -0.000080040               0.000459442               0.999999995              -0.000094459               0.000494470               0.999999995              -0.000109521               0.000530646               0.999999995              -0.000125095               0.000567724               0.999999995              -0.000141037               0.000605496               0.999999995              -0.000157248               0.000643801               0.999999995              -0.000173561               0.000682447               0.999999995              -0.000189706               0.000721025               0.999999995              -0.000205544               0.000759308               0.999999995              -0.000030380               0.000365282               0.999999995              -0.000009942               0.000336358               0.999999995              -0.000008121               0.000332899               0.999999995              -0.000013059               0.000343363               0.999999995              -0.000021013               0.000361914               0.999999995              -0.000030521               0.000385372               0.999999995              -0.000041070               0.000412229               0.999999995              -0.000052410               0.000441419               0.999999995              -0.000064388               0.000472261               0.999999995              -0.000077125               0.000504387               0.999999995              -0.000090377               0.000537684               0.999999995              -0.000103878               0.000571837               0.999999995              -0.000117687               0.000606676               0.999999995              -0.000131722               0.000642073               0.999999995              -0.000145977               0.000677915               0.999999995              -0.000160433               0.000714053               0.999999995              -0.000174920               0.000750158               0.999999995              -0.000026698               0.000392898               0.999999995              -0.000004864               0.000368626               0.999999995              -0.000001345               0.000364100               0.999999995              -0.000004913               0.000371677               0.999999995              -0.000011698               0.000387204               0.999999995              -0.000019903               0.000407814               0.999999995              -0.000029015               0.000431905               0.999999995              -0.000038922               0.000458475               0.999999995              -0.000049552               0.000486782               0.999999995              -0.000060526               0.000516492               0.999999995              -0.000071863               0.000547262               0.999999995              -0.000083399               0.000578877               0.999999995              -0.000095045               0.000611075               0.999999995              -0.000106593               0.000643795               0.999999995              -0.000118046               0.000677018               0.999999995              -0.000129630               0.000710676               0.999999995              -0.000141246               0.000744645               0.999999995              -0.000022778               0.000416803               0.999999995              -0.000001323               0.000398253               0.999999995               0.000003429               0.000394003               0.999999995               0.000001321               0.000399831               0.999999995              -0.000003951               0.000412911               0.999999995              -0.000010737               0.000431083               0.999999995              -0.000018469               0.000452722               0.999999995              -0.000026877               0.000476877               0.999999995              -0.000035834               0.000502991               0.999999995              -0.000045133               0.000530600               0.999999995              -0.000054664               0.000559230               0.999999995              -0.000064226               0.000588664               0.999999995              -0.000073606               0.000618748               0.999999995              -0.000082534               0.000649350               0.999999995              -0.000091048               0.000680340               0.999999995              -0.000099151               0.000711758               0.999999995              -0.000107029               0.000743572               0.999999995              -0.000018580               0.000436741               0.999999995               0.000000798               0.000424302               0.999999995               0.000006113               0.000421320               0.999999995               0.000005336               0.000426491               0.999999995               0.000001604               0.000437956               0.999999995              -0.000003784               0.000454130               0.999999995              -0.000010007               0.000473761               0.999999995              -0.000016714               0.000495961               0.999999995              -0.000023937               0.000520245               0.999999995              -0.000031601               0.000546030               0.999999995              -0.000039320               0.000572877               0.999999995              -0.000046925               0.000600682               0.999999995              -0.000054098               0.000629215               0.999999995              -0.000060599               0.000658224               0.999999995              -0.000066300               0.000687591               0.999999995              -0.000071186               0.000717277               0.999999995              -0.000075224               0.000747341               0.999999995              -0.000014167               0.000452374               0.999999995               0.000001641               0.000445670               0.999999995               0.000006747               0.000444596               0.999999995               0.000006942               0.000449856               0.999999995               0.000004501               0.000460503               0.999999995               0.000000510               0.000475418               0.999999995              -0.000004040               0.000493621               0.999999995              -0.000008981               0.000514413               0.999999995              -0.000014441               0.000537255               0.999999995              -0.000020382               0.000561626               0.999999995              -0.000026227               0.000587215               0.999999995              -0.000031791               0.000613846               0.999999995              -0.000036891               0.000641323               0.999999995              -0.000041302               0.000669369               0.999999995              -0.000044800               0.000697801               0.999999995              -0.000047192               0.000726419               0.999999995              -0.000048050               0.000755252               0.999999995              -0.000009565               0.000463623               0.999999995               0.000001570               0.000461547               0.999999995               0.000005629               0.000462488               0.999999995               0.000006215               0.000468228               0.999999995               0.000004756               0.000478592               0.999999995               0.000002155               0.000492925               0.999999995              -0.000000776               0.000510357               0.999999995              -0.000003943               0.000530259               0.999999995              -0.000007537               0.000552174               0.999999995              -0.000011487               0.000575738               0.999999995              -0.000015378               0.000600584               0.999999995              -0.000018988               0.000626566               0.999999995              -0.000022195               0.000653437               0.999999995              -0.000024833               0.000681006               0.999999995              -0.000026818               0.000709037               0.999999995              -0.000027683               0.000737312               0.999999995              -0.000026787               0.000765695               0.999999995              -0.000004810               0.000470440               0.999999995               0.000000929               0.000471341               0.999999995               0.000003169               0.000473737               0.999999995               0.000003608               0.000479967               0.999999995               0.000002982               0.000490359               0.999999995               0.000001686               0.000504544               0.999999995               0.000000232               0.000521702               0.999999995              -0.000001295               0.000541217               0.999999995              -0.000002999               0.000562682               0.999999995              -0.000004918               0.000585830               0.999999995              -0.000006864               0.000610299               0.999999995              -0.000008580               0.000635935               0.999999995              -0.000010106               0.000662487               0.999999995              -0.000011370               0.000689768               0.999999995              -0.000012207               0.000717610               0.999999995              -0.000012416               0.000745833               0.999999995              -0.000011504               0.000774185               0.999999995              -0.000000000               0.000472694               0.999999995              -0.000000000               0.000474613               0.999999995              -0.000000000               0.000477590               0.999999995               0.000000000               0.000484073               0.999999995              -0.000000000               0.000494441               0.999999995              -0.000000000               0.000508589               0.999999995               0.000000000               0.000525710               0.999999995              -0.000000000               0.000545126               0.999999995               0.000000000               0.000566454               0.999999995               0.000000000               0.000589423               0.999999995               0.000000000               0.000613817               0.999999995               0.000000000               0.000639347               0.999999995               0.000000000               0.000665764               0.999999995               0.000000000               0.000692911               0.999999995              -0.000000000               0.000720644               0.999999995              -0.000000000               0.000748814               0.999999995              -0.000000000               0.000777129               0.999999995              -0.000053232               0.000000000               0.999999995              -0.000072023               0.000000000               0.999999995              -0.000080955               0.000000000               0.999999995              -0.000086208               0.000000000               0.999999995              -0.000090266               0.000000000               0.999999995              -0.000094160               0.000000000               0.999999995              -0.000098411              -0.000000000               0.999999995              -0.000103292               0.000000000               0.999999995              -0.000108852               0.000000000               0.999999995              -0.000115157               0.000000000               0.999999995              -0.000122363              -0.000000000               0.999999995              -0.000130407              -0.000000000               0.999999995              -0.000139237               0.000000000               0.999999995              -0.000148823               0.000000000               0.999999995              -0.000159085               0.000000000               0.999999995              -0.000169901               0.000000000               0.999999995              -0.000181086               0.000000000               0.999999995              -0.000052809              -0.000047073               0.999999995              -0.000070765              -0.000041301               0.999999995              -0.000079242              -0.000039765               0.999999995              -0.000084240              -0.000040467               0.999999995              -0.000088153              -0.000042535               0.999999995              -0.000092010              -0.000045348               0.999999995              -0.000096293              -0.000048699               0.999999995              -0.000101222              -0.000052508               0.999999995              -0.000106916              -0.000056650               0.999999995              -0.000113406              -0.000061088               0.999999995              -0.000120718              -0.000065726               0.999999995              -0.000128858              -0.000070513               0.999999995              -0.000137727              -0.000075327               0.999999995              -0.000147276              -0.000080140               0.999999995              -0.000157488              -0.000084814               0.999999995              -0.000168205              -0.000089174               0.999999995              -0.000179342              -0.000093002               0.999999995              -0.000051723              -0.000093648               0.999999995              -0.000067144              -0.000082191               0.999999995              -0.000074194              -0.000079322               0.999999995              -0.000078499              -0.000080993               0.999999995              -0.000082201              -0.000085290               0.999999995              -0.000086123              -0.000091109               0.999999995              -0.000090653              -0.000097927               0.999999995              -0.000095916              -0.000105631               0.999999995              -0.000101972              -0.000113979               0.999999995              -0.000108847              -0.000122878               0.999999995              -0.000116499              -0.000132144               0.999999995              -0.000124900              -0.000141616               0.999999995              -0.000133937              -0.000151250               0.999999995              -0.000143547              -0.000160863               0.999999995              -0.000153719              -0.000170396               0.999999995              -0.000164417              -0.000179518               0.999999995              -0.000175670              -0.000188096               0.999999995              -0.000049909              -0.000139247               0.999999995              -0.000061272              -0.000122278               0.999999995              -0.000066385              -0.000118537               0.999999995              -0.000069997              -0.000121532               0.999999995              -0.000073666              -0.000128317               0.999999995              -0.000077883              -0.000137332               0.999999995              -0.000082903              -0.000147826               0.999999995              -0.000088731              -0.000159473               0.999999995              -0.000095375              -0.000172061               0.999999995              -0.000102807              -0.000185453               0.999999995              -0.000110928              -0.000199386               0.999999995              -0.000119722              -0.000213587               0.999999995              -0.000129103              -0.000228069               0.999999995              -0.000139049              -0.000242714               0.999999995              -0.000149605              -0.000257483               0.999999995              -0.000160809              -0.000272295               0.999999995              -0.000172730              -0.000286930               0.999999995              -0.000047396              -0.000183327               0.999999995              -0.000053615              -0.000161256               0.999999995              -0.000056688              -0.000157277               0.999999995              -0.000059791              -0.000162054               0.999999995              -0.000063698              -0.000171616               0.999999995              -0.000068497              -0.000183961               0.999999995              -0.000074294              -0.000198206               0.999999995              -0.000081003              -0.000213864               0.999999995              -0.000088568              -0.000230754               0.999999995              -0.000096840              -0.000248667               0.999999995              -0.000105803              -0.000267208               0.999999995              -0.000115459              -0.000286234               0.999999995              -0.000125817              -0.000305715               0.999999995              -0.000136858              -0.000325637               0.999999995              -0.000148590              -0.000345984               0.999999995              -0.000161014              -0.000366816               0.999999995              -0.000174101              -0.000388092               0.999999995              -0.000044397              -0.000225339               0.999999995              -0.000044772              -0.000198894               0.999999995              -0.000046037              -0.000195242               0.999999995              -0.000049035              -0.000202144               0.999999995              -0.000053579              -0.000214639               0.999999995              -0.000059363              -0.000230497               0.999999995              -0.000066343              -0.000248622               0.999999995              -0.000074389              -0.000268367               0.999999995              -0.000083249              -0.000289483               0.999999995              -0.000092821              -0.000311752               0.999999995              -0.000103154              -0.000334919               0.999999995              -0.000114295              -0.000358800               0.999999995              -0.000126194              -0.000383267               0.999999995              -0.000138823              -0.000408319               0.999999995              -0.000152085              -0.000434065               0.999999995              -0.000165853              -0.000460474               0.999999995              -0.000179929              -0.000487382               0.999999995              -0.000041007              -0.000264837               0.999999995              -0.000035281              -0.000235043               0.999999995              -0.000035290              -0.000232149               0.999999995              -0.000038742              -0.000241393               0.999999995              -0.000044387              -0.000256975               0.999999995              -0.000051612              -0.000276358               0.999999995              -0.000060150              -0.000298505               0.999999995              -0.000069716              -0.000322354               0.999999995              -0.000080118              -0.000347571               0.999999995              -0.000091343              -0.000374202               0.999999995              -0.000103325              -0.000401886               0.999999995              -0.000116139              -0.000430460               0.999999995              -0.000129615              -0.000459682               0.999999995              -0.000143682              -0.000489601               0.999999995              -0.000158175              -0.000520239               0.999999995              -0.000172885              -0.000551450               0.999999995              -0.000187519              -0.000582765               0.999999995              -0.000037305              -0.000301424               0.999999995              -0.000025753              -0.000269543               0.999999995              -0.000025221              -0.000267755               0.999999995              -0.000029746              -0.000279451               0.999999995              -0.000036919              -0.000298150               0.999999995              -0.000045806              -0.000321099               0.999999995              -0.000056006              -0.000347205               0.999999995              -0.000067214              -0.000375126               0.999999995              -0.000079236              -0.000404391               0.999999995              -0.000092079              -0.000435241               0.999999995              -0.000105740              -0.000467269               0.999999995              -0.000120044              -0.000500248               0.999999995              -0.000134892              -0.000533937               0.999999995              -0.000150164              -0.000568289               0.999999995              -0.000165624              -0.000603254               0.999999995              -0.000181014              -0.000638456               0.999999995              -0.000196037              -0.000673483               0.999999995              -0.000033616              -0.000334502               0.999999995              -0.000016591              -0.000302314               0.999999995              -0.000016491              -0.000301782               0.999999995              -0.000022480              -0.000315853               0.999999995              -0.000031328              -0.000337717               0.999999995              -0.000041913              -0.000364288               0.999999995              -0.000053741              -0.000394136               0.999999995              -0.000066482              -0.000425992               0.999999995              -0.000080040              -0.000459442               0.999999995              -0.000094459              -0.000494470               0.999999995              -0.000109521              -0.000530646               0.999999995              -0.000125095              -0.000567724               0.999999995              -0.000141037              -0.000605496               0.999999995              -0.000157248              -0.000643801               0.999999995              -0.000173561              -0.000682447               0.999999995              -0.000189706              -0.000721025               0.999999995              -0.000205544              -0.000759308               0.999999995              -0.000030380              -0.000365282               0.999999995              -0.000009942              -0.000336358               0.999999995              -0.000008121              -0.000332899               0.999999995              -0.000013059              -0.000343363               0.999999995              -0.000021013              -0.000361914               0.999999995              -0.000030521              -0.000385372               0.999999995              -0.000041070              -0.000412229               0.999999995              -0.000052410              -0.000441419               0.999999995              -0.000064388              -0.000472261               0.999999995              -0.000077125              -0.000504387               0.999999995              -0.000090377              -0.000537684               0.999999995              -0.000103878              -0.000571837               0.999999995              -0.000117687              -0.000606676               0.999999995              -0.000131722              -0.000642073               0.999999995              -0.000145977              -0.000677915               0.999999995              -0.000160433              -0.000714053               0.999999995              -0.000174920              -0.000750158               0.999999995              -0.000026698              -0.000392898               0.999999995              -0.000004864              -0.000368626               0.999999995              -0.000001345              -0.000364100               0.999999995              -0.000004913              -0.000371677               0.999999995              -0.000011698              -0.000387204               0.999999995              -0.000019903              -0.000407814               0.999999995              -0.000029015              -0.000431905               0.999999995              -0.000038922              -0.000458475               0.999999995              -0.000049552              -0.000486782               0.999999995              -0.000060526              -0.000516492               0.999999995              -0.000071863              -0.000547262               0.999999995              -0.000083399              -0.000578877               0.999999995              -0.000095045              -0.000611075               0.999999995              -0.000106593              -0.000643795               0.999999995              -0.000118046              -0.000677018               0.999999995              -0.000129630              -0.000710676               0.999999995              -0.000141246              -0.000744645               0.999999995              -0.000022778              -0.000416803               0.999999995              -0.000001323              -0.000398253               0.999999995               0.000003429              -0.000394003               0.999999995               0.000001321              -0.000399831               0.999999995              -0.000003951              -0.000412911               0.999999995              -0.000010737              -0.000431083               0.999999995              -0.000018469              -0.000452722               0.999999995              -0.000026877              -0.000476877               0.999999995              -0.000035834              -0.000502991               0.999999995              -0.000045133              -0.000530600               0.999999995              -0.000054664              -0.000559230               0.999999995              -0.000064226              -0.000588664               0.999999995              -0.000073606              -0.000618748               0.999999995              -0.000082534              -0.000649350               0.999999995              -0.000091048              -0.000680340               0.999999995              -0.000099151              -0.000711758               0.999999995              -0.000107029              -0.000743572               0.999999995              -0.000018580              -0.000436741               0.999999995               0.000000798              -0.000424302               0.999999995               0.000006113              -0.000421320               0.999999995               0.000005336              -0.000426491               0.999999995               0.000001604              -0.000437956               0.999999995              -0.000003784              -0.000454130               0.999999995              -0.000010007              -0.000473761               0.999999995              -0.000016714              -0.000495961               0.999999995              -0.000023937              -0.000520245               0.999999995              -0.000031601              -0.000546030               0.999999995              -0.000039320              -0.000572877               0.999999995              -0.000046925              -0.000600682               0.999999995              -0.000054098              -0.000629215               0.999999995              -0.000060599              -0.000658224               0.999999995              -0.000066300              -0.000687591               0.999999995              -0.000071186              -0.000717277               0.999999995              -0.000075224              -0.000747341               0.999999995              -0.000014167              -0.000452374               0.999999995               0.000001641              -0.000445670               0.999999995               0.000006747              -0.000444596               0.999999995               0.000006942              -0.000449856               0.999999995               0.000004501              -0.000460503               0.999999995               0.000000510              -0.000475418               0.999999995              -0.000004040              -0.000493621               0.999999995              -0.000008981              -0.000514413               0.999999995              -0.000014441              -0.000537255               0.999999995              -0.000020382              -0.000561626               0.999999995              -0.000026227              -0.000587215               0.999999995              -0.000031791              -0.000613846               0.999999995              -0.000036891              -0.000641323               0.999999995              -0.000041302              -0.000669369               0.999999995              -0.000044800              -0.000697801               0.999999995              -0.000047192              -0.000726419               0.999999995              -0.000048050              -0.000755252               0.999999995              -0.000009565              -0.000463623               0.999999995               0.000001570              -0.000461547               0.999999995               0.000005629              -0.000462488               0.999999995               0.000006215              -0.000468228               0.999999995               0.000004756              -0.000478592               0.999999995               0.000002155              -0.000492925               0.999999995              -0.000000776              -0.000510357               0.999999995              -0.000003943              -0.000530259               0.999999995              -0.000007537              -0.000552174               0.999999995              -0.000011487              -0.000575738               0.999999995              -0.000015378              -0.000600584               0.999999995              -0.000018988              -0.000626566               0.999999995              -0.000022195              -0.000653437               0.999999995              -0.000024833              -0.000681006               0.999999995              -0.000026818              -0.000709037               0.999999995              -0.000027683              -0.000737312               0.999999995              -0.000026787              -0.000765695               0.999999995              -0.000004810              -0.000470440               0.999999995               0.000000929              -0.000471341               0.999999995               0.000003169              -0.000473737               0.999999995               0.000003608              -0.000479967               0.999999995               0.000002982              -0.000490359               0.999999995               0.000001686              -0.000504544               0.999999995               0.000000232              -0.000521702               0.999999995              -0.000001295              -0.000541217               0.999999995              -0.000002999              -0.000562682               0.999999995              -0.000004918              -0.000585830               0.999999995              -0.000006864              -0.000610299               0.999999995              -0.000008580              -0.000635935               0.999999995              -0.000010106              -0.000662487               0.999999995              -0.000011370              -0.000689768               0.999999995              -0.000012207              -0.000717610               0.999999995              -0.000012416              -0.000745833               0.999999995              -0.000011504              -0.000774185               0.999999995               0.000000000              -0.000472694               0.999999995              -0.000000000              -0.000474613               0.999999995               0.000000000              -0.000477590               0.999999995              -0.000000000              -0.000484073               0.999999995              -0.000000000              -0.000494441               0.999999995              -0.000000000              -0.000508589               0.999999995              -0.000000000              -0.000525710               0.999999995              -0.000000000              -0.000545126               0.999999995              -0.000000000              -0.000566454               0.999999995               0.000000000              -0.000589423               0.999999995              -0.000000000              -0.000613817               0.999999995              -0.000000000              -0.000639347               0.999999995              -0.000000000              -0.000665764               0.999999995               0.000000000              -0.000692911               0.999999995               0.000000000              -0.000720644               0.999999995               0.000000000              -0.000748814               0.999999995               0.000000000              -0.000777129               0.999999995               0.000053232              -0.000000000               0.999999995               0.000072023              -0.000000000               0.999999995               0.000080955               0.000000000               0.999999995               0.000086208               0.000000000               0.999999995               0.000090266              -0.000000000               0.999999995               0.000094160              -0.000000000               0.999999995               0.000098411              -0.000000000               0.999999995               0.000103292               0.000000000               0.999999995               0.000108852              -0.000000000               0.999999995               0.000115157               0.000000000               0.999999995               0.000122363               0.000000000               0.999999995               0.000130407               0.000000000               0.999999995               0.000139237               0.000000000               0.999999995               0.000148823               0.000000000               0.999999995               0.000159085               0.000000000               0.999999995               0.000169901               0.000000000               0.999999995               0.000181086               0.000000000               0.999999995               0.000052809              -0.000047073               0.999999995               0.000070765              -0.000041301               0.999999995               0.000079242              -0.000039765               0.999999995               0.000084240              -0.000040467               0.999999995               0.000088153              -0.000042535               0.999999995               0.000092010              -0.000045348               0.999999995               0.000096293              -0.000048699               0.999999995               0.000101222              -0.000052508               0.999999995               0.000106916              -0.000056650               0.999999995               0.000113406              -0.000061088               0.999999995               0.000120718              -0.000065726               0.999999995               0.000128858              -0.000070513               0.999999995               0.000137727              -0.000075327               0.999999995               0.000147276              -0.000080140               0.999999995               0.000157488              -0.000084814               0.999999995               0.000168205              -0.000089174               0.999999995               0.000179342              -0.000093002               0.999999995               0.000051723              -0.000093648               0.999999995               0.000067144              -0.000082191               0.999999995               0.000074194              -0.000079322               0.999999995               0.000078499              -0.000080993               0.999999995               0.000082201              -0.000085290               0.999999995               0.000086123              -0.000091109               0.999999995               0.000090653              -0.000097927               0.999999995               0.000095916              -0.000105631               0.999999995               0.000101972              -0.000113979               0.999999995               0.000108847              -0.000122878               0.999999995               0.000116499              -0.000132144               0.999999995               0.000124900              -0.000141616               0.999999995               0.000133937              -0.000151250               0.999999995               0.000143547              -0.000160863               0.999999995               0.000153719              -0.000170396               0.999999995               0.000164417              -0.000179518               0.999999995               0.000175670              -0.000188096               0.999999995               0.000049909              -0.000139247               0.999999995               0.000061272              -0.000122278               0.999999995               0.000066385              -0.000118537               0.999999995               0.000069997              -0.000121532               0.999999995               0.000073666              -0.000128317               0.999999995               0.000077883              -0.000137332               0.999999995               0.000082903              -0.000147826               0.999999995               0.000088731              -0.000159473               0.999999995               0.000095375              -0.000172061               0.999999995               0.000102807              -0.000185453               0.999999995               0.000110928              -0.000199386               0.999999995               0.000119722              -0.000213587               0.999999995               0.000129103              -0.000228069               0.999999995               0.000139049              -0.000242714               0.999999995               0.000149605              -0.000257483               0.999999995               0.000160809              -0.000272295               0.999999995               0.000172730              -0.000286930               0.999999995               0.000047396              -0.000183327               0.999999995               0.000053615              -0.000161256               0.999999995               0.000056688              -0.000157277               0.999999995               0.000059791              -0.000162054               0.999999995               0.000063698              -0.000171616               0.999999995               0.000068497              -0.000183961               0.999999995               0.000074294              -0.000198206               0.999999995               0.000081003              -0.000213864               0.999999995               0.000088568              -0.000230754               0.999999995               0.000096840              -0.000248667               0.999999995               0.000105803              -0.000267208               0.999999995               0.000115459              -0.000286234               0.999999995               0.000125817              -0.000305715               0.999999995               0.000136858              -0.000325637               0.999999995               0.000148590              -0.000345984               0.999999995               0.000161014              -0.000366816               0.999999995               0.000174101              -0.000388092               0.999999995               0.000044397              -0.000225339               0.999999995               0.000044772              -0.000198894               0.999999995               0.000046037              -0.000195242               0.999999995               0.000049035              -0.000202144               0.999999995               0.000053579              -0.000214639               0.999999995               0.000059363              -0.000230497               0.999999995               0.000066343              -0.000248622               0.999999995               0.000074389              -0.000268367               0.999999995               0.000083249              -0.000289483               0.999999995               0.000092821              -0.000311752               0.999999995               0.000103154              -0.000334919               0.999999995               0.000114295              -0.000358800               0.999999995               0.000126194              -0.000383267               0.999999995               0.000138823              -0.000408319               0.999999995               0.000152085              -0.000434065               0.999999995               0.000165853              -0.000460474               0.999999995               0.000179929              -0.000487382               0.999999995               0.000041007              -0.000264837               0.999999995               0.000035281              -0.000235043               0.999999995               0.000035290              -0.000232149               0.999999995               0.000038742              -0.000241393               0.999999995               0.000044387              -0.000256975               0.999999995               0.000051612              -0.000276358               0.999999995               0.000060150              -0.000298505               0.999999995               0.000069716              -0.000322354               0.999999995               0.000080118              -0.000347571               0.999999995               0.000091343              -0.000374202               0.999999995               0.000103325              -0.000401886               0.999999995               0.000116139              -0.000430460               0.999999995               0.000129615              -0.000459682               0.999999995               0.000143682              -0.000489601               0.999999995               0.000158175              -0.000520239               0.999999995               0.000172885              -0.000551450               0.999999995               0.000187519              -0.000582765               0.999999995               0.000037305              -0.000301424               0.999999995               0.000025753              -0.000269543               0.999999995               0.000025221              -0.000267755               0.999999995               0.000029746              -0.000279451               0.999999995               0.000036919              -0.000298150               0.999999995               0.000045806              -0.000321099               0.999999995               0.000056006              -0.000347205               0.999999995               0.000067214              -0.000375126               0.999999995               0.000079236              -0.000404391               0.999999995               0.000092079              -0.000435241               0.999999995               0.000105740              -0.000467269               0.999999995               0.000120044              -0.000500248               0.999999995               0.000134892              -0.000533937               0.999999995               0.000150164              -0.000568289               0.999999995               0.000165624              -0.000603254               0.999999995               0.000181014              -0.000638456               0.999999995               0.000196037              -0.000673483               0.999999995               0.000033616              -0.000334502               0.999999995               0.000016591              -0.000302314               0.999999995               0.000016491              -0.000301782               0.999999995               0.000022480              -0.000315853               0.999999995               0.000031328              -0.000337717               0.999999995               0.000041913              -0.000364288               0.999999995               0.000053741              -0.000394136               0.999999995               0.000066482              -0.000425992               0.999999995               0.000080040              -0.000459442               0.999999995               0.000094459              -0.000494470               0.999999995               0.000109521              -0.000530646               0.999999995               0.000125095              -0.000567724               0.999999995               0.000141037              -0.000605496               0.999999995               0.000157248              -0.000643801               0.999999995               0.000173561              -0.000682447               0.999999995               0.000189706              -0.000721025               0.999999995               0.000205544              -0.000759308               0.999999995               0.000030380              -0.000365282               0.999999995               0.000009942              -0.000336358               0.999999995               0.000008121              -0.000332899               0.999999995               0.000013059              -0.000343363               0.999999995               0.000021013              -0.000361914               0.999999995               0.000030521              -0.000385372               0.999999995               0.000041070              -0.000412229               0.999999995               0.000052410              -0.000441419               0.999999995               0.000064388              -0.000472261               0.999999995               0.000077125              -0.000504387               0.999999995               0.000090377              -0.000537684               0.999999995               0.000103878              -0.000571837               0.999999995               0.000117687              -0.000606676               0.999999995               0.000131722              -0.000642073               0.999999995               0.000145977              -0.000677915               0.999999995               0.000160433              -0.000714053               0.999999995               0.000174920              -0.000750158               0.999999995               0.000026698              -0.000392898               0.999999995               0.000004864              -0.000368626               0.999999995               0.000001345              -0.000364100               0.999999995               0.000004913              -0.000371677               0.999999995               0.000011698              -0.000387204               0.999999995               0.000019903              -0.000407814               0.999999995               0.000029015              -0.000431905               0.999999995               0.000038922              -0.000458475               0.999999995               0.000049552              -0.000486782               0.999999995               0.000060526              -0.000516492               0.999999995               0.000071863              -0.000547262               0.999999995               0.000083399              -0.000578877               0.999999995               0.000095045              -0.000611075               0.999999995               0.000106593              -0.000643795               0.999999995               0.000118046              -0.000677018               0.999999995               0.000129630              -0.000710676               0.999999995               0.000141246              -0.000744645               0.999999995               0.000022778              -0.000416803               0.999999995               0.000001323              -0.000398253               0.999999995              -0.000003429              -0.000394003               0.999999995              -0.000001321              -0.000399831               0.999999995               0.000003951              -0.000412911               0.999999995               0.000010737              -0.000431083               0.999999995               0.000018469              -0.000452722               0.999999995               0.000026877              -0.000476877               0.999999995               0.000035834              -0.000502991               0.999999995               0.000045133              -0.000530600               0.999999995               0.000054664              -0.000559230               0.999999995               0.000064226              -0.000588664               0.999999995               0.000073606              -0.000618748               0.999999995               0.000082534              -0.000649350               0.999999995               0.000091048              -0.000680340               0.999999995               0.000099151              -0.000711758               0.999999995               0.000107029              -0.000743572               0.999999995               0.000018580              -0.000436741               0.999999995              -0.000000798              -0.000424302               0.999999995              -0.000006113              -0.000421320               0.999999995              -0.000005336              -0.000426491               0.999999995              -0.000001604              -0.000437956               0.999999995               0.000003784              -0.000454130               0.999999995               0.000010007              -0.000473761               0.999999995               0.000016714              -0.000495961               0.999999995               0.000023937              -0.000520245               0.999999995               0.000031601              -0.000546030               0.999999995               0.000039320              -0.000572877               0.999999995               0.000046925              -0.000600682               0.999999995               0.000054098              -0.000629215               0.999999995               0.000060599              -0.000658224               0.999999995               0.000066300              -0.000687591               0.999999995               0.000071186              -0.000717277               0.999999995               0.000075224              -0.000747341               0.999999995               0.000014167              -0.000452374               0.999999995              -0.000001641              -0.000445670               0.999999995              -0.000006747              -0.000444596               0.999999995              -0.000006942              -0.000449856               0.999999995              -0.000004501              -0.000460503               0.999999995              -0.000000510              -0.000475418               0.999999995               0.000004040              -0.000493621               0.999999995               0.000008981              -0.000514413               0.999999995               0.000014441              -0.000537255               0.999999995               0.000020382              -0.000561626               0.999999995               0.000026227              -0.000587215               0.999999995               0.000031791              -0.000613846               0.999999995               0.000036891              -0.000641323               0.999999995               0.000041302              -0.000669369               0.999999995               0.000044800              -0.000697801               0.999999995               0.000047192              -0.000726419               0.999999995               0.000048050              -0.000755252               0.999999995               0.000009565              -0.000463623               0.999999995              -0.000001570              -0.000461547               0.999999995              -0.000005629              -0.000462488               0.999999995              -0.000006215              -0.000468228               0.999999995              -0.000004756              -0.000478592               0.999999995              -0.000002155              -0.000492925               0.999999995               0.000000776              -0.000510357               0.999999995               0.000003943              -0.000530259               0.999999995               0.000007537              -0.000552174               0.999999995               0.000011487              -0.000575738               0.999999995               0.000015378              -0.000600584               0.999999995               0.000018988              -0.000626566               0.999999995               0.000022195              -0.000653437               0.999999995               0.000024833              -0.000681006               0.999999995               0.000026818              -0.000709037               0.999999995               0.000027683              -0.000737312               0.999999995               0.000026787              -0.000765695               0.999999995               0.000004810              -0.000470440               0.999999995              -0.000000929              -0.000471341               0.999999995              -0.000003169              -0.000473737               0.999999995              -0.000003608              -0.000479967               0.999999995              -0.000002982              -0.000490359               0.999999995              -0.000001686              -0.000504544               0.999999995              -0.000000232              -0.000521702               0.999999995               0.000001295              -0.000541217               0.999999995               0.000002999              -0.000562682               0.999999995               0.000004918              -0.000585830               0.999999995               0.000006864              -0.000610299               0.999999995               0.000008580              -0.000635935               0.999999995               0.000010106              -0.000662487               0.999999995               0.000011370              -0.000689768               0.999999995               0.000012207              -0.000717610               0.999999995               0.000012416              -0.000745833               0.999999995               0.000011504              -0.000774185               0.999999995               0.000000000              -0.000472694               0.999999995              -0.000000000              -0.000474613               0.999999995               0.000000000              -0.000477590               0.999999995              -0.000000000              -0.000484073               0.999999995              -0.000000000              -0.000494441               0.999999995              -0.000000000              -0.000508589               0.999999995              -0.000000000              -0.000525710               0.999999995              -0.000000000              -0.000545126               0.999999995              -0.000000000              -0.000566454               0.999999995               0.000000000              -0.000589423               0.999999995              -0.000000000              -0.000613817               0.999999995              -0.000000000              -0.000639347               0.999999995              -0.000000000              -0.000665764               0.999999995               0.000000000              -0.000692911               0.999999995               0.000000000              -0.000720644               0.999999995               0.000000000              -0.000748814               0.999999995               0.000000000              -0.000777129               0.999999995               0.000053232              -0.000000000               0.999999995               0.000072023              -0.000000000               0.999999995               0.000080955               0.000000000               0.999999995               0.000086208               0.000000000               0.999999995               0.000090266              -0.000000000               0.999999995               0.000094160              -0.000000000               0.999999995               0.000098411              -0.000000000               0.999999995               0.000103292               0.000000000               0.999999995               0.000108852              -0.000000000               0.999999995               0.000115157               0.000000000               0.999999995               0.000122363               0.000000000               0.999999995               0.000130407               0.000000000               0.999999995               0.000139237               0.000000000               0.999999995               0.000148823               0.000000000               0.999999995               0.000159085               0.000000000               0.999999995               0.000169901               0.000000000               0.999999995               0.000181086               0.000000000               0.999999995               0.000052809               0.000047073               0.999999995               0.000070765               0.000041301               0.999999995               0.000079242               0.000039765               0.999999995               0.000084240               0.000040467               0.999999995               0.000088153               0.000042535               0.999999995               0.000092010               0.000045348               0.999999995               0.000096293               0.000048699               0.999999995               0.000101222               0.000052508               0.999999995               0.000106916               0.000056650               0.999999995               0.000113406               0.000061088               0.999999995               0.000120718               0.000065726               0.999999995               0.000128858               0.000070513               0.999999995               0.000137727               0.000075327               0.999999995               0.000147276               0.000080140               0.999999995               0.000157488               0.000084814               0.999999995               0.000168205               0.000089174               0.999999995               0.000179342               0.000093002               0.999999995               0.000051723               0.000093648               0.999999995               0.000067144               0.000082191               0.999999995               0.000074194               0.000079322               0.999999995               0.000078499               0.000080993               0.999999995               0.000082201               0.000085290               0.999999995               0.000086123               0.000091109               0.999999995               0.000090653               0.000097927               0.999999995               0.000095916               0.000105631               0.999999995               0.000101972               0.000113979               0.999999995               0.000108847               0.000122878               0.999999995               0.000116499               0.000132144               0.999999995               0.000124900               0.000141616               0.999999995               0.000133937               0.000151250               0.999999995               0.000143547               0.000160863               0.999999995               0.000153719               0.000170396               0.999999995               0.000164417               0.000179518               0.999999995               0.000175670               0.000188096               0.999999995               0.000049909               0.000139247               0.999999995               0.000061272               0.000122278               0.999999995               0.000066385               0.000118537               0.999999995               0.000069997               0.000121532               0.999999995               0.000073666               0.000128317               0.999999995               0.000077883               0.000137332               0.999999995               0.000082903               0.000147826               0.999999995               0.000088731               0.000159473               0.999999995               0.000095375               0.000172061               0.999999995               0.000102807               0.000185453               0.999999995               0.000110928               0.000199386               0.999999995               0.000119722               0.000213587               0.999999995               0.000129103               0.000228069               0.999999995               0.000139049               0.000242714               0.999999995               0.000149605               0.000257483               0.999999995               0.000160809               0.000272295               0.999999995               0.000172730               0.000286930               0.999999995               0.000047396               0.000183327               0.999999995               0.000053615               0.000161256               0.999999995               0.000056688               0.000157277               0.999999995               0.000059791               0.000162054               0.999999995               0.000063698               0.000171616               0.999999995               0.000068497               0.000183961               0.999999995               0.000074294               0.000198206               0.999999995               0.000081003               0.000213864               0.999999995               0.000088568               0.000230754               0.999999995               0.000096840               0.000248667               0.999999995               0.000105803               0.000267208               0.999999995               0.000115459               0.000286234               0.999999995               0.000125817               0.000305715               0.999999995               0.000136858               0.000325637               0.999999995               0.000148590               0.000345984               0.999999995               0.000161014               0.000366816               0.999999995               0.000174101               0.000388092               0.999999995               0.000044397               0.000225339               0.999999995               0.000044772               0.000198894               0.999999995               0.000046037               0.000195242               0.999999995               0.000049035               0.000202144               0.999999995               0.000053579               0.000214639               0.999999995               0.000059363               0.000230497               0.999999995               0.000066343               0.000248622               0.999999995               0.000074389               0.000268367               0.999999995               0.000083249               0.000289483               0.999999995               0.000092821               0.000311752               0.999999995               0.000103154               0.000334919               0.999999995               0.000114295               0.000358800               0.999999995               0.000126194               0.000383267               0.999999995               0.000138823               0.000408319               0.999999995               0.000152085               0.000434065               0.999999995               0.000165853               0.000460474               0.999999995               0.000179929               0.000487382               0.999999995               0.000041007               0.000264837               0.999999995               0.000035281               0.000235043               0.999999995               0.000035290               0.000232149               0.999999995               0.000038742               0.000241393               0.999999995               0.000044387               0.000256975               0.999999995               0.000051612               0.000276358               0.999999995               0.000060150               0.000298505               0.999999995               0.000069716               0.000322354               0.999999995               0.000080118               0.000347571               0.999999995               0.000091343               0.000374202               0.999999995               0.000103325               0.000401886               0.999999995               0.000116139               0.000430460               0.999999995               0.000129615               0.000459682               0.999999995               0.000143682               0.000489601               0.999999995               0.000158175               0.000520239               0.999999995               0.000172885               0.000551450               0.999999995               0.000187519               0.000582765               0.999999995               0.000037305               0.000301424               0.999999995               0.000025753               0.000269543               0.999999995               0.000025221               0.000267755               0.999999995               0.000029746               0.000279451               0.999999995               0.000036919               0.000298150               0.999999995               0.000045806               0.000321099               0.999999995               0.000056006               0.000347205               0.999999995               0.000067214               0.000375126               0.999999995               0.000079236               0.000404391               0.999999995               0.000092079               0.000435241               0.999999995               0.000105740               0.000467269               0.999999995               0.000120044               0.000500248               0.999999995               0.000134892               0.000533937               0.999999995               0.000150164               0.000568289               0.999999995               0.000165624               0.000603254               0.999999995               0.000181014               0.000638456               0.999999995               0.000196037               0.000673483               0.999999995               0.000033616               0.000334502               0.999999995               0.000016591               0.000302314               0.999999995               0.000016491               0.000301782               0.999999995               0.000022480               0.000315853               0.999999995               0.000031328               0.000337717               0.999999995               0.000041913               0.000364288               0.999999995               0.000053741               0.000394136               0.999999995               0.000066482               0.000425992               0.999999995               0.000080040               0.000459442               0.999999995               0.000094459               0.000494470               0.999999995               0.000109521               0.000530646               0.999999995               0.000125095               0.000567724               0.999999995               0.000141037               0.000605496               0.999999995               0.000157248               0.000643801               0.999999995               0.000173561               0.000682447               0.999999995               0.000189706               0.000721025               0.999999995               0.000205544               0.000759308               0.999999995               0.000030380               0.000365282               0.999999995               0.000009942               0.000336358               0.999999995               0.000008121               0.000332899               0.999999995               0.000013059               0.000343363               0.999999995               0.000021013               0.000361914               0.999999995               0.000030521               0.000385372               0.999999995               0.000041070               0.000412229               0.999999995               0.000052410               0.000441419               0.999999995               0.000064388               0.000472261               0.999999995               0.000077125               0.000504387               0.999999995               0.000090377               0.000537684               0.999999995               0.000103878               0.000571837               0.999999995               0.000117687               0.000606676               0.999999995               0.000131722               0.000642073               0.999999995               0.000145977               0.000677915               0.999999995               0.000160433               0.000714053               0.999999995               0.000174920               0.000750158               0.999999995               0.000026698               0.000392898               0.999999995               0.000004864               0.000368626               0.999999995               0.000001345               0.000364100               0.999999995               0.000004913               0.000371677               0.999999995               0.000011698               0.000387204               0.999999995               0.000019903               0.000407814               0.999999995               0.000029015               0.000431905               0.999999995               0.000038922               0.000458475               0.999999995               0.000049552               0.000486782               0.999999995               0.000060526               0.000516492               0.999999995               0.000071863               0.000547262               0.999999995               0.000083399               0.000578877               0.999999995               0.000095045               0.000611075               0.999999995               0.000106593               0.000643795               0.999999995               0.000118046               0.000677018               0.999999995               0.000129630               0.000710676               0.999999995               0.000141246               0.000744645               0.999999995               0.000022778               0.000416803               0.999999995               0.000001323               0.000398253               0.999999995              -0.000003429               0.000394003               0.999999995              -0.000001321               0.000399831               0.999999995               0.000003951               0.000412911               0.999999995               0.000010737               0.000431083               0.999999995               0.000018469               0.000452722               0.999999995               0.000026877               0.000476877               0.999999995               0.000035834               0.000502991               0.999999995               0.000045133               0.000530600               0.999999995               0.000054664               0.000559230               0.999999995               0.000064226               0.000588664               0.999999995               0.000073606               0.000618748               0.999999995               0.000082534               0.000649350               0.999999995               0.000091048               0.000680340               0.999999995               0.000099151               0.000711758               0.999999995               0.000107029               0.000743572               0.999999995               0.000018580               0.000436741               0.999999995              -0.000000798               0.000424302               0.999999995              -0.000006113               0.000421320               0.999999995              -0.000005336               0.000426491               0.999999995              -0.000001604               0.000437956               0.999999995               0.000003784               0.000454130               0.999999995               0.000010007               0.000473761               0.999999995               0.000016714               0.000495961               0.999999995               0.000023937               0.000520245               0.999999995               0.000031601               0.000546030               0.999999995               0.000039320               0.000572877               0.999999995               0.000046925               0.000600682               0.999999995               0.000054098               0.000629215               0.999999995               0.000060599               0.000658224               0.999999995               0.000066300               0.000687591               0.999999995               0.000071186               0.000717277               0.999999995               0.000075224               0.000747341               0.999999995               0.000014167               0.000452374               0.999999995              -0.000001641               0.000445670               0.999999995              -0.000006747               0.000444596               0.999999995              -0.000006942               0.000449856               0.999999995              -0.000004501               0.000460503               0.999999995              -0.000000510               0.000475418               0.999999995               0.000004040               0.000493621               0.999999995               0.000008981               0.000514413               0.999999995               0.000014441               0.000537255               0.999999995               0.000020382               0.000561626               0.999999995               0.000026227               0.000587215               0.999999995               0.000031791               0.000613846               0.999999995               0.000036891               0.000641323               0.999999995               0.000041302               0.000669369               0.999999995               0.000044800               0.000697801               0.999999995               0.000047192               0.000726419               0.999999995               0.000048050               0.000755252               0.999999995               0.000009565               0.000463623               0.999999995              -0.000001570               0.000461547               0.999999995              -0.000005629               0.000462488               0.999999995              -0.000006215               0.000468228               0.999999995              -0.000004756               0.000478592               0.999999995              -0.000002155               0.000492925               0.999999995               0.000000776               0.000510357               0.999999995               0.000003943               0.000530259               0.999999995               0.000007537               0.000552174               0.999999995               0.000011487               0.000575738               0.999999995               0.000015378               0.000600584               0.999999995               0.000018988               0.000626566               0.999999995               0.000022195               0.000653437               0.999999995               0.000024833               0.000681006               0.999999995               0.000026818               0.000709037               0.999999995               0.000027683               0.000737312               0.999999995               0.000026787               0.000765695               0.999999995               0.000004810               0.000470440               0.999999995              -0.000000929               0.000471341               0.999999995              -0.000003169               0.000473737               0.999999995              -0.000003608               0.000479967               0.999999995              -0.000002982               0.000490359               0.999999995              -0.000001686               0.000504544               0.999999995              -0.000000232               0.000521702               0.999999995               0.000001295               0.000541217               0.999999995               0.000002999               0.000562682               0.999999995               0.000004918               0.000585830               0.999999995               0.000006864               0.000610299               0.999999995               0.000008580               0.000635935               0.999999995               0.000010106               0.000662487               0.999999995               0.000011370               0.000689768               0.999999995               0.000012207               0.000717610               0.999999995               0.000012416               0.000745833               0.999999995               0.000011504               0.000774185               0.999999995              -0.000000000               0.000472694               0.999999995              -0.000000000               0.000474613               0.999999995              -0.000000000               0.000477590               0.999999995               0.000000000               0.000484073               0.999999995              -0.000000000               0.000494441               0.999999995              -0.000000000               0.000508589               0.999999995               0.000000000               0.000525710               0.999999995              -0.000000000               0.000545126               0.999999995               0.000000000               0.000566454               0.999999995               0.000000000               0.000589423               0.999999995               0.000000000               0.000613817               0.999999995               0.000000000               0.000639347               0.999999995               0.000000000               0.000665764               0.999999995               0.000000000               0.000692911               0.999999995              -0.000000000               0.000720644               0.999999995              -0.000000000               0.000748814               0.999999995              -0.000000000               0.000777129               0.999999995 </DataArray>
<DataArray type="Float64"                                    Name="defo"                                                      NumberOfComponents=" 3" format="ascii">
             -0.000053232               0.000000000               0.999999995              -0.000072023               0.000000000               0.999999995              -0.000080955               0.000000000               0.999999995              -0.000086208               0.000000000               0.999999995              -0.000090266               0.000000000               0.999999995              -0.000094160               0.000000000               0.999999995              -0.000098411              -0.000000000               0.999999995              -0.000103292               0.000000000               0.999999995              -0.000108852               0.000000000               0.999999995              -0.000115157               0.000000000               0.999999995              -0.000122363              -0.000000000               0.999999995              -0.000130407              -0.000000000               0.999999995              -0.000139237               0.000000000               0.999999995              -0.000148823               0.000000000               0.999999995              -0.000159085               0.000000000               0.999999995              -0.000169901               0.000000000               0.999999995              -0.000181086               0.000000000               0.999999995              -0.000052809               0.000047073               0.999999995              -0.000070765               0.000041301               0.999999995              -0.000079242               0.000039765               0.999999995              -0.000084240               0.000040467               0.999999995              -0.000088153               0.000042535               0.999999995              -0.000092010               0.000045348               0.999999995              -0.000096293               0.000048699               0.999999995              -0.000101222               0.000052508               0.999999995              -0.000106916               0.000056650               0.999999995              -0.000113406               0.000061088               0.999999995              -0.000120718               0.000065726               0.999999995              -0.000128858               0.000070513               0.999999995              -0.000137727               0.000075327               0.999999995              -0.000147276               0.000080140               0.999999995              -0.000157488               0.000084814               0.999999995              -0.000168205               0.000089174               0.999999995              -0.000179342               0.000093002               0.999999995              -0.000051723               0.000093648               0.999999995              -0.000067144               0.000082191               0.999999995              -0.000074194               0.000079322               0.999999995              -0.000078499               0.000080993               0.999999995              -0.000082201               0.000085290               0.999999995              -0.000086123               0.000091109               0.999999995              -0.000090653               0.000097927               0.999999995              -0.000095916               0.000105631               0.999999995              -0.000101972               0.000113979               0.999999995              -0.000108847               0.000122878               0.999999995              -0.000116499               0.000132144               0.999999995              -0.000124900               0.000141616               0.999999995              -0.000133937               0.000151250               0.999999995              -0.000143547               0.000160863               0.999999995              -0.000153719               0.000170396               0.999999995              -0.000164417               0.000179518               0.999999995              -0.000175670               0.000188096               0.999999995              -0.000049909               0.000139247               0.999999995              -0.000061272               0.000122278               0.999999995              -0.000066385               0.000118537               0.999999995              -0.000069997               0.000121532               0.999999995              -0.000073666               0.000128317               0.999999995              -0.000077883               0.000137332               0.999999995              -0.000082903               0.000147826               0.999999995              -0.000088731               0.000159473               0.999999995              -0.000095375               0.000172061               0.999999995              -0.000102807               0.000185453               0.999999995              -0.000110928               0.000199386               0.999999995              -0.000119722               0.000213587               0.999999995              -0.000129103               0.000228069               0.999999995              -0.000139049               0.000242714               0.999999995              -0.000149605               0.000257483               0.999999995              -0.000160809               0.000272295               0.999999995              -0.000172730               0.000286930               0.999999995              -0.000047396               0.000183327               0.999999995              -0.000053615               0.000161256               0.999999995              -0.000056688               0.000157277               0.999999995              -0.000059791               0.000162054               0.999999995              -0.000063698               0.000171616               0.999999995              -0.000068497               0.000183961               0.999999995              -0.000074294               0.000198206               0.999999995              -0.000081003               0.000213864               0.999999995              -0.000088568               0.000230754               0.999999995              -0.000096840               0.000248667               0.999999995              -0.000105803               0.000267208               0.999999995              -0.000115459               0.000286234               0.999999995              -0.000125817               0.000305715               0.999999995              -0.000136858               0.000325637               0.999999995              -0.000148590               0.000345984               0.999999995              -0.000161014               0.000366816               0.999999995              -0.000174101               0.000388092               0.999999995              -0.000044397               0.000225339               0.999999995              -0.000044772               0.000198894               0.999999995              -0.000046037               0.000195242               0.999999995              -0.000049035               0.000202144               0.999999995              -0.000053579               0.000214639               0.999999995              -0.000059363               0.000230497               0.999999995              -0.000066343               0.000248622               0.999999995              -0.000074389               0.000268367               0.999999995              -0.000083249               0.000289483               0.999999995              -0.000092821               0.000311752               0.999999995              -0.000103154               0.000334919               0.999999995              -0.000114295               0.000358800               0.999999995              -0.000126194               0.000383267               0.999999995              -0.000138823               0.000408319               0.999999995              -0.000152085               0.000434065               0.999999995              -0.000165853               0.000460474               0.999999995              -0.000179929               0.000487382               0.999999995              -0.000041007               0.000264837               0.999999995              -0.000035281               0.000235043               0.999999995              -0.000035290               0.000232149               0.999999995              -0.000038742               0.000241393               0.999999995              -0.000044387               0.000256975               0.999999995              -0.000051612               0.000276358               0.999999995              -0.000060150               0.000298505               0.999999995              -0.000069716               0.000322354               0.999999995              -0.000080118               0.000347571               0.999999995              -0.000091343               0.000374202               0.999999995              -0.000103325               0.000401886               0.999999995              -0.000116139               0.000430460               0.999999995              -0.000129615               0.000459682               0.999999995              -0.000143682               0.000489601               0.999999995              -0.000158175               0.000520239               0.999999995              -0.000172885               0.000551450               0.999999995              -0.000187519               0.000582765               0.999999995              -0.000037305               0.000301424               0.999999995              -0.000025753               0.000269543               0.999999995              -0.000025221               0.000267755               0.999999995              -0.000029746               0.000279451               0.999999995              -0.000036919               0.000298150               0.999999995              -0.000045806               0.000321099               0.999999995              -0.000056006               0.000347205               0.999999995              -0.000067214               0.000375126               0.999999995              -0.000079236               0.000404391               0.999999995              -0.000092079               0.000435241               0.999999995              -0.000105740               0.000467269               0.999999995              -0.000120044               0.000500248               0.999999995              -0.000134892               0.000533937               0.999999995              -0.000150164               0.000568289               0.999999995              -0.000165624               0.000603254               0.999999995              -0.000181014               0.000638456               0.999999995              -0.000196037               0.000673483               0.999999995              -0.000033616               0.000334502               0.999999995              -0.000016591               0.000302314               0.999999995              -0.000016491               0.000301782               0.999999995              -0.000022480               0.000315853               0.999999995              -0.000031328               0.000337717               0.999999995              -0.000041913               0.000364288               0.999999995              -0.000053741               0.000394136               0.999999995              -0.000066482               0.000425992               0.999999995              -0.000080040               0.000459442               0.999999995              -0.000094459               0.000494470               0.999999995              -0.000109521               0.000530646               0.999999995              -0.000125095               0.000567724               0.999999995              -0.000141037               0.000605496               0.999999995              -0.000157248               0.000643801               0.999999995              -0.000173561               0.000682447               0.999999995              -0.000189706               0.000721025               0.999999995              -0.000205544               0.000759308               0.999999995              -0.000030380               0.000365282               0.999999995              -0.000009942               0.000336358               0.999999995              -0.000008121               0.000332899               0.999999995              -0.000013059               0.000343363               0.999999995              -0.000021013               0.000361914               0.999999995              -0.000030521               0.000385372               0.999999995              -0.000041070               0.000412229               0.999999995              -0.000052410               0.000441419               0.999999995              -0.000064388               0.000472261               0.999999995              -0.000077125               0.000504387               0.999999995              -0.000090377               0.000537684               0.999999995              -0.000103878               0.000571837               0.999999995              -0.000117687               0.000606676               0.999999995              -0.000131722               0.000642073               0.999999995              -0.000145977               0.000677915               0.999999995              -0.000160433               0.000714053               0.999999995              -0.000174920               0.000750158               0.999999995              -0.000026698               0.000392898               0.999999995              -0.000004864               0.000368626               0.999999995              -0.000001345               0.000364100               0.999999995              -0.000004913               0.000371677               0.999999995              -0.000011698               0.000387204               0.999999995              -0.000019903               0.000407814               0.999999995              -0.000029015               0.000431905               0.999999995              -0.000038922               0.000458475               0.999999995              -0.000049552               0.000486782               0.999999995              -0.000060526               0.000516492               0.999999995              -0.000071863               0.000547262               0.999999995              -0.000083399               0.000578877               0.999999995              -0.000095045               0.000611075               0.999999995              -0.000106593               0.000643795               0.999999995              -0.000118046               0.000677018               0.999999995              -0.000129630               0.000710676               0.999999995              -0.000141246               0.000744645               0.999999995              -0.000022778               0.000416803               0.999999995              -0.000001323               0.000398253               0.999999995               0.000003429               0.000394003               0.999999995               0.000001321               0.000399831               0.999999995              -0.000003951               0.000412911               0.999999995              -0.000010737               0.000431083               0.999999995              -0.000018469               0.000452722               0.999999995              -0.000026877               0.000476877               0.999999995              -0.000035834               0.000502991               0.999999995              -0.000045133               0.000530600               0.999999995              -0.000054664               0.000559230               0.999999995              -0.000064226               0.000588664               0.999999995              -0.000073606               0.000618748               0.999999995              -0.000082534               0.000649350               0.999999995              -0.000091048               0.000680340               0.999999995              -0.000099151               0.000711758               0.999999995              -0.000107029               0.000743572               0.999999995              -0.000018580               0.000436741               0.999999995               0.000000798               0.000424302               0.999999995               0.000006113               0.000421320               0.999999995               0.000005336               0.000426491               0.999999995               0.000001604               0.000437956               0.999999995              -0.000003784               0.000454130               0.999999995              -0.000010007               0.000473761               0.999999995              -0.000016714               0.000495961               0.999999995              -0.000023937               0.000520245               0.999999995              -0.000031601               0.000546030               0.999999995              -0.000039320               0.000572877               0.999999995              -0.000046925               0.000600682               0.999999995              -0.000054098               0.000629215               0.999999995              -0.000060599               0.000658224               0.999999995              -0.000066300               0.000687591               0.999999995              -0.000071186               0.000717277               0.999999995              -0.000075224               0.000747341               0.999999995              -0.000014167               0.000452374               0.999999995               0.000001641               0.000445670               0.999999995               0.000006747               0.000444596               0.999999995               0.000006942               0.000449856               0.999999995               0.000004501               0.000460503               0.999999995               0.000000510               0.000475418               0.999999995              -0.000004040               0.000493621               0.999999995              -0.000008981               0.000514413               0.999999995              -0.000014441               0.000537255               0.999999995              -0.000020382               0.000561626               0.999999995              -0.000026227               0.000587215               0.999999995              -0.000031791               0.000613846               0.999999995              -0.000036891               0.000641323               0.999999995              -0.000041302               0.000669369               0.999999995              -0.000044800               0.000697801               0.999999995              -0.000047192               0.000726419               0.999999995              -0.000048050               0.000755252               0.999999995              -0.000009565               0.000463623               0.999999995               0.000001570               0.000461547               0.999999995               0.000005629               0.000462488               0.999999995               0.000006215               0.000468228               0.999999995               0.000004756               0.000478592               0.999999995               0.000002155               0.000492925               0.999999995              -0.000000776               0.000510357               0.999999995              -0.000003943               0.000530259               0.999999995              -0.000007537               0.000552174               0.999999995              -0.000011487               0.000575738               0.999999995              -0.000015378               0.000600584               0.999999995              -0.000018988               0.000626566               0.999999995              -0.000022195               0.000653437               0.999999995              -0.000024833               0.000681006               0.999999995              -0.000026818               0.000709037               0.999999995              -0.000027683               0.000737312               0.999999995              -0.000026787               0.000765695               0.999999995              -0.000004810               0.000470440               0.999999995               0.000000929               0.000471341               0.999999995               0.000003169               0.000473737               0.999999995               0.000003608               0.000479967               0.999999995               0.000002982               0.000490359               0.999999995               0.000001686               0.000504544               0.999999995               0.000000232               0.000521702               0.999999995              -0.000001295               0.000541217               0.999999995              -0.000002999               0.000562682               0.999999995              -0.000004918               0.000585830               0.999999995              -0.000006864               0.000610299               0.999999995              -0.000008580               0.000635935               0.999999995              -0.000010106               0.000662487               0.999999995              -0.000011370               0.000689768               0.999999995              -0.000012207               0.000717610               0.999999995              -0.000012416               0.000745833               0.999999995              -0.000011504               0.000774185               0.999999995              -0.000000000               0.000472694               0.999999995              -0.000000000               0.000474613               0.999999995              -0.000000000               0.000477590               0.999999995               0.000000000               0.000484073               0.999999995              -0.000000000               0.000494441               0.999999995              -0.000000000               0.000508589               0.999999995               0.000000000               0.000525710               0.999999995              -0.000000000               0.000545126               0.999999995               0.000000000               0.000566454               0.999999995               0.000000000               0.000589423               0.999999995               0.000000000               0.000613817               0.999999995               0.000000000               0.000639347               0.999999995               0.000000000               0.000665764               0.999999995               0.000000000               0.000692911               0.999999995              -0.000000000               0.000720644               0.999999995              -0.000000000               0.000748814               0.999999995              -0.000000000               0.000777129               0.999999995              -0.000053232               0.000000000               0.999999995              -0.000072023               0.000000000               0.999999995              -0.000080955               0.000000000               0.999999995              -0.000086208               0.000000000               0.999999995              -0.000090266               0.000000000               0.999999995              -0.000094160               0.000000000               0.999999995              -0.000098411              -0.000000000               0.999999995              -0.000103292               0.000000000               0.999999995              -0.000108852               0.000000000               0.999999995              -0.000115157               0.000000000               0.999999995              -0.000122363              -0.000000000               0.999999995              -0.000130407              -0.000000000               0.999999995              -0.000139237               0.000000000               0.999999995              -0.000148823               0.000000000               0.999999995              -0.000159085               0.000000000               0.999999995              -0.000169901               0.000000000               0.999999995              -0.000181086               0.000000000               0.999999995              -0.000052809              -0.000047073               0.999999995              -0.000070765              -0.000041301               0.999999995              -0.000079242              -0.000039765               0.999999995              -0.000084240              -0.000040467               0.999999995              -0.000088153              -0.000042535               0.999999995              -0.000092010              -0.000045348               0.999999995              -0.000096293              -0.000048699               0.999999995              -0.000101222              -0.000052508               0.999999995              -0.000106916              -0.000056650               0.999999995              -0.000113406              -0.000061088               0.999999995              -0.000120718              -0.000065726               0.999999995              -0.000128858              -0.000070513               0.999999995              -0.000137727              -0.000075327               0.999999995              -0.000147276              -0.000080140               0.999999995              -0.000157488              -0.000084814               0.999999995              -0.000168205              -0.000089174               0.999999995              -0.000179342              -0.000093002               0.999999995              -0.000051723              -0.000093648               0.999999995              -0.000067144              -0.000082191               0.999999995              -0.000074194              -0.000079322               0.999999995              -0.000078499              -0.000080993               0.999999995              -0.000082201              -0.000085290               0.999999995              -0.000086123              -0.000091109               0.999999995              -0.000090653              -0.000097927               0.999999995              -0.000095916              -0.000105631               0.999999995              -0.000101972              -0.000113979               0.999999995              -0.000108847              -0.000122878               0.999999995              -0.000116499              -0.000132144               0.999999995              -0.000124900              -0.000141616               0.999999995              -0.000133937              -0.000151250               0.999999995              -0.000143547              -0.000160863               0.999999995              -0.000153719              -0.000170396               0.999999995              -0.000164417              -0.000179518               0.999999995              -0.000175670              -0.000188096               0.999999995              -0.000049909              -0.000139247               0.999999995              -0.000061272              -0.000122278               0.999999995              -0.000066385              -0.000118537               0.999999995              -0.000069997              -0.000121532               0.999999995              -0.000073666              -0.000128317               0.999999995              -0.000077883              -0.000137332               0.999999995              -0.000082903              -0.000147826               0.999999995              -0.000088731              -0.000159473               0.999999995              -0.000095375              -0.000172061               0.999999995              -0.000102807              -0.000185453               0.999999995              -0.000110928              -0.000199386               0.999999995              -0.000119722              -0.000213587               0.999999995              -0.000129103              -0.000228069               0.999999995              -0.000139049              -0.000242714               0.999999995              -0.000149605              -0.000257483               0.999999995              -0.000160809              -0.000272295               0.999999995              -0.000172730              -0.000286930               0.999999995              -0.000047396              -0.000183327               0.999999995              -0.000053615              -0.000161256               0.999999995              -0.000056688              -0.000157277               0.999999995              -0.000059791              -0.000162054               0.999999995              -0.000063698              -0.000171616               0.999999995              -0.000068497              -0.000183961               0.999999995              -0.000074294              -0.000198206               0.999999995              -0.000081003              -0.000213864               0.999999995              -0.000088568              -0.000230754               0.999999995              -0.000096840              -0.000248667               0.999999995              -0.000105803              -0.000267208               0.999999995              -0.000115459              -0.000286234               0.999999995              -0.000125817              -0.000305715               0.999999995              -0.000136858              -0.000325637               0.999999995              -0.000148590              -0.000345984               0.999999995              -0.000161014              -0.000366816               0.999999995              -0.000174101              -0.000388092               0.999999995              -0.000044397              -0.000225339               0.999999995              -0.000044772              -0.000198894               0.999999995              -0.000046037              -0.000195242               0.999999995              -0.000049035              -0.000202144               0.999999995              -0.000053579              -0.000214639               0.999999995              -0.000059363              -0.000230497               0.999999995              -0.000066343              -0.000248622               0.999999995              -0.000074389              -0.000268367               0.999999995              -0.000083249              -0.000289483               0.999999995              -0.000092821              -0.000311752               0.999999995              -0.000103154              -0.000334919               0.999999995              -0.000114295              -0.000358800               0.999999995              -0.000126194              -0.000383267               0.999999995              -0.000138823              -0.000408319               0.999999995              -0.000152085              -0.000434065               0.999999995              -0.000165853              -0.000460474               0.999999995              -0.000179929              -0.000487382               0.999999995              -0.000041007              -0.000264837               0.999999995              -0.000035281              -0.000235043               0.999999995              -0.000035290              -0.000232149               0.999999995              -0.000038742              -0.000241393               0.999999995              -0.000044387              -0.000256975               0.999999995              -0.000051612              -0.000276358               0.999999995              -0.000060150              -0.000298505               0.999999995              -0.000069716              -0.000322354               0.999999995              -0.000080118              -0.000347571               0.999999995              -0.000091343              -0.000374202               0.999999995              -0.000103325              -0.000401886               0.999999995              -0.000116139              -0.000430460               0.999999995              -0.000129615              -0.000459682               0.999999995              -0.000143682              -0.000489601               0.999999995              -0.000158175              -0.000520239               0.999999995              -0.000172885              -0.000551450               0.999999995              -0.000187519              -0.000582765               0.999999995              -0.000037305              -0.000301424               0.999999995              -0.000025753              -0.000269543               0.999999995              -0.000025221              -0.000267755               0.999999995              -0.000029746              -0.000279451               0.999999995              -0.000036919              -0.000298150               0.999999995              -0.000045806              -0.000321099               0.999999995              -0.000056006              -0.000347205               0.999999995              -0.000067214              -0.000375126               0.999999995              -0.000079236              -0.000404391               0.999999995              -0.000092079              -0.000435241               0.999999995              -0.000105740              -0.000467269               0.999999995              -0.000120044              -0.000500248               0.999999995              -0.000134892              -0.000533937               0.999999995              -0.000150164              -0.000568289               0.999999995              -0.000165624              -0.000603254               0.999999995              -0.000181014              -0.000638456               0.999999995              -0.000196037              -0.000673483               0.999999995              -0.000033616              -0.000334502               0.999999995              -0.000016591              -0.000302314               0.999999995              -0.000016491              -0.000301782               0.999999995              -0.000022480              -0.000315853               0.999999995              -0.000031328              -0.000337717               0.999999995              -0.000041913              -0.000364288               0.999999995              -0.000053741              -0.000394136               0.999999995              -0.000066482              -0.000425992               0.999999995              -0.000080040              -0.000459442               0.999999995              -0.000094459              -0.000494470               0.999999995              -0.000109521              -0.000530646               0.999999995              -0.000125095              -0.000567724               0.999999995              -0.000141037              -0.000605496               0.999999995              -0.000157248              -0.000643801               0.999999995              -0.000173561              -0.000682447               0.999999995              -0.000189706              -0.000721025               0.999999995              -0.000205544              -0.000759308               0.999999995              -0.000030380              -0.000365282               0.999999995              -0.000009942              -0.000336358               0.999999995              -0.000008121              -0.000332899               0.999999995              -0.000013059              -0.000343363               0.999999995              -0.000021013              -0.000361914               0.999999995              -0.000030521              -0.000385372               0.999999995              -0.000041070              -0.000412229               0.999999995              -0.000052410              -0.000441419               0.999999995              -0.000064388              -0.000472261               0.999999995              -0.000077125              -0.000504387               0.999999995              -0.000090377              -0.000537684               0.999999995              -0.000103878              -0.000571837               0.999999995              -0.000117687              -0.000606676               0.999999995              -0.000131722              -0.000642073               0.999999995              -0.000145977              -0.000677915               0.999999995              -0.000160433              -0.000714053               0.999999995              -0.000174920              -0.000750158               0.999999995              -0.000026698              -0.000392898               0.999999995              -0.000004864              -0.000368626               0.999999995              -0.000001345              -0.000364100               0.999999995              -0.000004913              -0.000371677               0.999999995              -0.000011698              -0.000387204               0.999999995              -0.000019903              -0.000407814               0.999999995              -0.000029015              -0.000431905               0.999999995              -0.000038922              -0.000458475               0.999999995              -0.000049552              -0.000486782               0.999999995              -0.000060526              -0.000516492               0.999999995              -0.000071863              -0.000547262               0.999999995              -0.000083399              -0.000578877               0.999999995              -0.000095045              -0.000611075               0.999999995              -0.000106593              -0.000643795               0.999999995              -0.000118046              -0.000677018               0.999999995              -0.000129630              -0.000710676               0.999999995              -0.000141246              -0.000744645               0.999999995              -0.000022778              -0.000416803               0.999999995              -0.000001323              -0.000398253               0.999999995               0.000003429              -0.000394003               0.999999995               0.000001321              -0.000399831               0.999999995              -0.000003951              -0.000412911               0.999999995              -0.000010737              -0.000431083               0.999999995              -0.000018469              -0.000452722               0.999999995              -0.000026877              -0.000476877               0.999999995              -0.000035834              -0.000502991               0.999999995              -0.000045133              -0.000530600               0.999999995              -0.000054664              -0.000559230               0.999999995              -0.000064226              -0.000588664               0.999999995              -0.000073606              -0.000618748               0.999999995              -0.000082534              -0.000649350               0.999999995              -0.000091048              -0.000680340               0.999999995              -0.000099151              -0.000711758               0.999999995              -0.000107029              -0.000743572               0.999999995              -0.000018580              -0.000436741               0.999999995               0.000000798              -0.000424302               0.999999995               0.000006113              -0.000421320               0.999999995               0.000005336              -0.000426491               0.999999995               0.000001604              -0.000437956               0.999999995              -0.000003784              -0.000454130               0.999999995              -0.000010007              -0.000473761               0.999999995              -0.000016714              -0.000495961               0.999999995              -0.000023937              -0.000520245               0.999999995              -0.000031601              -0.000546030               0.999999995              -0.000039320              -0.000572877               0.999999995              -0.000046925              -0.000600682               0.999999995              -0.000054098              -0.000629215               0.999999995              -0.000060599              -0.000658224               0.999999995              -0.000066300              -0.000687591               0.999999995              -0.000071186              -0.000717277               0.999999995              -0.000075224              -0.000747341               0.999999995              -0.000014167              -0.000452374               0.999999995               0.000001641              -0.000445670               0.999999995               0.000006747              -0.000444596               0.999999995               0.000006942              -0.000449856               0.999999995               0.000004501              -0.000460503               0.999999995               0.000000510              -0.000475418               0.999999995              -0.000004040              -0.000493621               0.999999995              -0.000008981              -0.000514413               0.999999995              -0.000014441              -0.000537255               0.999999995              -0.000020382              -0.000561626               0.999999995              -0.000026227              -0.000587215               0.999999995              -0.000031791              -0.000613846               0.999999995              -0.000036891              -0.000641323               0.999999995              -0.000041302              -0.000669369               0.999999995              -0.000044800              -0.000697801               0.999999995              -0.000047192              -0.000726419               0.999999995              -0.000048050              -0.000755252               0.999999995              -0.000009565              -0.000463623               0.999999995               0.000001570              -0.000461547               0.999999995               0.000005629              -0.000462488               0.999999995               0.000006215              -0.000468228               0.999999995               0.000004756              -0.000478592               0.999999995               0.000002155              -0.000492925               0.999999995              -0.000000776              -0.000510357               0.999999995              -0.000003943              -0.000530259               0.999999995              -0.000007537              -0.000552174               0.999999995              -0.000011487              -0.000575738               0.999999995              -0.000015378              -0.000600584               0.999999995              -0.000018988              -0.000626566               0.999999995              -0.000022195              -0.000653437               0.999999995              -0.000024833              -0.000681006               0.999999995              -0.000026818              -0.000709037               0.999999995              -0.000027683              -0.000737312               0.999999995              -0.000026787              -0.000765695               0.999999995              -0.000004810              -0.000470440               0.999999995               0.000000929              -0.000471341               0.999999995               0.000003169              -0.000473737               0.999999995               0.000003608              -0.000479967               0.999999995               0.000002982              -0.000490359               0.999999995               0.000001686              -0.000504544               0.999999995               0.000000232              -0.000521702               0.999999995              -0.000001295              -0.000541217               0.999999995              -0.000002999              -0.000562682               0.999999995              -0.000004918              -0.000585830               0.999999995              -0.000006864              -0.000610299               0.999999995              -0.000008580              -0.000635935               0.999999995              -0.000010106              -0.000662487               0.999999995              -0.000011370              -0.000689768               0.999999995              -0.000012207              -0.000717610               0.999999995              -0.000012416              -0.000745833               0.999999995              -0.000011504              -0.000774185               0.999999995               0.000000000              -0.000472694               0.999999995              -0.000000000              -0.000474613               0.999999995               0.000000000              -0.000477590               0.999999995              -0.000000000              -0.000484073               0.999999995              -0.000000000              -0.000494441               0.999999995              -0.000000000              -0.000508589               0.999999995              -0.000000000              -0.000525710               0.999999995              -0.000000000              -0.000545126               0.999999995              -0.000000000              -0.000566454               0.999999995               0.000000000              -0.000589423               0.999999995              -0.000000000              -0.000613817               0.999999995              -0.000000000              -0.000639347               0.999999995              -0.000000000              -0.000665764               0.999999995               0.000000000              -0.000692911               0.999999995               0.000000000              -0.000720644               0.999999995               0.000000000              -0.000748814               0.999999995               0.000000000              -0.000777129               0.999999995               0.000053232              -0.000000000               0.999999995               0.000072023              -0.000000000               0.999999995               0.000080955               0.000000000               0.999999995               0.000086208               0.000000000               0.999999995               0.000090266              -0.000000000               0.999999995               0.000094160              -0.000000000               0.999999995               0.000098411              -0.000000000               0.999999995               0.000103292               0.000000000               0.999999995               0.000108852              -0.000000000               0.999999995               0.000115157               0.000000000               0.999999995               0.000122363               0.000000000               0.999999995               0.000130407               0.000000000               0.999999995               0.000139237               0.000000000               0.999999995               0.000148823               0.000000000               0.999999995               0.000159085               0.000000000               0.999999995               0.000169901               0.000000000               0.999999995               0.000181086               0.000000000               0.999999995               0.000052809              -0.000047073               0.999999995               0.000070765              -0.000041301               0.999999995               0.000079242              -0.000039765               0.999999995               0.000084240              -0.000040467               0.999999995               0.000088153              -0.000042535               0.999999995               0.000092010              -0.000045348               0.999999995               0.000096293              -0.000048699               0.999999995               0.000101222              -0.000052508               0.999999995               0.000106916              -0.000056650               0.999999995               0.000113406              -0.000061088               0.999999995               0.000120718              -0.000065726               0.999999995               0.000128858              -0.000070513               0.999999995               0.000137727              -0.000075327               0.999999995               0.000147276              -0.000080140               0.999999995               0.000157488              -0.000084814               0.999999995               0.000168205              -0.000089174               0.999999995               0.000179342              -0.000093002               0.999999995               0.000051723              -0.000093648               0.999999995               0.000067144              -0.000082191               0.999999995               0.000074194              -0.000079322               0.999999995               0.000078499              -0.000080993               0.999999995               0.000082201              -0.000085290               0.999999995               0.000086123              -0.000091109               0.999999995               0.000090653              -0.000097927               0.999999995               0.000095916              -0.000105631               0.999999995               0.000101972              -0.000113979               0.999999995               0.000108847              -0.000122878               0.999999995               0.000116499              -0.000132144               0.999999995               0.000124900              -0.000141616               0.999999995               0.000133937              -0.000151250               0.999999995               0.000143547              -0.000160863               0.999999995               0.000153719              -0.000170396               0.999999995               0.000164417              -0.000179518               0.999999995               0.000175670              -0.000188096               0.999999995               0.000049909              -0.000139247               0.999999995               0.000061272              -0.000122278               0.999999995               0.000066385              -0.000118537               0.999999995               0.000069997              -0.000121532               0.999999995               0.000073666              -0.000128317               0.999999995               0.000077883              -0.000137332               0.999999995               0.000082903              -0.000147826               0.999999995               0.000088731              -0.000159473               0.999999995               0.000095375              -0.000172061               0.999999995               0.000102807              -0.000185453               0.999999995               0.000110928              -0.000199386               0.999999995               0.000119722              -0.000213587               0.999999995               0.000129103              -0.000228069               0.999999995               0.000139049              -0.000242714               0.999999995               0.000149605              -0.000257483               0.999999995               0.000160809              -0.000272295               0.999999995               0.000172730              -0.000286930               0.999999995               0.000047396              -0.000183327               0.999999995               0.000053615              -0.000161256               0.999999995               0.000056688              -0.000157277               0.999999995               0.000059791              -0.000162054               0.999999995               0.000063698              -0.000171616               0.999999995               0.000068497              -0.000183961               0.999999995               0.000074294              -0.000198206               0.999999995               0.000081003              -0.000213864               0.999999995               0.000088568              -0.000230754               0.999999995               0.000096840              -0.000248667               0.999999995               0.000105803              -0.000267208               0.999999995               0.000115459              -0.000286234               0.999999995               0.000125817              -0.000305715               0.999999995               0.000136858              -0.000325637               0.999999995               0.000148590              -0.000345984               0.999999995               0.000161014              -0.000366816               0.999999995               0.000174101              -0.000388092               0.999999995               0.000044397              -0.000225339               0.999999995               0.000044772              -0.000198894               0.999999995               0.000046037              -0.000195242               0.999999995               0.000049035              -0.000202144               0.999999995               0.000053579              -0.000214639               0.999999995               0.000059363              -0.000230497               0.999999995               0.000066343              -0.000248622               0.999999995               0.000074389              -0.000268367               0.999999995               0.000083249              -0.000289483               0.999999995               0.000092821              -0.000311752               0.999999995               0.000103154              -0.000334919               0.999999995               0.000114295              -0.000358800               0.999999995               0.000126194              -0.000383267               0.999999995               0.000138823              -0.000408319               0.999999995               0.000152085              -0.000434065               0.999999995               0.000165853              -0.000460474               0.999999995               0.000179929              -0.000487382               0.999999995               0.000041007              -0.000264837               0.999999995               0.000035281              -0.000235043               0.999999995               0.000035290              -0.000232149               0.999999995               0.000038742              -0.000241393               0.999999995               0.000044387              -0.000256975               0.999999995               0.000051612              -0.000276358               0.999999995               0.000060150              -0.000298505               0.999999995               0.000069716              -0.000322354               0.999999995               0.000080118              -0.000347571               0.999999995               0.000091343              -0.000374202               0.999999995               0.000103325              -0.000401886               0.999999995               0.000116139              -0.000430460               0.999999995               0.000129615              -0.000459682               0.999999995               0.000143682              -0.000489601               0.999999995               0.000158175              -0.000520239               0.999999995               0.000172885              -0.000551450               0.999999995               0.000187519              -0.000582765               0.999999995               0.000037305              -0.000301424               0.999999995               0.000025753              -0.000269543               0.999999995               0.000025221              -0.000267755               0.999999995               0.000029746              -0.000279451               0.999999995               0.000036919              -0.000298150               0.999999995               0.000045806              -0.000321099               0.999999995               0.000056006              -0.000347205               0.999999995               0.000067214              -0.000375126               0.999999995               0.000079236              -0.000404391               0.999999995               0.000092079              -0.000435241               0.999999995               0.000105740              -0.000467269               0.999999995               0.000120044              -0.000500248               0.999999995               0.000134892              -0.000533937               0.999999995               0.000150164              -0.000568289               0.999999995               0.000165624              -0.000603254               0.999999995               0.000181014              -0.000638456               0.999999995               0.000196037              -0.000673483               0.999999995               0.000033616              -0.000334502               0.999999995               0.000016591              -0.000302314               0.999999995               0.000016491              -0.000301782               0.999999995               0.000022480              -0.000315853               0.999999995               0.000031328              -0.000337717               0.999999995               0.000041913              -0.000364288               0.999999995               0.000053741              -0.000394136               0.999999995               0.000066482              -0.000425992               0.999999995               0.000080040              -0.000459442               0.999999995               0.000094459              -0.000494470               0.999999995               0.000109521              -0.000530646               0.999999995               0.000125095              -0.000567724               0.999999995               0.000141037              -0.000605496               0.999999995               0.000157248              -0.000643801               0.999999995               0.000173561              -0.000682447               0.999999995               0.000189706              -0.000721025               0.999999995               0.000205544              -0.000759308               0.999999995               0.000030380              -0.000365282               0.999999995               0.000009942              -0.000336358               0.999999995               0.000008121              -0.000332899               0.999999995               0.000013059              -0.000343363               0.999999995               0.000021013              -0.000361914               0.999999995               0.000030521              -0.000385372               0.999999995               0.000041070              -0.000412229               0.999999995               0.000052410              -0.000441419               0.999999995               0.000064388              -0.000472261               0.999999995               0.000077125              -0.000504387               0.999999995               0.000090377              -0.000537684               0.999999995               0.000103878              -0.000571837               0.999999995               0.000117687              -0.000606676               0.999999995               0.000131722              -0.000642073               0.999999995               0.000145977              -0.000677915               0.999999995               0.000160433              -0.000714053               0.999999995               0.000174920              -0.000750158               0.999999995               0.000026698              -0.000392898               0.999999995               0.000004864              -0.000368626               0.999999995               0.000001345              -0.000364100               0.999999995               0.000004913              -0.000371677               0.999999995               0.000011698              -0.000387204               0.999999995               0.000019903              -0.000407814               0.999999995               0.000029015              -0.000431905               0.999999995               0.000038922              -0.000458475               0.999999995               0.000049552              -0.000486782               0.999999995               0.000060526              -0.000516492               0.999999995               0.000071863              -0.000547262               0.999999995               0.000083399              -0.000578877               0.999999995               0.000095045              -0.000611075               0.999999995               0.000106593              -0.000643795               0.999999995               0.000118046              -0.000677018               0.999999995               0.000129630              -0.000710676               0.999999995               0.000141246              -0.000744645               0.999999995               0.000022778              -0.000416803               0.999999995               0.000001323              -0.000398253               0.999999995              -0.000003429              -0.000394003               0.999999995              -0.000001321              -0.000399831               0.999999995               0.000003951              -0.000412911               0.999999995               0.000010737              -0.000431083               0.999999995               0.000018469              -0.000452722               0.999999995               0.000026877              -0.000476877               0.999999995               0.000035834              -0.000502991               0.999999995               0.000045133              -0.000530600               0.999999995               0.000054664              -0.000559230               0.999999995               0.000064226              -0.000588664               0.999999995               0.000073606              -0.000618748               0.999999995               0.000082534              -0.000649350               0.999999995               0.000091048              -0.000680340               0.999999995               0.000099151              -0.000711758               0.999999995               0.000107029              -0.000743572               0.999999995               0.000018580              -0.000436741               0.999999995              -0.000000798              -0.000424302               0.999999995              -0.000006113              -0.000421320               0.999999995              -0.000005336              -0.000426491               0.999999995              -0.000001604              -0.000437956               0.999999995               0.000003784              -0.000454130               0.999999995               0.000010007              -0.000473761               0.999999995               0.000016714              -0.000495961               0.999999995               0.000023937              -0.000520245               0.999999995               0.000031601              -0.000546030               0.999999995               0.000039320              -0.000572877               0.999999995               0.000046925              -0.000600682               0.999999995               0.000054098              -0.000629215               0.999999995               0.000060599              -0.000658224               0.999999995               0.000066300              -0.000687591               0.999999995               0.000071186              -0.000717277               0.999999995               0.000075224              -0.000747341               0.999999995               0.000014167              -0.000452374               0.999999995              -0.000001641              -0.000445670               0.999999995              -0.000006747              -0.000444596               0.999999995              -0.000006942              -0.000449856               0.999999995              -0.000004501              -0.000460503               0.999999995              -0.000000510              -0.000475418               0.999999995               0.000004040              -0.000493621               0.999999995               0.000008981              -0.000514413               0.999999995               0.000014441              -0.000537255               0.999999995               0.000020382              -0.000561626               0.999999995               0.000026227              -0.000587215               0.999999995               0.000031791              -0.000613846               0.999999995               0.000036891              -0.000641323               0.999999995               0.000041302              -0.000669369               0.999999995               0.000044800              -0.000697801               0.999999995               0.000047192              -0.000726419               0.999999995               0.000048050              -0.000755252               0.999999995               0.000009565              -0.000463623               0.999999995              -0.000001570              -0.000461547               0.999999995              -0.000005629              -0.000462488               0.999999995              -0.000006215              -0.000468228               0.999999995              -0.000004756              -0.000478592               0.999999995              -0.000002155              -0.000492925               0.999999995               0.000000776              -0.000510357               0.999999995               0.000003943              -0.000530259               0.999999995               0.000007537              -0.000552174               0.999999995               0.000011487              -0.000575738               0.999999995               0.000015378              -0.000600584               0.999999995               0.000018988              -0.000626566               0.999999995               0.000022195              -0.000653437               0.999999995               0.000024833              -0.000681006               0.999999995               0.000026818              -0.000709037               0.999999995               0.000027683              -0.000737312               0.999999995               0.000026787              -0.000765695               0.999999995               0.000004810              -0.000470440               0.999999995              -0.000000929              -0.000471341               0.999999995              -0.000003169              -0.000473737               0.999999995              -0.000003608              -0.000479967               0.999999995              -0.000002982              -0.000490359               0.999999995              -0.000001686              -0.000504544               0.999999995              -0.000000232              -0.000521702               0.999999995               0.000001295              -0.000541217               0.999999995               0.000002999              -0.000562682               0.999999995               0.000004918              -0.000585830               0.999999995               0.000006864              -0.000610299               0.999999995               0.000008580              -0.000635935               0.999999995               0.000010106              -0.000662487               0.999999995               0.000011370              -0.000689768               0.999999995               0.000012207              -0.000717610               0.999999995               0.000012416              -0.000745833               0.999999995               0.000011504              -0.000774185               0.999999995               0.000000000              -0.000472694               0.999999995              -0.000000000              -0.000474613               0.999999995               0.000000000              -0.000477590               0.999999995              -0.000000000              -0.000484073               0.999999995              -0.000000000              -0.000494441               0.999999995              -0.000000000              -0.000508589               0.999999995              -0.000000000              -0.000525710               0.999999995              -0.000000000              -0.000545126               0.999999995              -0.000000000              -0.000566454               0.999999995               0.000000000              -0.000589423               0.999999995              -0.000000000              -0.000613817               0.999999995              -0.000000000              -0.000639347               0.999999995              -0.000000000              -0.000665764               0.999999995               0.000000000              -0.000692911               0.999999995               0.000000000              -0.000720644               0.999999995               0.000000000              -0.000748814               0.999999995               0.000000000              -0.000777129               0.999999995               0.000053232              -0.000000000               0.999999995               0.000072023              -0.000000000               0.999999995               0.000080955               0.000000000               0.999999995               0.000086208               0.000000000               0.999999995               0.000090266              -0.000000000               0.999999995               0.000094160              -0.000000000               0.999999995               0.000098411              -0.000000000               0.999999995               0.000103292               0.000000000               0.999999995               0.000108852              -0.000000000               0.999999995               0.000115157               0.000000000               0.999999995               0.000122363               0.000000000               0.999999995               0.000130407               0.000000000               0.999999995               0.000139237               0.000000000               0.999999995               0.000148823               0.000000000               0.999999995               0.000159085               0.000000000               0.999999995               0.000169901               0.000000000               0.999999995               0.000181086               0.000000000               0.999999995               0.000052809               0.000047073               0.999999995               0.000070765               0.000041301               0.999999995               0.000079242               0.000039765               0.999999995               0.000084240               0.000040467               0.999999995               0.000088153               0.000042535               0.999999995               0.000092010               0.000045348               0.999999995               0.000096293               0.000048699               0.999999995               0.000101222               0.000052508               0.999999995               0.000106916               0.000056650               0.999999995               0.000113406               0.000061088               0.999999995               0.000120718               0.000065726               0.999999995               0.000128858               0.000070513               0.999999995               0.000137727               0.000075327               0.999999995               0.000147276               0.000080140               0.999999995               0.000157488               0.000084814               0.999999995               0.000168205               0.000089174               0.999999995               0.000179342               0.000093002               0.999999995               0.000051723               0.000093648               0.999999995               0.000067144               0.000082191               0.999999995               0.000074194               0.000079322               0.999999995               0.000078499               0.000080993               0.999999995               0.000082201               0.000085290               0.999999995               0.000086123               0.000091109               0.999999995               0.000090653               0.000097927               0.999999995               0.000095916               0.000105631               0.999999995               0.000101972               0.000113979               0.999999995               0.000108847               0.000122878               0.999999995               0.000116499               0.000132144               0.999999995               0.000124900               0.000141616               0.999999995               0.000133937               0.000151250               0.999999995               0.000143547               0.000160863               0.999999995               0.000153719               0.000170396               0.999999995               0.000164417               0.000179518               0.999999995               0.000175670               0.000188096               0.999999995               0.000049909               0.000139247               0.999999995               0.000061272               0.000122278               0.999999995               0.000066385               0.000118537               0.999999995               0.000069997               0.000121532               0.999999995               0.000073666               0.000128317               0.999999995               0.000077883               0.000137332               0.999999995               0.000082903               0.000147826               0.999999995               0.000088731               0.000159473               0.999999995               0.000095375               0.000172061               0.999999995               0.000102807               0.000185453               0.999999995               0.000110928               0.000199386               0.999999995               0.000119722               0.000213587               0.999999995               0.000129103               0.000228069               0.999999995               0.000139049               0.000242714               0.999999995               0.000149605               0.000257483               0.999999995               0.000160809               0.000272295               0.999999995               0.000172730               0.000286930               0.999999995               0.000047396               0.000183327               0.999999995               0.000053615               0.000161256               0.999999995               0.000056688               0.000157277               0.999999995               0.000059791               0.000162054               0.999999995               0.000063698               0.000171616               0.999999995               0.000068497               0.000183961               0.999999995               0.000074294               0.000198206               0.999999995               0.000081003               0.000213864               0.999999995               0.000088568               0.000230754               0.999999995               0.000096840               0.000248667               0.999999995               0.000105803               0.000267208               0.999999995               0.000115459               0.000286234               0.999999995               0.000125817               0.000305715               0.999999995               0.000136858               0.000325637               0.999999995               0.000148590               0.000345984               0.999999995               0.000161014               0.000366816               0.999999995               0.000174101               0.000388092               0.999999995               0.000044397               0.000225339               0.999999995               0.000044772               0.000198894               0.999999995               0.000046037               0.000195242               0.999999995               0.000049035               0.000202144               0.999999995               0.000053579               0.000214639               0.999999995               0.000059363               0.000230497               0.999999995               0.000066343               0.000248622               0.999999995               0.000074389               0.000268367               0.999999995               0.000083249               0.000289483               0.999999995               0.000092821               0.000311752               0.999999995               0.000103154               0.000334919               0.999999995               0.000114295               0.000358800               0.999999995               0.000126194               0.000383267               0.999999995               0.000138823               0.000408319               0.999999995               0.000152085               0.000434065               0.999999995               0.000165853               0.000460474               0.999999995               0.000179929               0.000487382               0.999999995               0.000041007               0.000264837               0.999999995               0.000035281               0.000235043               0.999999995               0.000035290               0.000232149               0.999999995               0.000038742               0.000241393               0.999999995               0.000044387               0.000256975               0.999999995               0.000051612               0.000276358               0.999999995               0.000060150               0.000298505               0.999999995               0.000069716               0.000322354               0.999999995               0.000080118               0.000347571               0.999999995               0.000091343               0.000374202               0.999999995               0.000103325               0.000401886               0.999999995               0.000116139               0.000430460               0.999999995               0.000129615               0.000459682               0.999999995               0.000143682               0.000489601               0.999999995               0.000158175               0.000520239               0.999999995               0.000172885               0.000551450               0.999999995               0.000187519               0.000582765               0.999999995               0.000037305               0.000301424               0.999999995               0.000025753               0.000269543               0.999999995               0.000025221               0.000267755               0.999999995               0.000029746               0.000279451               0.999999995               0.000036919               0.000298150               0.999999995               0.000045806               0.000321099               0.999999995               0.000056006               0.000347205               0.999999995               0.000067214               0.000375126               0.999999995               0.000079236               0.000404391               0.999999995               0.000092079               0.000435241               0.999999995               0.000105740               0.000467269               0.999999995               0.000120044               0.000500248               0.999999995               0.000134892               0.000533937               0.999999995               0.000150164               0.000568289               0.999999995               0.000165624               0.000603254               0.999999995               0.000181014               0.000638456               0.999999995               0.000196037               0.000673483               0.999999995               0.000033616               0.000334502               0.999999995               0.000016591               0.000302314               0.999999995               0.000016491               0.000301782               0.999999995               0.000022480               0.000315853               0.999999995               0.000031328               0.000337717               0.999999995               0.000041913               0.000364288               0.999999995               0.000053741               0.000394136               0.999999995               0.000066482               0.000425992               0.999999995               0.000080040               0.000459442               0.999999995               0.000094459               0.000494470               0.999999995               0.000109521               0.000530646               0.999999995               0.000125095               0.000567724               0.999999995               0.000141037               0.000605496               0.999999995               0.000157248               0.000643801               0.999999995               0.000173561               0.000682447               0.999999995               0.000189706               0.000721025               0.999999995               0.000205544               0.000759308               0.999999995               0.000030380               0.000365282               0.999999995               0.000009942               0.000336358               0.999999995               0.000008121               0.000332899               0.999999995               0.000013059               0.000343363               0.999999995               0.000021013               0.000361914               0.999999995               0.000030521               0.000385372               0.999999995               0.000041070               0.000412229               0.999999995               0.000052410               0.000441419               0.999999995               0.000064388               0.000472261               0.999999995               0.000077125               0.000504387               0.999999995               0.000090377               0.000537684               0.999999995               0.000103878               0.000571837               0.999999995               0.000117687               0.000606676               0.999999995               0.000131722               0.000642073               0.999999995               0.000145977               0.000677915               0.999999995               0.000160433               0.000714053               0.999999995               0.000174920               0.000750158               0.999999995               0.000026698               0.000392898               0.999999995               0.000004864               0.000368626               0.999999995               0.000001345               0.000364100               0.999999995               0.000004913               0.000371677               0.999999995               0.000011698               0.000387204               0.999999995               0.000019903               0.000407814               0.999999995               0.000029015               0.000431905               0.999999995               0.000038922               0.000458475               0.999999995               0.000049552               0.000486782               0.999999995               0.000060526               0.000516492               0.999999995               0.000071863               0.000547262               0.999999995               0.000083399               0.000578877               0.999999995               0.000095045               0.000611075               0.999999995               0.000106593               0.000643795               0.999999995               0.000118046               0.000677018               0.999999995               0.000129630               0.000710676               0.999999995               0.000141246               0.000744645               0.999999995               0.000022778               0.000416803               0.999999995               0.000001323               0.000398253               0.999999995              -0.000003429               0.000394003               0.999999995              -0.000001321               0.000399831               0.999999995               0.000003951               0.000412911               0.999999995               0.000010737               0.000431083               0.999999995               0.000018469               0.000452722               0.999999995               0.000026877               0.000476877               0.999999995               0.000035834               0.000502991               0.999999995               0.000045133               0.000530600               0.999999995               0.000054664               0.000559230               0.999999995               0.000064226               0.000588664               0.999999995               0.000073606               0.000618748               0.999999995               0.000082534               0.000649350               0.999999995               0.000091048               0.000680340               0.999999995               0.000099151               0.000711758               0.999999995               0.000107029               0.000743572               0.999999995               0.000018580               0.000436741               0.999999995              -0.000000798               0.000424302               0.999999995              -0.000006113               0.000421320               0.999999995              -0.000005336               0.000426491               0.999999995              -0.000001604               0.000437956               0.999999995               0.000003784               0.000454130               0.999999995               0.000010007               0.000473761               0.999999995               0.000016714               0.000495961               0.999999995               0.000023937               0.000520245               0.999999995               0.000031601               0.000546030               0.999999995               0.000039320               0.000572877               0.999999995               0.000046925               0.000600682               0.999999995               0.000054098               0.000629215               0.999999995               0.000060599               0.000658224               0.999999995               0.000066300               0.000687591               0.999999995               0.000071186               0.000717277               0.999999995               0.000075224               0.000747341               0.999999995               0.000014167               0.000452374               0.999999995              -0.000001641               0.000445670               0.999999995              -0.000006747               0.000444596               0.999999995              -0.000006942               0.000449856               0.999999995              -0.000004501               0.000460503               0.999999995              -0.000000510               0.000475418               0.999999995               0.000004040               0.000493621               0.999999995               0.000008981               0.000514413               0.999999995               0.000014441               0.000537255               0.999999995               0.000020382               0.000561626               0.999999995               0.000026227               0.000587215               0.999999995               0.000031791               0.000613846               0.999999995               0.000036891               0.000641323               0.999999995               0.000041302               0.000669369               0.999999995               0.000044800               0.000697801               0.999999995               0.000047192               0.000726419               0.999999995               0.000048050               0.000755252               0.999999995               0.000009565               0.000463623               0.999999995              -0.000001570               0.000461547               0.999999995              -0.000005629               0.000462488               0.999999995              -0.000006215               0.000468228               0.999999995              -0.000004756               0.000478592               0.999999995              -0.000002155               0.000492925               0.999999995               0.000000776               0.000510357               0.999999995               0.000003943               0.000530259               0.999999995               0.000007537               0.000552174               0.999999995               0.000011487               0.000575738               0.999999995               0.000015378               0.000600584               0.999999995               0.000018988               0.000626566               0.999999995               0.000022195               0.000653437               0.999999995               0.000024833               0.000681006               0.999999995               0.000026818               0.000709037               0.999999995               0.000027683               0.000737312               0.999999995               0.000026787               0.000765695               0.999999995               0.000004810               0.000470440               0.999999995              -0.000000929               0.000471341               0.999999995              -0.000003169               0.000473737               0.999999995              -0.000003608               0.000479967               0.999999995              -0.000002982               0.000490359               0.999999995              -0.000001686               0.000504544               0.999999995              -0.000000232               0.000521702               0.999999995               0.000001295               0.000541217               0.999999995               0.000002999               0.000562682               0.999999995               0.000004918               0.000585830               0.999999995               0.000006864               0.000610299               0.999999995               0.000008580               0.000635935               0.999999995               0.000010106               0.000662487               0.999999995               0.000011370               0.000689768               0.999999995               0.000012207               0.000717610               0.999999995               0.000012416               0.000745833               0.999999995               0.000011504               0.000774185               0.999999995              -0.000000000               0.000472694               0.999999995              -0.000000000               0.000474613               0.999999995              -0.000000000               0.000477590               0.999999995               0.000000000               0.000484073               0.999999995              -0.000000000               0.000494441               0.999999995              -0.000000000               0.000508589               0.999999995               0.000000000               0.000525710               0.999999995              -0.000000000               0.000545126               0.999999995               0.000000000               0.000566454               0.999999995               0.000000000               0.000589423               0.999999995               0.000000000               0.000613817               0.999999995               0.000000000               0.000639347               0.999999995               0.000000000               0.000665764               0.999999995               0.000000000               0.000692911               0.999999995              -0.000000000               0.000720644               0.999999995              -0.000000000               0.000748814               0.999999995              -0.000000000               0.000777129               0.999999995 </DataArray>
<DataArray type="Float64"                                    Name="stress"                                                      NumberOfComponents="10" format="ascii">
              0.000777785               0.008791227              -0.000000000              -0.000807232               0.003199457               0.002392225               0.000000000               0.000000000               0.000000000               0.000000000               0.000848095               0.007211506              -0.000000000              -0.000583401               0.002598278               0.002014877               0.000000000               0.000000000               0.000000000               0.000000000               0.001175992               0.005953433               0.000000000              -0.000303182               0.002085518               0.001782337               0.000000000               0.000000000               0.000000000               0.000000000               0.001215130               0.005265249               0.000000000              -0.000202482               0.001822560               0.001620078               0.000000000               0.000000000               0.000000000               0.000000000               0.001152536               0.004860481               0.000000000              -0.000175359               0.001678597               0.001503238               0.000000000               0.000000000               0.000000000               0.000000000               0.001051379               0.004601819              -0.000000000              -0.000180960               0.001594244               0.001413284               0.000000000               0.000000000               0.000000000               0.000000000               0.000935419               0.004429266              -0.000000000              -0.000202876               0.001544032               0.001341157               0.000000000               0.000000000               0.000000000               0.000000000               0.000820367               0.004315375              -0.000000000              -0.000231784               0.001515705               0.001283922               0.000000000               0.000000000               0.000000000               0.000000000               0.000710870               0.004240197              -0.000000000              -0.000263448               0.001501201               0.001237753               0.000000000               0.000000000               0.000000000               0.000000000               0.000599514               0.004188881              -0.000000000              -0.000298792               0.001495877               0.001197085               0.000000000               0.000000000               0.000000000               0.000000000               0.000488848               0.004152340              -0.000000000              -0.000335724               0.001496007               0.001160284               0.000000000               0.000000000               0.000000000               0.000000000               0.000387883               0.004126744              -0.000000000              -0.000370386               0.001499030               0.001128644               0.000000000               0.000000000               0.000000000               0.000000000               0.000293945               0.004104720               0.000000000              -0.000402860               0.001502513               0.001099653               0.000000000               0.000000000               0.000000000               0.000000000               0.000205298               0.004082425               0.000000000              -0.000433315               0.001505233               0.001071918               0.000000000               0.000000000               0.000000000               0.000000000               0.000126363               0.004055688              -0.000000000              -0.000459574               0.001505074               0.001045500               0.000000000               0.000000000               0.000000000               0.000000000               0.000060596               0.004018982              -0.000000000              -0.000479648               0.001499530               0.001019882               0.000000000               0.000000000               0.000000000               0.000000000               0.000028461               0.003988772               0.000000000              -0.000487922               0.001492218               0.001004296               0.000000000               0.000000000               0.000000000               0.000000000               0.000819227               0.008638284              -0.000645228              -0.000772574               0.003136924               0.002364350               0.000000000               0.000000000               0.000000000               0.000000000               0.000854032               0.007106593              -0.000394192              -0.000568061               0.002558194               0.001990133               0.000000000               0.000000000               0.000000000               0.000000000               0.001144657               0.005899369              -0.000137515              -0.000308174               0.002069161               0.001760987               0.000000000               0.000000000               0.000000000               0.000000000               0.001170884               0.005241394              -0.000020682              -0.000216092               0.001819145               0.001603052               0.000000000               0.000000000               0.000000000               0.000000000               0.001104051               0.004852522               0.000032203              -0.000192546               0.001681673               0.001489128               0.000000000               0.000000000               0.000000000               0.000000000               0.001003036               0.004604324               0.000054224              -0.000199402               0.001601227               0.001401825               0.000000000               0.000000000               0.000000000               0.000000000               0.000890728               0.004438100               0.000064582              -0.000220739               0.001552932               0.001332193               0.000000000               0.000000000               0.000000000               0.000000000               0.000778604               0.004327370               0.000069076              -0.000248944               0.001525424               0.001276480               0.000000000               0.000000000               0.000000000               0.000000000               0.000670255               0.004253023               0.000069638              -0.000280281               0.001511087               0.001230806               0.000000000               0.000000000               0.000000000               0.000000000               0.000564893               0.004202605               0.000067864              -0.000313490               0.001505351               0.001191861               0.000000000               0.000000000               0.000000000               0.000000000               0.000461636               0.004166014               0.000065013              -0.000347637               0.001504536               0.001156899               0.000000000               0.000000000               0.000000000               0.000000000               0.000366550               0.004138664               0.000061169              -0.000379876               0.001506166               0.001126290               0.000000000               0.000000000               0.000000000               0.000000000               0.000280631               0.004117448               0.000056668              -0.000409443               0.001508950               0.001099507               0.000000000               0.000000000               0.000000000               0.000000000               0.000198205               0.004096465               0.000051130              -0.000437730               0.001511385               0.001073655               0.000000000               0.000000000               0.000000000               0.000000000               0.000124125               0.004074555               0.000041108              -0.000462771               0.001512428               0.001049657               0.000000000               0.000000000               0.000000000               0.000000000               0.000060656               0.004047459               0.000024349              -0.000483185               0.001510201               0.001027016               0.000000000               0.000000000               0.000000000               0.000000000               0.000030096               0.004028126               0.000013903              -0.000492229               0.001506771               0.001014543               0.000000000               0.000000000               0.000000000               0.000000000               0.000935238               0.008199791              -0.001220029              -0.000674258               0.002957989               0.002283730               0.000000000               0.000000000               0.000000000               0.000000000               0.000871676               0.006807438              -0.000747376              -0.000524050               0.002443807               0.001919756               0.000000000               0.000000000               0.000000000               0.000000000               0.001058206               0.005748966              -0.000267680              -0.000321793               0.002023567               0.001701774               0.000000000               0.000000000               0.000000000               0.000000000               0.001044294               0.005169889              -0.000056634              -0.000254625               0.001808154               0.001553529               0.000000000               0.000000000               0.000000000               0.000000000               0.000966834               0.004822854               0.000036296              -0.000240293               0.001687700               0.001447406               0.000000000               0.000000000               0.000000000               0.000000000               0.000869096               0.004600499               0.000074865              -0.000249151               0.001616534               0.001367384               0.000000000               0.000000000               0.000000000               0.000000000               0.000766975               0.004451075               0.000092523              -0.000268768               0.001573266               0.001304498               0.000000000               0.000000000               0.000000000               0.000000000               0.000667296               0.004348361               0.000101351              -0.000293308               0.001547209               0.001253900               0.000000000               0.000000000               0.000000000               0.000000000               0.000570625               0.004277721               0.000104878              -0.000320730               0.001532803               0.001212073               0.000000000               0.000000000               0.000000000               0.000000000               0.000479585               0.004229819               0.000104733              -0.000348882               0.001526220               0.001177338               0.000000000               0.000000000               0.000000000               0.000000000               0.000392932               0.004194992               0.000100615              -0.000377024               0.001523991               0.001146968               0.000000000               0.000000000               0.000000000               0.000000000               0.000313326               0.004167886               0.000095594              -0.000403487               0.001523777               0.001120290               0.000000000               0.000000000               0.000000000               0.000000000               0.000243490               0.004149612               0.000088955              -0.000427392               0.001525654               0.001098262               0.000000000               0.000000000               0.000000000               0.000000000               0.000177015               0.004136578               0.000079514              -0.000450691               0.001529076               0.001078385               0.000000000               0.000000000               0.000000000               0.000000000               0.000114632               0.004130041               0.000063472              -0.000473267               0.001534422               0.001061155               0.000000000               0.000000000               0.000000000               0.000000000               0.000056645               0.004131209               0.000037145              -0.000495158               0.001542109               0.001046950               0.000000000               0.000000000               0.000000000               0.000000000               0.000031583               0.004139346               0.000019951              -0.000505573               0.001548293               0.001042719               0.000000000               0.000000000               0.000000000               0.000000000               0.001087940               0.007522400              -0.001664018              -0.000532322               0.002684882               0.002152560               0.000000000               0.000000000               0.000000000               0.000000000               0.000883637               0.006351652              -0.001029196              -0.000462592               0.002271393               0.001808801               0.000000000               0.000000000               0.000000000               0.000000000               0.000921685               0.005525319              -0.000391707              -0.000345032               0.001956766               0.001611733               0.000000000               0.000000000               0.000000000               0.000000000               0.000858577               0.005061306              -0.000120324              -0.000310696               0.001790651               0.001479954               0.000000000               0.000000000               0.000000000               0.000000000               0.000775740               0.004773696              -0.000001066              -0.000305809               0.001693152               0.001387344               0.000000000               0.000000000               0.000000000               0.000000000               0.000688524               0.004582749               0.000051036              -0.000314646               0.001632450               0.001317803               0.000000000               0.000000000               0.000000000               0.000000000               0.000603445               0.004452500               0.000075291              -0.000330270               0.001594242               0.001263972               0.000000000               0.000000000               0.000000000               0.000000000               0.000523990               0.004360444               0.000088667              -0.000348558               0.001569653               0.001221095               0.000000000               0.000000000               0.000000000               0.000000000               0.000449304               0.004297302               0.000096746              -0.000368673               0.001555311               0.001186638               0.000000000               0.000000000               0.000000000               0.000000000               0.000380899               0.004254479               0.000099729              -0.000388972               0.001547803               0.001158831               0.000000000               0.000000000               0.000000000               0.000000000               0.000315734               0.004222717               0.000095700              -0.000409438               0.001544038               0.001134599               0.000000000               0.000000000               0.000000000               0.000000000               0.000255099               0.004200776               0.000089174              -0.000429434               0.001543389               0.001113955               0.000000000               0.000000000               0.000000000               0.000000000               0.000201688               0.004189437               0.000080943              -0.000448045               0.001545813               0.001097768               0.000000000               0.000000000               0.000000000               0.000000000               0.000150550               0.004188794               0.000069188              -0.000467142               0.001551965               0.001084823               0.000000000               0.000000000               0.000000000               0.000000000               0.000099484               0.004199504               0.000053516              -0.000487630               0.001562364               0.001074734               0.000000000               0.000000000               0.000000000               0.000000000               0.000049353               0.004226509               0.000030034              -0.000509805               0.001578757               0.001068952               0.000000000               0.000000000               0.000000000               0.000000000               0.000031751               0.004257881               0.000012109              -0.000520327               0.001592722               0.001072395               0.000000000               0.000000000               0.000000000               0.000000000               0.001232160               0.006675028              -0.001952558              -0.000372319               0.002349093               0.001976774               0.000000000               0.000000000               0.000000000               0.000000000               0.000878872               0.005792407              -0.001230108              -0.000394474               0.002062274               0.001667800               0.000000000               0.000000000               0.000000000               0.000000000               0.000756916               0.005249070              -0.000507871              -0.000372289               0.001873769               0.001501479               0.000000000               0.000000000               0.000000000               0.000000000               0.000652306               0.004916509              -0.000208163              -0.000369948               0.001762136               0.001392188               0.000000000               0.000000000               0.000000000               0.000000000               0.000572845               0.004694523              -0.000075373              -0.000371998               0.001688825               0.001316827               0.000000000               0.000000000               0.000000000               0.000000000               0.000504863               0.004541066              -0.000014715              -0.000378309               0.001639777               0.001261468               0.000000000               0.000000000               0.000000000               0.000000000               0.000442292               0.004433001               0.000014369              -0.000388265               0.001607074               0.001218809               0.000000000               0.000000000               0.000000000               0.000000000               0.000388238               0.004355232               0.000031133              -0.000398814               0.001584667               0.001185854               0.000000000               0.000000000               0.000000000               0.000000000               0.000341060               0.004299716               0.000043929              -0.000409566               0.001569746               0.001160180               0.000000000               0.000000000               0.000000000               0.000000000               0.000296486               0.004258952               0.000049458              -0.000421186               0.001560032               0.001138846               0.000000000               0.000000000               0.000000000               0.000000000               0.000250207               0.004229609               0.000046081              -0.000434872               0.001554813               0.001119941               0.000000000               0.000000000               0.000000000               0.000000000               0.000204493               0.004212373               0.000038780              -0.000449860               0.001554064               0.001104203               0.000000000               0.000000000               0.000000000               0.000000000               0.000161134               0.004204563               0.000030346              -0.000465144               0.001556555               0.001091411               0.000000000               0.000000000               0.000000000               0.000000000               0.000119762               0.004206696               0.000021403              -0.000480925               0.001562526               0.001081601               0.000000000               0.000000000               0.000000000               0.000000000               0.000079090               0.004219909               0.000013458              -0.000497829               0.001572565               0.001074736               0.000000000               0.000000000               0.000000000               0.000000000               0.000039725               0.004244223               0.000005738              -0.000515630               0.001586603               0.001070974               0.000000000               0.000000000               0.000000000               0.000000000               0.000026592               0.004269698              -0.000001661              -0.000523739               0.001597798               0.001074059               0.000000000               0.000000000               0.000000000               0.000000000               0.001335226               0.005747164              -0.002079749              -0.000217687               0.001988264               0.001770577               0.000000000               0.000000000               0.000000000               0.000000000               0.000853156               0.005187834              -0.001349288              -0.000328546               0.001838776               0.001510230               0.000000000               0.000000000               0.000000000               0.000000000               0.000587288               0.004939622              -0.000616125              -0.000397219               0.001778930               0.001381711               0.000000000               0.000000000               0.000000000               0.000000000               0.000460162               0.004736470              -0.000315395              -0.000419497               0.001718640               0.001299143               0.000000000               0.000000000               0.000000000               0.000000000               0.000394951               0.004581016              -0.000178545              -0.000424519               0.001668496               0.001243977               0.000000000               0.000000000               0.000000000               0.000000000               0.000352267               0.004468030              -0.000111901              -0.000426403               0.001631463               0.001205060               0.000000000               0.000000000               0.000000000               0.000000000               0.000314903               0.004387579              -0.000079117              -0.000430358               0.001605964               0.001175607               0.000000000               0.000000000               0.000000000               0.000000000               0.000284684               0.004324007              -0.000058697              -0.000433743               0.001585902               0.001152159               0.000000000               0.000000000               0.000000000               0.000000000               0.000259200               0.004271891              -0.000040342              -0.000436785               0.001569545               0.001132759               0.000000000               0.000000000               0.000000000               0.000000000               0.000231625               0.004232243              -0.000029078              -0.000442170               0.001558124               0.001115954               0.000000000               0.000000000               0.000000000               0.000000000               0.000195871               0.004202891              -0.000026111              -0.000451909               0.001551586               0.001099677               0.000000000               0.000000000               0.000000000               0.000000000               0.000157627               0.004183109              -0.000028250              -0.000463777               0.001548948               0.001085171               0.000000000               0.000000000               0.000000000               0.000000000               0.000118818               0.004168897              -0.000030075              -0.000476554               0.001548470               0.001071915               0.000000000               0.000000000               0.000000000               0.000000000               0.000081207               0.004160617              -0.000027156              -0.000489623               0.001550066               0.001060443               0.000000000               0.000000000               0.000000000               0.000000000               0.000048359               0.004158527              -0.000019424              -0.000501680               0.001553388               0.001051709               0.000000000               0.000000000               0.000000000               0.000000000               0.000022435               0.004157993              -0.000010207              -0.000511335               0.001556429               0.001045094               0.000000000               0.000000000               0.000000000               0.000000000               0.000011335               0.004156188              -0.000005451              -0.000515272               0.001557139               0.001041868               0.000000000               0.000000000               0.000000000               0.000000000               0.001371782               0.004819161              -0.002060411              -0.000087979               0.001635697               0.001547717               0.000000000               0.000000000               0.000000000               0.000000000               0.000806676               0.004587587              -0.001397875              -0.000270945               0.001619495               0.001348550               0.000000000               0.000000000               0.000000000               0.000000000               0.000436538               0.004623624              -0.000719718              -0.000414251               0.001679276               0.001265025               0.000000000               0.000000000               0.000000000               0.000000000               0.000312375               0.004542796              -0.000435156              -0.000450708               0.001664486               0.001213778               0.000000000               0.000000000               0.000000000               0.000000000               0.000269495               0.004450073              -0.000298490              -0.000455197               0.001635075               0.001179878               0.000000000               0.000000000               0.000000000               0.000000000               0.000249411               0.004373289              -0.000222358              -0.000453131               0.001608792               0.001155661               0.000000000               0.000000000               0.000000000               0.000000000               0.000234498               0.004315669              -0.000179995              -0.000451521               0.001589049               0.001137528               0.000000000               0.000000000               0.000000000               0.000000000               0.000220347               0.004261825              -0.000154041              -0.000450097               0.001570626               0.001120529               0.000000000               0.000000000               0.000000000               0.000000000               0.000201434               0.004211018              -0.000126826              -0.000450838               0.001553938               0.001103100               0.000000000               0.000000000               0.000000000               0.000000000               0.000177658               0.004170567              -0.000104109              -0.000454698               0.001541741               0.001087043               0.000000000               0.000000000               0.000000000               0.000000000               0.000145763               0.004135877              -0.000089545              -0.000462322               0.001532719               0.001070397               0.000000000               0.000000000               0.000000000               0.000000000               0.000109191               0.004105696              -0.000079009              -0.000472264               0.001525973               0.001053709               0.000000000               0.000000000               0.000000000               0.000000000               0.000073423               0.004079427              -0.000067705              -0.000482393               0.001520593               0.001038200               0.000000000               0.000000000               0.000000000               0.000000000               0.000040092               0.004055803              -0.000050286              -0.000491940               0.001515901               0.001023961               0.000000000               0.000000000               0.000000000               0.000000000               0.000014970               0.004032245              -0.000029186              -0.000498416               0.001510207               0.001011791               0.000000000               0.000000000               0.000000000               0.000000000               0.000002594               0.004003988              -0.000011422              -0.000499525               0.001501158               0.001001633               0.000000000               0.000000000               0.000000000               0.000000000              -0.000004432               0.003979764              -0.000001449              -0.000499131               0.001492952               0.000993821               0.000000000               0.000000000               0.000000000               0.000000000               0.001341374               0.003944799              -0.001924437               0.000009913               0.001311615               0.001321528               0.000000000               0.000000000               0.000000000               0.000000000               0.000745139               0.004027282              -0.001391692              -0.000223984               0.001417075               0.001193091               0.000000000               0.000000000               0.000000000               0.000000000               0.000323615               0.004316540              -0.000819683              -0.000418211               0.001578236               0.001160025               0.000000000               0.000000000               0.000000000               0.000000000               0.000219952               0.004341532              -0.000555032              -0.000460209               0.001600566               0.001140357               0.000000000               0.000000000               0.000000000               0.000000000               0.000200886               0.004306520              -0.000414414              -0.000462982               0.001589820               0.001126838               0.000000000               0.000000000               0.000000000               0.000000000               0.000197499               0.004262945              -0.000325317              -0.000458805               0.001573902               0.001115097               0.000000000               0.000000000               0.000000000               0.000000000               0.000190921               0.004214823              -0.000267254              -0.000455256               0.001556679               0.001101423               0.000000000               0.000000000               0.000000000               0.000000000               0.000180413               0.004164921              -0.000230944              -0.000452959               0.001539279               0.001086320               0.000000000               0.000000000               0.000000000               0.000000000               0.000162061               0.004120501              -0.000194804              -0.000454289               0.001524916               0.001070627               0.000000000               0.000000000               0.000000000               0.000000000               0.000133374               0.004077938              -0.000159854              -0.000459726               0.001512541               0.001052815               0.000000000               0.000000000               0.000000000               0.000000000               0.000099454               0.004034747              -0.000131574              -0.000467047               0.001500585               0.001033537               0.000000000               0.000000000               0.000000000               0.000000000               0.000062989               0.003991564              -0.000106085              -0.000475324               0.001488949               0.001013626               0.000000000               0.000000000               0.000000000               0.000000000               0.000025756               0.003949251              -0.000081053              -0.000483997               0.001477736               0.000993739               0.000000000               0.000000000               0.000000000               0.000000000              -0.000005488               0.003906398              -0.000052663              -0.000490357               0.001465572               0.000975215               0.000000000               0.000000000               0.000000000               0.000000000              -0.000022122               0.003861017              -0.000025958              -0.000490922               0.001450633               0.000959712               0.000000000               0.000000000               0.000000000               0.000000000              -0.000019708               0.003812219              -0.000007435              -0.000483917               0.001432033               0.000948116               0.000000000               0.000000000               0.000000000               0.000000000              -0.000017409               0.003777407               0.000002645              -0.000478703               0.001418691               0.000939988               0.000000000               0.000000000               0.000000000               0.000000000               0.001272482               0.003186701              -0.001714303               0.000078840               0.001035942               0.001114783               0.000000000               0.000000000               0.000000000               0.000000000               0.000699043               0.003525697              -0.001357975              -0.000178572               0.001234744               0.001056172               0.000000000               0.000000000               0.000000000               0.000000000               0.000268586               0.004027745              -0.000929767              -0.000402748               0.001476817               0.001074069               0.000000000               0.000000000               0.000000000               0.000000000               0.000185097               0.004152684              -0.000678155              -0.000449673               0.001534105               0.001084432               0.000000000               0.000000000               0.000000000               0.000000000               0.000180586               0.004173770              -0.000525947              -0.000454000               0.001542576               0.001088576               0.000000000               0.000000000               0.000000000               0.000000000               0.000183108               0.004159529              -0.000422464              -0.000451275               0.001536921               0.001085646               0.000000000               0.000000000               0.000000000               0.000000000               0.000175486               0.004121601              -0.000347602              -0.000449392               0.001523650               0.001074259               0.000000000               0.000000000               0.000000000               0.000000000               0.000160571               0.004077995              -0.000294952              -0.000449534               0.001509163               0.001059629               0.000000000               0.000000000               0.000000000               0.000000000               0.000139105               0.004043249              -0.000251398              -0.000453240               0.001498816               0.001045576               0.000000000               0.000000000               0.000000000               0.000000000               0.000111174               0.004003924              -0.000210522              -0.000458799               0.001487561               0.001028762               0.000000000               0.000000000               0.000000000               0.000000000               0.000077457               0.003956724              -0.000171820              -0.000465543               0.001474076               0.001008533               0.000000000               0.000000000               0.000000000               0.000000000               0.000037653               0.003903648              -0.000134121              -0.000473835               0.001459148               0.000985313               0.000000000               0.000000000               0.000000000               0.000000000              -0.000003771               0.003848325              -0.000098293              -0.000482454               0.001443580               0.000961126               0.000000000               0.000000000               0.000000000               0.000000000              -0.000041777               0.003790817              -0.000063579              -0.000489517               0.001426765               0.000937248               0.000000000               0.000000000               0.000000000               0.000000000              -0.000068019               0.003727998              -0.000033321              -0.000491506               0.001406489               0.000914983               0.000000000               0.000000000               0.000000000               0.000000000              -0.000076996               0.003662059              -0.000011391              -0.000486630               0.001382884               0.000896254               0.000000000               0.000000000               0.000000000               0.000000000              -0.000077516               0.003621493              -0.000000540              -0.000481754               0.001367737               0.000885983               0.000000000               0.000000000               0.000000000               0.000000000               0.001149737               0.002458137              -0.001471793               0.000123881               0.000778076               0.000901958               0.000000000               0.000000000               0.000000000               0.000000000               0.000680966               0.002942847              -0.001312484              -0.000112495               0.001018437               0.000905942               0.000000000               0.000000000               0.000000000               0.000000000               0.000282281               0.003594666              -0.001056113              -0.000343478               0.001312703               0.000969225               0.000000000               0.000000000               0.000000000               0.000000000               0.000201351               0.003843105              -0.000824966              -0.000404881               0.001415982               0.001011101               0.000000000               0.000000000               0.000000000               0.000000000               0.000198572               0.003943642              -0.000657743              -0.000418490               0.001454031               0.001035541               0.000000000               0.000000000               0.000000000               0.000000000               0.000198722               0.003977764              -0.000534389              -0.000422699               0.001466808               0.001044109               0.000000000               0.000000000               0.000000000               0.000000000               0.000187955               0.003977115              -0.000441505              -0.000426655               0.001467910               0.001041255               0.000000000               0.000000000               0.000000000               0.000000000               0.000172643               0.003958346              -0.000373502              -0.000430051               0.001462786               0.001032735               0.000000000               0.000000000               0.000000000               0.000000000               0.000153605               0.003933503              -0.000322066              -0.000434085               0.001455850               0.001021764               0.000000000               0.000000000               0.000000000               0.000000000               0.000124297               0.003903971              -0.000275299              -0.000441384               0.001448438               0.001007055               0.000000000               0.000000000               0.000000000               0.000000000               0.000088335               0.003866616              -0.000227441              -0.000450200               0.001438926               0.000988726               0.000000000               0.000000000               0.000000000               0.000000000               0.000044821               0.003818258              -0.000180928              -0.000460473               0.001426231               0.000965758               0.000000000               0.000000000               0.000000000               0.000000000              -0.000004190               0.003764156              -0.000136541              -0.000472090               0.001412069               0.000939980               0.000000000               0.000000000               0.000000000               0.000000000              -0.000057677               0.003708388              -0.000093345              -0.000485176               0.001397843               0.000912666               0.000000000               0.000000000               0.000000000               0.000000000              -0.000111057               0.003651239              -0.000055374              -0.000498050               0.001383084               0.000885034               0.000000000               0.000000000               0.000000000               0.000000000              -0.000157506               0.003589101              -0.000024101              -0.000507701               0.001365589               0.000857887               0.000000000               0.000000000               0.000000000               0.000000000              -0.000183077               0.003548854              -0.000006802              -0.000512259               0.001353693               0.000841433               0.000000000               0.000000000               0.000000000               0.000000000               0.000944725               0.001778897              -0.001201754               0.000131907               0.000548990               0.000680897               0.000000000               0.000000000               0.000000000               0.000000000               0.000656218               0.002357841              -0.001228542              -0.000048650               0.000802155               0.000753505               0.000000000               0.000000000               0.000000000               0.000000000               0.000340888               0.003102035              -0.001147911              -0.000259922               0.001120642               0.000860720               0.000000000               0.000000000               0.000000000               0.000000000               0.000260325               0.003466646              -0.000962633              -0.000335709               0.001267440               0.000931731               0.000000000               0.000000000               0.000000000               0.000000000               0.000247072               0.003660240              -0.000791269              -0.000364877               0.001341694               0.000976816               0.000000000               0.000000000               0.000000000               0.000000000               0.000243998               0.003760603              -0.000654573              -0.000378575               0.001379713               0.001001138               0.000000000               0.000000000               0.000000000               0.000000000               0.000234606               0.003808037              -0.000550638              -0.000388027               0.001398675               0.001010649               0.000000000               0.000000000               0.000000000               0.000000000               0.000218331               0.003822980              -0.000472866              -0.000395998               0.001406313               0.001010315               0.000000000               0.000000000               0.000000000               0.000000000               0.000199573               0.003825384              -0.000410383              -0.000403332               0.001409559               0.001006227               0.000000000               0.000000000               0.000000000               0.000000000               0.000172352               0.003818770              -0.000355042              -0.000412713               0.001410482               0.000997768               0.000000000               0.000000000               0.000000000               0.000000000               0.000136310               0.003797437              -0.000302731              -0.000423562               0.001406987               0.000983425               0.000000000               0.000000000               0.000000000               0.000000000               0.000093103               0.003763132              -0.000251169              -0.000435477               0.001399524               0.000964047               0.000000000               0.000000000               0.000000000               0.000000000               0.000038940               0.003720055              -0.000197261              -0.000450403               0.001390140               0.000939737               0.000000000               0.000000000               0.000000000               0.000000000              -0.000027156               0.003675039              -0.000140862              -0.000469562               0.001381521               0.000911959               0.000000000               0.000000000               0.000000000               0.000000000              -0.000103834               0.003628460              -0.000088788              -0.000492494               0.001373639               0.000881145               0.000000000               0.000000000               0.000000000               0.000000000              -0.000188397               0.003577972              -0.000041389              -0.000517894               0.001365277               0.000847383               0.000000000               0.000000000               0.000000000               0.000000000              -0.000246237               0.003540088              -0.000012120              -0.000534848               0.001358300               0.000823452               0.000000000               0.000000000               0.000000000               0.000000000               0.000669314               0.001192734              -0.000914733               0.000101899               0.000363607               0.000465506               0.000000000               0.000000000               0.000000000               0.000000000               0.000594932               0.001800496              -0.001089064              -0.000001964               0.000600813               0.000598849               0.000000000               0.000000000               0.000000000               0.000000000               0.000415021               0.002562695              -0.001157514              -0.000164705               0.000909124               0.000744420               0.000000000               0.000000000               0.000000000               0.000000000               0.000356366               0.003016625              -0.001034945              -0.000243441               0.001086678               0.000843237               0.000000000               0.000000000               0.000000000               0.000000000               0.000337151               0.003300233              -0.000882849              -0.000286098               0.001195432               0.000909335               0.000000000               0.000000000               0.000000000               0.000000000               0.000331847               0.003473363              -0.000749516              -0.000309728               0.001261019               0.000951291               0.000000000               0.000000000               0.000000000               0.000000000               0.000320106               0.003574816              -0.000642048              -0.000326812               0.001300531               0.000973719               0.000000000               0.000000000               0.000000000               0.000000000               0.000297540               0.003638257              -0.000556247              -0.000343204               0.001327142               0.000983937               0.000000000               0.000000000               0.000000000               0.000000000               0.000271658               0.003681863              -0.000486908              -0.000358360               0.001346729               0.000988369               0.000000000               0.000000000               0.000000000               0.000000000               0.000244787               0.003700966              -0.000427089              -0.000370825               0.001357251               0.000986426               0.000000000               0.000000000               0.000000000               0.000000000               0.000209819               0.003699841              -0.000370482              -0.000383797               0.001361200               0.000977403               0.000000000               0.000000000               0.000000000               0.000000000               0.000167448               0.003689741              -0.000313017              -0.000398424               0.001362709               0.000964285               0.000000000               0.000000000               0.000000000               0.000000000               0.000113653               0.003669961              -0.000250750              -0.000416124               0.001362016               0.000945892               0.000000000               0.000000000               0.000000000               0.000000000               0.000046644               0.003639483              -0.000185280              -0.000437443               0.001358963               0.000921520               0.000000000               0.000000000               0.000000000               0.000000000              -0.000033954               0.003603650              -0.000120506              -0.000463188               0.001355601               0.000892413               0.000000000               0.000000000               0.000000000               0.000000000              -0.000128981               0.003566161              -0.000057774              -0.000494137               0.001353421               0.000859284               0.000000000               0.000000000               0.000000000               0.000000000              -0.000200629               0.003532904              -0.000019835              -0.000516848               0.001349905               0.000833058               0.000000000               0.000000000               0.000000000               0.000000000               0.000348419               0.000729031              -0.000637796               0.000039527               0.000229832               0.000269359               0.000000000               0.000000000               0.000000000               0.000000000               0.000503719               0.001299517              -0.000903324               0.000026453               0.000424350               0.000450803               0.000000000               0.000000000               0.000000000               0.000000000               0.000491359               0.002021483              -0.001074935              -0.000068427               0.000696629               0.000628203               0.000000000               0.000000000               0.000000000               0.000000000               0.000475875               0.002529062              -0.001015240              -0.000137681               0.000888905               0.000751225               0.000000000               0.000000000               0.000000000               0.000000000               0.000464661               0.002882988              -0.000902609              -0.000186126               0.001023028               0.000836902               0.000000000               0.000000000               0.000000000               0.000000000               0.000456074               0.003125490              -0.000787323              -0.000219658               0.001115039               0.000895380               0.000000000               0.000000000               0.000000000               0.000000000               0.000433806               0.003288431              -0.000682617              -0.000248376               0.001178925               0.000930548               0.000000000               0.000000000               0.000000000               0.000000000               0.000402509               0.003406874              -0.000597895              -0.000274918               0.001227253               0.000952335               0.000000000               0.000000000               0.000000000               0.000000000               0.000370607               0.003491546              -0.000532073              -0.000297465               0.001262992               0.000965527               0.000000000               0.000000000               0.000000000               0.000000000               0.000338689               0.003540795              -0.000472396              -0.000315590               0.001285450               0.000969860               0.000000000               0.000000000               0.000000000               0.000000000               0.000301982               0.003573318              -0.000412681              -0.000333421               0.001302234               0.000968813               0.000000000               0.000000000               0.000000000               0.000000000               0.000260710               0.003597896              -0.000352214              -0.000351970               0.001316610               0.000964640               0.000000000               0.000000000               0.000000000               0.000000000               0.000212415               0.003604930              -0.000287564              -0.000370960               0.001325284               0.000954325               0.000000000               0.000000000               0.000000000               0.000000000               0.000156745               0.003595387              -0.000219602              -0.000390643               0.001328665               0.000938022               0.000000000               0.000000000               0.000000000               0.000000000               0.000091176               0.003576350              -0.000149814              -0.000412852               0.001329722               0.000916870               0.000000000               0.000000000               0.000000000               0.000000000               0.000012357               0.003553811              -0.000076462              -0.000439591               0.001331122               0.000891531               0.000000000               0.000000000               0.000000000               0.000000000              -0.000052415               0.003530051              -0.000031806              -0.000460911               0.001330309               0.000869398               0.000000000               0.000000000               0.000000000               0.000000000               0.000022633               0.000395116              -0.000400046              -0.000040903               0.000145338               0.000104435               0.000000000               0.000000000               0.000000000               0.000000000               0.000394786               0.000886150              -0.000685638               0.000037275               0.000282955               0.000320230               0.000000000               0.000000000               0.000000000               0.000000000               0.000560717               0.001527223              -0.000900437               0.000019365               0.000502614               0.000521978               0.000000000               0.000000000               0.000000000               0.000000000               0.000606106               0.002053476              -0.000891965              -0.000029396               0.000694283               0.000664888               0.000000000               0.000000000               0.000000000               0.000000000               0.000612998               0.002458411              -0.000822632              -0.000077428               0.000845271               0.000767843               0.000000000               0.000000000               0.000000000               0.000000000               0.000599716               0.002759576              -0.000734320              -0.000120054               0.000959867               0.000839813               0.000000000               0.000000000               0.000000000               0.000000000               0.000568291               0.002979906              -0.000644897              -0.000159379               0.001046418               0.000887039               0.000000000               0.000000000               0.000000000               0.000000000               0.000528025               0.003146487              -0.000573243              -0.000195301               0.001113919               0.000918618               0.000000000               0.000000000               0.000000000               0.000000000               0.000484669               0.003268891              -0.000518737              -0.000226860               0.001165239               0.000938379               0.000000000               0.000000000               0.000000000               0.000000000               0.000440993               0.003356383              -0.000465842              -0.000254175               0.001203508               0.000949333               0.000000000               0.000000000               0.000000000               0.000000000               0.000399750               0.003427358              -0.000409190              -0.000278513               0.001235279               0.000956766               0.000000000               0.000000000               0.000000000               0.000000000               0.000359512               0.003485897              -0.000352753              -0.000300919               0.001262260               0.000961341               0.000000000               0.000000000               0.000000000               0.000000000               0.000320153               0.003524589              -0.000294715              -0.000320516               0.001281690               0.000961174               0.000000000               0.000000000               0.000000000               0.000000000               0.000282605               0.003544454              -0.000234368              -0.000337079               0.001293832               0.000956753               0.000000000               0.000000000               0.000000000               0.000000000               0.000245127               0.003547470              -0.000169654              -0.000351510               0.001299648               0.000948138               0.000000000               0.000000000               0.000000000               0.000000000               0.000199739               0.003539542              -0.000092381              -0.000367540               0.001302349               0.000934809               0.000000000               0.000000000               0.000000000               0.000000000               0.000160447               0.003526990              -0.000045172              -0.000380705               0.001302553               0.000921848               0.000000000               0.000000000               0.000000000               0.000000000              -0.000264098               0.000182542              -0.000221040              -0.000121855               0.000101464              -0.000020390               0.000000000               0.000000000               0.000000000               0.000000000               0.000285365               0.000584573              -0.000455944               0.000033939               0.000183542               0.000217482               0.000000000               0.000000000               0.000000000               0.000000000               0.000615093               0.001131363              -0.000647582               0.000089238               0.000347371               0.000436609               0.000000000               0.000000000               0.000000000               0.000000000               0.000725315               0.001651096              -0.000667123               0.000065605               0.000528492               0.000594096               0.000000000               0.000000000               0.000000000               0.000000000               0.000749047               0.002089268              -0.000632058               0.000019733               0.000689838               0.000709571               0.000000000               0.000000000               0.000000000               0.000000000               0.000733310               0.002434109              -0.000574166              -0.000029273               0.000821119               0.000791846               0.000000000               0.000000000               0.000000000               0.000000000               0.000698953               0.002695560              -0.000511054              -0.000074838               0.000923457               0.000848619               0.000000000               0.000000000               0.000000000               0.000000000               0.000653589               0.002897961              -0.000460314              -0.000117149               0.001005027               0.000887878               0.000000000               0.000000000               0.000000000               0.000000000               0.000600527               0.003056719              -0.000421736              -0.000156892               0.001071193               0.000914301               0.000000000               0.000000000               0.000000000               0.000000000               0.000545356               0.003179367              -0.000383097              -0.000192912               0.001124082               0.000931170               0.000000000               0.000000000               0.000000000               0.000000000               0.000498879               0.003281083              -0.000339496              -0.000223055               0.001168035               0.000944980               0.000000000               0.000000000               0.000000000               0.000000000               0.000460581               0.003366932              -0.000295612              -0.000248148               0.001205016               0.000956867               0.000000000               0.000000000               0.000000000               0.000000000               0.000430807               0.003433125              -0.000251554              -0.000267587               0.001233559               0.000965972               0.000000000               0.000000000               0.000000000               0.000000000               0.000411114               0.003481387              -0.000206821              -0.000281005               0.001254119               0.000973114               0.000000000               0.000000000               0.000000000               0.000000000               0.000399862               0.003510432              -0.000156097              -0.000288855               0.001266417               0.000977562               0.000000000               0.000000000               0.000000000               0.000000000               0.000395783               0.003524277              -0.000088181              -0.000292115               0.001272119               0.000980004               0.000000000               0.000000000               0.000000000               0.000000000               0.000395733               0.003527267              -0.000047707              -0.000292508               0.001273247               0.000980739               0.000000000               0.000000000               0.000000000               0.000000000              -0.000460038               0.000066029              -0.000094340              -0.000180768               0.000082265              -0.000098503               0.000000000               0.000000000               0.000000000               0.000000000               0.000204858               0.000400478              -0.000225854               0.000026761               0.000124571               0.000151332               0.000000000               0.000000000               0.000000000               0.000000000               0.000649713               0.000874580              -0.000338598               0.000134319               0.000246751               0.000381069               0.000000000               0.000000000               0.000000000               0.000000000               0.000808775               0.001381092              -0.000357780               0.000130653               0.000416809               0.000547461               0.000000000               0.000000000               0.000000000               0.000000000               0.000846209               0.001837702              -0.000344118               0.000087614               0.000583356               0.000670971               0.000000000               0.000000000               0.000000000               0.000000000               0.000828367               0.002208665              -0.000316509               0.000034554               0.000724696               0.000759250               0.000000000               0.000000000               0.000000000               0.000000000               0.000791269               0.002492339              -0.000284380              -0.000014817               0.000835710               0.000820894               0.000000000               0.000000000               0.000000000               0.000000000               0.000746572               0.002715669              -0.000257847              -0.000059494               0.000925045               0.000865551               0.000000000               0.000000000               0.000000000               0.000000000               0.000694108               0.002898157              -0.000237719              -0.000101979               0.001000036               0.000898057               0.000000000               0.000000000               0.000000000               0.000000000               0.000637282               0.003044746              -0.000217922              -0.000141612               0.001062109               0.000920497               0.000000000               0.000000000               0.000000000               0.000000000               0.000588003               0.003166023              -0.000194294              -0.000175251               0.001113747               0.000938496               0.000000000               0.000000000               0.000000000               0.000000000               0.000551589               0.003268016              -0.000169778              -0.000201656               0.001156546               0.000954891               0.000000000               0.000000000               0.000000000               0.000000000               0.000528015               0.003350038              -0.000146464              -0.000220749               0.001190251               0.000969502               0.000000000               0.000000000               0.000000000               0.000000000               0.000519207               0.003417027              -0.000121528              -0.000232425               0.001216473               0.000984048               0.000000000               0.000000000               0.000000000               0.000000000               0.000525839               0.003469415              -0.000092377              -0.000236487               0.001235289               0.000998802               0.000000000               0.000000000               0.000000000               0.000000000               0.000553744               0.003505314              -0.000052431              -0.000230510               0.001245263               0.001014753               0.000000000               0.000000000               0.000000000               0.000000000               0.000586659               0.003522589              -0.000028860              -0.000220326               0.001247627               0.001027301               0.000000000               0.000000000               0.000000000               0.000000000              -0.000528558               0.000028974               0.000000000              -0.000201831               0.000076934              -0.000124897               0.000000000               0.000000000               0.000000000               0.000000000               0.000176196               0.000339937              -0.000000000               0.000023581               0.000105451               0.000129032               0.000000000               0.000000000               0.000000000               0.000000000               0.000661795               0.000788258              -0.000000000               0.000149639               0.000212870               0.000362510               0.000000000               0.000000000               0.000000000               0.000000000               0.000837984               0.001285282              -0.000000000               0.000153582               0.000377229               0.000530811               0.000000000               0.000000000               0.000000000               0.000000000               0.000882574               0.001746512               0.000000000               0.000112650               0.000544615               0.000657265               0.000000000               0.000000000               0.000000000               0.000000000               0.000863727               0.002127914               0.000000000               0.000057908               0.000689995               0.000747903               0.000000000               0.000000000               0.000000000               0.000000000               0.000823887               0.002418239               0.000000000               0.000006678               0.000803846               0.000810523               0.000000000               0.000000000               0.000000000               0.000000000               0.000779979               0.002647304              -0.000000000              -0.000038421               0.000895233               0.000856812               0.000000000               0.000000000               0.000000000               0.000000000               0.000730802               0.002836794               0.000000000              -0.000080548               0.000972438               0.000891890               0.000000000               0.000000000               0.000000000               0.000000000               0.000676215               0.002993645              -0.000000000              -0.000120625               0.001038080               0.000917455               0.000000000               0.000000000               0.000000000               0.000000000               0.000626630               0.003123165               0.000000000              -0.000155409               0.001092848               0.000937438               0.000000000               0.000000000               0.000000000               0.000000000               0.000591611               0.003229049               0.000000000              -0.000181776               0.001136931               0.000955155               0.000000000               0.000000000               0.000000000               0.000000000               0.000569729               0.003315189               0.000000000              -0.000200750               0.001171969               0.000971219               0.000000000               0.000000000               0.000000000               0.000000000               0.000563237               0.003388140               0.000000000              -0.000212303               0.001200136               0.000987833               0.000000000               0.000000000               0.000000000               0.000000000               0.000576893               0.003449881               0.000000000              -0.000214900               0.001221582               0.001006682               0.000000000               0.000000000               0.000000000               0.000000000               0.000615977               0.003494665               0.000000000              -0.000205841               0.001233490               0.001027649               0.000000000               0.000000000               0.000000000               0.000000000               0.000660164               0.003517194               0.000000000              -0.000192087               0.001236415               0.001044328               0.000000000               0.000000000               0.000000000               0.000000000               0.000000000               0.000000000               0.000000000               0.000000000               0.000000000               0.000000000               0.000000000               0.000000000               0.000000000               0.000000000               0.000000000               0.000000000               0.000000000               0.000000000               0.000000000               0.000000000               0.000000000               0.000000000               0.000000000               0.000000000               0.000000000               0.000000000               0.000000000               0.000000000               0.000000000               0.000000000               0.000000000               0.000000000               0.000000000               0.000000000               0.000000000               0.000000000               0.000000000               0.000000000               0.000000000               0.000000000               0.000000000               0.000000000               0.000000000               0.000000000               0.000000000               0.000000000               0.000000000               0.000000000               0.000000000               0.000000000               0.000000000               0.000000000               0.000000000               0.000000000               0.000000000               0.000000000               0.000000000               0.000000000               0.000000000               0.000000000               0.000000000               0.000000000               0.000000000               0.000000000               0.000000000               0.000000000               0.000000000               0.000000000               0.000000000               0.000000000               0.000000000               0.000000000               0.000000000               0.000000000               0.000000000               0.000000000               0.000000000               0.000000000               0.000000000               0.000000000               0.000000000               0.000000000               0.000000000               0.000000000               0.000000000               0.000000000               0.000000000               0.000000000               0.000000000               0.000000000               0.000000000               0.000000000               0.000000000               0.000000000               0.000000000               0.000000000               0.000000000               0.000000000               0.000000000               0.000000000               0.000000000               0.000000000               0.000000000               0.000000000               0.000000000               0.000000000               0.000000000               0.000000000               0.000000000               0.000000000               0.000000000               0.000000000               0.000000000               0.000000000               0.000000000               0.000000000               0.000000000               0.000000000               0.000000000               0.000000000               0.000000000               0.000000000               0.000000000               0.000000000               0.000000000               0.000000000               0.000000000               0.000000000               0.000000000               0.000000000               0.000000000               0.000000000               0.000000000               0.000000000               0.000000000               0.000000000               0.000000000               0.000000000               0.000000000               0.000000000               0.000000000               0.000000000               0.000000000               0.000000000               0.000000000               0.000000000               0.000000000               0.000000000               0.000000000               0.000000000               0.000000000               0.000000000               0.000000000               0.000000000               0.000000000               0.000000000               0.000000000               0.000000000               0.000000000               0.000000000               0.000000000               0.000000000               0.000000000               0.000000000               0.000000000               0.000000000               0.000000000               0.000000000               0.000000000               0.000000000               0.000000000               0.000000000               0.000000000               0.000000000               0.000819227               0.008638284               0.000645228              -0.000772574               0.003136924               0.002364350               0.000000000               0.000000000               0.000000000               0.000000000               0.000854032               0.007106593               0.000394192              -0.000568061               0.002558194               0.001990133               0.000000000               0.000000000               0.000000000               0.000000000               0.001144657               0.005899369               0.000137515              -0.000308174               0.002069161               0.001760987               0.000000000               0.000000000               0.000000000               0.000000000               0.001170884               0.005241394               0.000020682              -0.000216092               0.001819145               0.001603052               0.000000000               0.000000000               0.000000000               0.000000000               0.001104051               0.004852522              -0.000032203              -0.000192546               0.001681673               0.001489128               0.000000000               0.000000000               0.000000000               0.000000000               0.001003036               0.004604324              -0.000054224              -0.000199402               0.001601227               0.001401825               0.000000000               0.000000000               0.000000000               0.000000000               0.000890728               0.004438100              -0.000064582              -0.000220739               0.001552932               0.001332193               0.000000000               0.000000000               0.000000000               0.000000000               0.000778604               0.004327370              -0.000069076              -0.000248944               0.001525424               0.001276480               0.000000000               0.000000000               0.000000000               0.000000000               0.000670255               0.004253023              -0.000069638              -0.000280281               0.001511087               0.001230806               0.000000000               0.000000000               0.000000000               0.000000000               0.000564893               0.004202605              -0.000067864              -0.000313490               0.001505351               0.001191861               0.000000000               0.000000000               0.000000000               0.000000000               0.000461636               0.004166014              -0.000065013              -0.000347637               0.001504536               0.001156899               0.000000000               0.000000000               0.000000000               0.000000000               0.000366550               0.004138664              -0.000061169              -0.000379876               0.001506166               0.001126290               0.000000000               0.000000000               0.000000000               0.000000000               0.000280631               0.004117448              -0.000056668              -0.000409443               0.001508950               0.001099507               0.000000000               0.000000000               0.000000000               0.000000000               0.000198205               0.004096465              -0.000051130              -0.000437730               0.001511385               0.001073655               0.000000000               0.000000000               0.000000000               0.000000000               0.000124125               0.004074555              -0.000041108              -0.000462771               0.001512428               0.001049657               0.000000000               0.000000000               0.000000000               0.000000000               0.000060656               0.004047459              -0.000024349              -0.000483185               0.001510201               0.001027016               0.000000000               0.000000000               0.000000000               0.000000000               0.000030096               0.004028126              -0.000013903              -0.000492229               0.001506771               0.001014543               0.000000000               0.000000000               0.000000000               0.000000000               0.000935238               0.008199791               0.001220029              -0.000674258               0.002957989               0.002283730               0.000000000               0.000000000               0.000000000               0.000000000               0.000871676               0.006807438               0.000747376              -0.000524050               0.002443807               0.001919756               0.000000000               0.000000000               0.000000000               0.000000000               0.001058206               0.005748966               0.000267680              -0.000321793               0.002023567               0.001701774               0.000000000               0.000000000               0.000000000               0.000000000               0.001044294               0.005169889               0.000056634              -0.000254625               0.001808154               0.001553529               0.000000000               0.000000000               0.000000000               0.000000000               0.000966834               0.004822854              -0.000036296              -0.000240293               0.001687700               0.001447406               0.000000000               0.000000000               0.000000000               0.000000000               0.000869096               0.004600499              -0.000074865              -0.000249151               0.001616534               0.001367384               0.000000000               0.000000000               0.000000000               0.000000000               0.000766975               0.004451075              -0.000092523              -0.000268768               0.001573266               0.001304498               0.000000000               0.000000000               0.000000000               0.000000000               0.000667296               0.004348361              -0.000101351              -0.000293308               0.001547209               0.001253900               0.000000000               0.000000000               0.000000000               0.000000000               0.000570625               0.004277721              -0.000104878              -0.000320730               0.001532803               0.001212073               0.000000000               0.000000000               0.000000000               0.000000000               0.000479585               0.004229819              -0.000104733              -0.000348882               0.001526220               0.001177338               0.000000000               0.000000000               0.000000000               0.000000000               0.000392932               0.004194992              -0.000100615              -0.000377024               0.001523991               0.001146968               0.000000000               0.000000000               0.000000000               0.000000000               0.000313326               0.004167886              -0.000095594              -0.000403487               0.001523777               0.001120290               0.000000000               0.000000000               0.000000000               0.000000000               0.000243490               0.004149612              -0.000088955              -0.000427392               0.001525654               0.001098262               0.000000000               0.000000000               0.000000000               0.000000000               0.000177015               0.004136578              -0.000079514              -0.000450691               0.001529076               0.001078385               0.000000000               0.000000000               0.000000000               0.000000000               0.000114632               0.004130041              -0.000063472              -0.000473267               0.001534422               0.001061155               0.000000000               0.000000000               0.000000000               0.000000000               0.000056645               0.004131209              -0.000037145              -0.000495158               0.001542109               0.001046950               0.000000000               0.000000000               0.000000000               0.000000000               0.000031583               0.004139346              -0.000019951              -0.000505573               0.001548293               0.001042719               0.000000000               0.000000000               0.000000000               0.000000000               0.001087940               0.007522400               0.001664018              -0.000532322               0.002684882               0.002152560               0.000000000               0.000000000               0.000000000               0.000000000               0.000883637               0.006351652               0.001029196              -0.000462592               0.002271393               0.001808801               0.000000000               0.000000000               0.000000000               0.000000000               0.000921685               0.005525319               0.000391707              -0.000345032               0.001956766               0.001611733               0.000000000               0.000000000               0.000000000               0.000000000               0.000858577               0.005061306               0.000120324              -0.000310696               0.001790651               0.001479954               0.000000000               0.000000000               0.000000000               0.000000000               0.000775740               0.004773696               0.000001066              -0.000305809               0.001693152               0.001387344               0.000000000               0.000000000               0.000000000               0.000000000               0.000688524               0.004582749              -0.000051036              -0.000314646               0.001632450               0.001317803               0.000000000               0.000000000               0.000000000               0.000000000               0.000603445               0.004452500              -0.000075291              -0.000330270               0.001594242               0.001263972               0.000000000               0.000000000               0.000000000               0.000000000               0.000523990               0.004360444              -0.000088667              -0.000348558               0.001569653               0.001221095               0.000000000               0.000000000               0.000000000               0.000000000               0.000449304               0.004297302              -0.000096746              -0.000368673               0.001555311               0.001186638               0.000000000               0.000000000               0.000000000               0.000000000               0.000380899               0.004254479              -0.000099729              -0.000388972               0.001547803               0.001158831               0.000000000               0.000000000               0.000000000               0.000000000               0.000315734               0.004222717              -0.000095700              -0.000409438               0.001544038               0.001134599               0.000000000               0.000000000               0.000000000               0.000000000               0.000255099               0.004200776              -0.000089174              -0.000429434               0.001543389               0.001113955               0.000000000               0.000000000               0.000000000               0.000000000               0.000201688               0.004189437              -0.000080943              -0.000448045               0.001545813               0.001097768               0.000000000               0.000000000               0.000000000               0.000000000               0.000150550               0.004188794              -0.000069188              -0.000467142               0.001551965               0.001084823               0.000000000               0.000000000               0.000000000               0.000000000               0.000099484               0.004199504              -0.000053516              -0.000487630               0.001562364               0.001074734               0.000000000               0.000000000               0.000000000               0.000000000               0.000049353               0.004226509              -0.000030034              -0.000509805               0.001578757               0.001068952               0.000000000               0.000000000               0.000000000               0.000000000               0.000031751               0.004257881              -0.000012109              -0.000520327               0.001592722               0.001072395               0.000000000               0.000000000               0.000000000               0.000000000               0.001232160               0.006675028               0.001952558              -0.000372319               0.002349093               0.001976774               0.000000000               0.000000000               0.000000000               0.000000000               0.000878872               0.005792407               0.001230108              -0.000394474               0.002062274               0.001667800               0.000000000               0.000000000               0.000000000               0.000000000               0.000756916               0.005249070               0.000507871              -0.000372289               0.001873769               0.001501479               0.000000000               0.000000000               0.000000000               0.000000000               0.000652306               0.004916509               0.000208163              -0.000369948               0.001762136               0.001392188               0.000000000               0.000000000               0.000000000               0.000000000               0.000572845               0.004694523               0.000075373              -0.000371998               0.001688825               0.001316827               0.000000000               0.000000000               0.000000000               0.000000000               0.000504863               0.004541066               0.000014715              -0.000378309               0.001639777               0.001261468               0.000000000               0.000000000               0.000000000               0.000000000               0.000442292               0.004433001              -0.000014369              -0.000388265               0.001607074               0.001218809               0.000000000               0.000000000               0.000000000               0.000000000               0.000388238               0.004355232              -0.000031133              -0.000398814               0.001584667               0.001185854               0.000000000               0.000000000               0.000000000               0.000000000               0.000341060               0.004299716              -0.000043929              -0.000409566               0.001569746               0.001160180               0.000000000               0.000000000               0.000000000               0.000000000               0.000296486               0.004258952              -0.000049458              -0.000421186               0.001560032               0.001138846               0.000000000               0.000000000               0.000000000               0.000000000               0.000250207               0.004229609              -0.000046081              -0.000434872               0.001554813               0.001119941               0.000000000               0.000000000               0.000000000               0.000000000               0.000204493               0.004212373              -0.000038780              -0.000449860               0.001554064               0.001104203               0.000000000               0.000000000               0.000000000               0.000000000               0.000161134               0.004204563              -0.000030346              -0.000465144               0.001556555               0.001091411               0.000000000               0.000000000               0.000000000               0.000000000               0.000119762               0.004206696              -0.000021403              -0.000480925               0.001562526               0.001081601               0.000000000               0.000000000               0.000000000               0.000000000               0.000079090               0.004219909              -0.000013458              -0.000497829               0.001572565               0.001074736               0.000000000               0.000000000               0.000000000               0.000000000               0.000039725               0.004244223              -0.000005738              -0.000515630               0.001586603               0.001070974               0.000000000               0.000000000               0.000000000               0.000000000               0.000026592               0.004269698               0.000001661              -0.000523739               0.001597798               0.001074059               0.000000000               0.000000000               0.000000000               0.000000000               0.001335226               0.005747164               0.002079749              -0.000217687               0.001988264               0.001770577               0.000000000               0.000000000               0.000000000               0.000000000               0.000853156               0.005187834               0.001349288              -0.000328546               0.001838776               0.001510230               0.000000000               0.000000000               0.000000000               0.000000000               0.000587288               0.004939622               0.000616125              -0.000397219               0.001778930               0.001381711               0.000000000               0.000000000               0.000000000               0.000000000               0.000460162               0.004736470               0.000315395              -0.000419497               0.001718640               0.001299143               0.000000000               0.000000000               0.000000000               0.000000000               0.000394951               0.004581016               0.000178545              -0.000424519               0.001668496               0.001243977               0.000000000               0.000000000               0.000000000               0.000000000               0.000352267               0.004468030               0.000111901              -0.000426403               0.001631463               0.001205060               0.000000000               0.000000000               0.000000000               0.000000000               0.000314903               0.004387579               0.000079117              -0.000430358               0.001605964               0.001175607               0.000000000               0.000000000               0.000000000               0.000000000               0.000284684               0.004324007               0.000058697              -0.000433743               0.001585902               0.001152159               0.000000000               0.000000000               0.000000000               0.000000000               0.000259200               0.004271891               0.000040342              -0.000436785               0.001569545               0.001132759               0.000000000               0.000000000               0.000000000               0.000000000               0.000231625               0.004232243               0.000029078              -0.000442170               0.001558124               0.001115954               0.000000000               0.000000000               0.000000000               0.000000000               0.000195871               0.004202891               0.000026111              -0.000451909               0.001551586               0.001099677               0.000000000               0.000000000               0.000000000               0.000000000               0.000157627               0.004183109               0.000028250              -0.000463777               0.001548948               0.001085171               0.000000000               0.000000000               0.000000000               0.000000000               0.000118818               0.004168897               0.000030075              -0.000476554               0.001548470               0.001071915               0.000000000               0.000000000               0.000000000               0.000000000               0.000081207               0.004160617               0.000027156              -0.000489623               0.001550066               0.001060443               0.000000000               0.000000000               0.000000000               0.000000000               0.000048359               0.004158527               0.000019424              -0.000501680               0.001553388               0.001051709               0.000000000               0.000000000               0.000000000               0.000000000               0.000022435               0.004157993               0.000010207              -0.000511335               0.001556429               0.001045094               0.000000000               0.000000000               0.000000000               0.000000000               0.000011335               0.004156188               0.000005451              -0.000515272               0.001557139               0.001041868               0.000000000               0.000000000               0.000000000               0.000000000               0.001371782               0.004819161               0.002060411              -0.000087979               0.001635697               0.001547717               0.000000000               0.000000000               0.000000000               0.000000000               0.000806676               0.004587587               0.001397875              -0.000270945               0.001619495               0.001348550               0.000000000               0.000000000               0.000000000               0.000000000               0.000436538               0.004623624               0.000719718              -0.000414251               0.001679276               0.001265025               0.000000000               0.000000000               0.000000000               0.000000000               0.000312375               0.004542796               0.000435156              -0.000450708               0.001664486               0.001213778               0.000000000               0.000000000               0.000000000               0.000000000               0.000269495               0.004450073               0.000298490              -0.000455197               0.001635075               0.001179878               0.000000000               0.000000000               0.000000000               0.000000000               0.000249411               0.004373289               0.000222358              -0.000453131               0.001608792               0.001155661               0.000000000               0.000000000               0.000000000               0.000000000               0.000234498               0.004315669               0.000179995              -0.000451521               0.001589049               0.001137528               0.000000000               0.000000000               0.000000000               0.000000000               0.000220347               0.004261825               0.000154041              -0.000450097               0.001570626               0.001120529               0.000000000               0.000000000               0.000000000               0.000000000               0.000201434               0.004211018               0.000126826              -0.000450838               0.001553938               0.001103100               0.000000000               0.000000000               0.000000000               0.000000000               0.000177658               0.004170567               0.000104109              -0.000454698               0.001541741               0.001087043               0.000000000               0.000000000               0.000000000               0.000000000               0.000145763               0.004135877               0.000089545              -0.000462322               0.001532719               0.001070397               0.000000000               0.000000000               0.000000000               0.000000000               0.000109191               0.004105696               0.000079009              -0.000472264               0.001525973               0.001053709               0.000000000               0.000000000               0.000000000               0.000000000               0.000073423               0.004079427               0.000067705              -0.000482393               0.001520593               0.001038200               0.000000000               0.000000000               0.000000000               0.000000000               0.000040092               0.004055803               0.000050286              -0.000491940               0.001515901               0.001023961               0.000000000               0.000000000               0.000000000               0.000000000               0.000014970               0.004032245               0.000029186              -0.000498416               0.001510207               0.001011791               0.000000000               0.000000000               0.000000000               0.000000000               0.000002594               0.004003988               0.000011422              -0.000499525               0.001501158               0.001001633               0.000000000               0.000000000               0.000000000               0.000000000              -0.000004432               0.003979764               0.000001449              -0.000499131               0.001492952               0.000993821               0.000000000               0.000000000               0.000000000               0.000000000               0.001341374               0.003944799               0.001924437               0.000009913               0.001311615               0.001321528               0.000000000               0.000000000               0.000000000               0.000000000               0.000745139               0.004027282               0.001391692              -0.000223984               0.001417075               0.001193091               0.000000000               0.000000000               0.000000000               0.000000000               0.000323615               0.004316540               0.000819683              -0.000418211               0.001578236               0.001160025               0.000000000               0.000000000               0.000000000               0.000000000               0.000219952               0.004341532               0.000555032              -0.000460209               0.001600566               0.001140357               0.000000000               0.000000000               0.000000000               0.000000000               0.000200886               0.004306520               0.000414414              -0.000462982               0.001589820               0.001126838               0.000000000               0.000000000               0.000000000               0.000000000               0.000197499               0.004262945               0.000325317              -0.000458805               0.001573902               0.001115097               0.000000000               0.000000000               0.000000000               0.000000000               0.000190921               0.004214823               0.000267254              -0.000455256               0.001556679               0.001101423               0.000000000               0.000000000               0.000000000               0.000000000               0.000180413               0.004164921               0.000230944              -0.000452959               0.001539279               0.001086320               0.000000000               0.000000000               0.000000000               0.000000000               0.000162061               0.004120501               0.000194804              -0.000454289               0.001524916               0.001070627               0.000000000               0.000000000               0.000000000               0.000000000               0.000133374               0.004077938               0.000159854              -0.000459726               0.001512541               0.001052815               0.000000000               0.000000000               0.000000000               0.000000000               0.000099454               0.004034747               0.000131574              -0.000467047               0.001500585               0.001033537               0.000000000               0.000000000               0.000000000               0.000000000               0.000062989               0.003991564               0.000106085              -0.000475324               0.001488949               0.001013626               0.000000000               0.000000000               0.000000000               0.000000000               0.000025756               0.003949251               0.000081053              -0.000483997               0.001477736               0.000993739               0.000000000               0.000000000               0.000000000               0.000000000              -0.000005488               0.003906398               0.000052663              -0.000490357               0.001465572               0.000975215               0.000000000               0.000000000               0.000000000               0.000000000              -0.000022122               0.003861017               0.000025958              -0.000490922               0.001450633               0.000959712               0.000000000               0.000000000               0.000000000               0.000000000              -0.000019708               0.003812219               0.000007435              -0.000483917               0.001432033               0.000948116               0.000000000               0.000000000               0.000000000               0.000000000              -0.000017409               0.003777407              -0.000002645              -0.000478703               0.001418691               0.000939988               0.000000000               0.000000000               0.000000000               0.000000000               0.001272482               0.003186701               0.001714303               0.000078840               0.001035942               0.001114783               0.000000000               0.000000000               0.000000000               0.000000000               0.000699043               0.003525697               0.001357975              -0.000178572               0.001234744               0.001056172               0.000000000               0.000000000               0.000000000               0.000000000               0.000268586               0.004027745               0.000929767              -0.000402748               0.001476817               0.001074069               0.000000000               0.000000000               0.000000000               0.000000000               0.000185097               0.004152684               0.000678155              -0.000449673               0.001534105               0.001084432               0.000000000               0.000000000               0.000000000               0.000000000               0.000180586               0.004173770               0.000525947              -0.000454000               0.001542576               0.001088576               0.000000000               0.000000000               0.000000000               0.000000000               0.000183108               0.004159529               0.000422464              -0.000451275               0.001536921               0.001085646               0.000000000               0.000000000               0.000000000               0.000000000               0.000175486               0.004121601               0.000347602              -0.000449392               0.001523650               0.001074259               0.000000000               0.000000000               0.000000000               0.000000000               0.000160571               0.004077995               0.000294952              -0.000449534               0.001509163               0.001059629               0.000000000               0.000000000               0.000000000               0.000000000               0.000139105               0.004043249               0.000251398              -0.000453240               0.001498816               0.001045576               0.000000000               0.000000000               0.000000000               0.000000000               0.000111174               0.004003924               0.000210522              -0.000458799               0.001487561               0.001028762               0.000000000               0.000000000               0.000000000               0.000000000               0.000077457               0.003956724               0.000171820              -0.000465543               0.001474076               0.001008533               0.000000000               0.000000000               0.000000000               0.000000000               0.000037653               0.003903648               0.000134121              -0.000473835               0.001459148               0.000985313               0.000000000               0.000000000               0.000000000               0.000000000              -0.000003771               0.003848325               0.000098293              -0.000482454               0.001443580               0.000961126               0.000000000               0.000000000               0.000000000               0.000000000              -0.000041777               0.003790817               0.000063579              -0.000489517               0.001426765               0.000937248               0.000000000               0.000000000               0.000000000               0.000000000              -0.000068019               0.003727998               0.000033321              -0.000491506               0.001406489               0.000914983               0.000000000               0.000000000               0.000000000               0.000000000              -0.000076996               0.003662059               0.000011391              -0.000486630               0.001382884               0.000896254               0.000000000               0.000000000               0.000000000               0.000000000              -0.000077516               0.003621493               0.000000540              -0.000481754               0.001367737               0.000885983               0.000000000               0.000000000               0.000000000               0.000000000               0.001149737               0.002458137               0.001471793               0.000123881               0.000778076               0.000901958               0.000000000               0.000000000               0.000000000               0.000000000               0.000680966               0.002942847               0.001312484              -0.000112495               0.001018437               0.000905942               0.000000000               0.000000000               0.000000000               0.000000000               0.000282281               0.003594666               0.001056113              -0.000343478               0.001312703               0.000969225               0.000000000               0.000000000               0.000000000               0.000000000               0.000201351               0.003843105               0.000824966              -0.000404881               0.001415982               0.001011101               0.000000000               0.000000000               0.000000000               0.000000000               0.000198572               0.003943642               0.000657743              -0.000418490               0.001454031               0.001035541               0.000000000               0.000000000               0.000000000               0.000000000               0.000198722               0.003977764               0.000534389              -0.000422699               0.001466808               0.001044109               0.000000000               0.000000000               0.000000000               0.000000000               0.000187955               0.003977115               0.000441505              -0.000426655               0.001467910               0.001041255               0.000000000               0.000000000               0.000000000               0.000000000               0.000172643               0.003958346               0.000373502              -0.000430051               0.001462786               0.001032735               0.000000000               0.000000000               0.000000000               0.000000000               0.000153605               0.003933503               0.000322066              -0.000434085               0.001455850               0.001021764               0.000000000               0.000000000               0.000000000               0.000000000               0.000124297               0.003903971               0.000275299              -0.000441384               0.001448438               0.001007055               0.000000000               0.000000000               0.000000000               0.000000000               0.000088335               0.003866616               0.000227441              -0.000450200               0.001438926               0.000988726               0.000000000               0.000000000               0.000000000               0.000000000               0.000044821               0.003818258               0.000180928              -0.000460473               0.001426231               0.000965758               0.000000000               0.000000000               0.000000000               0.000000000              -0.000004190               0.003764156               0.000136541              -0.000472090               0.001412069               0.000939980               0.000000000               0.000000000               0.000000000               0.000000000              -0.000057677               0.003708388               0.000093345              -0.000485176               0.001397843               0.000912666               0.000000000               0.000000000               0.000000000               0.000000000              -0.000111057               0.003651239               0.000055374              -0.000498050               0.001383084               0.000885034               0.000000000               0.000000000               0.000000000               0.000000000              -0.000157506               0.003589101               0.000024101              -0.000507701               0.001365589               0.000857887               0.000000000               0.000000000               0.000000000               0.000000000              -0.000183077               0.003548854               0.000006802              -0.000512259               0.001353693               0.000841433               0.000000000               0.000000000               0.000000000               0.000000000               0.000944725               0.001778897               0.001201754               0.000131907               0.000548990               0.000680897               0.000000000               0.000000000               0.000000000               0.000000000               0.000656218               0.002357841               0.001228542              -0.000048650               0.000802155               0.000753505               0.000000000               0.000000000               0.000000000               0.000000000               0.000340888               0.003102035               0.001147911              -0.000259922               0.001120642               0.000860720               0.000000000               0.000000000               0.000000000               0.000000000               0.000260325               0.003466646               0.000962633              -0.000335709               0.001267440               0.000931731               0.000000000               0.000000000               0.000000000               0.000000000               0.000247072               0.003660240               0.000791269              -0.000364877               0.001341694               0.000976816               0.000000000               0.000000000               0.000000000               0.000000000               0.000243998               0.003760603               0.000654573              -0.000378575               0.001379713               0.001001138               0.000000000               0.000000000               0.000000000               0.000000000               0.000234606               0.003808037               0.000550638              -0.000388027               0.001398675               0.001010649               0.000000000               0.000000000               0.000000000               0.000000000               0.000218331               0.003822980               0.000472866              -0.000395998               0.001406313               0.001010315               0.000000000               0.000000000               0.000000000               0.000000000               0.000199573               0.003825384               0.000410383              -0.000403332               0.001409559               0.001006227               0.000000000               0.000000000               0.000000000               0.000000000               0.000172352               0.003818770               0.000355042              -0.000412713               0.001410482               0.000997768               0.000000000               0.000000000               0.000000000               0.000000000               0.000136310               0.003797437               0.000302731              -0.000423562               0.001406987               0.000983425               0.000000000               0.000000000               0.000000000               0.000000000               0.000093103               0.003763132               0.000251169              -0.000435477               0.001399524               0.000964047               0.000000000               0.000000000               0.000000000               0.000000000               0.000038940               0.003720055               0.000197261              -0.000450403               0.001390140               0.000939737               0.000000000               0.000000000               0.000000000               0.000000000              -0.000027156               0.003675039               0.000140862              -0.000469562               0.001381521               0.000911959               0.000000000               0.000000000               0.000000000               0.000000000              -0.000103834               0.003628460               0.000088788              -0.000492494               0.001373639               0.000881145               0.000000000               0.000000000               0.000000000               0.000000000              -0.000188397               0.003577972               0.000041389              -0.000517894               0.001365277               0.000847383               0.000000000               0.000000000               0.000000000               0.000000000              -0.000246237               0.003540088               0.000012120              -0.000534848               0.001358300               0.000823452               0.000000000               0.000000000               0.000000000               0.000000000               0.000669314               0.001192734               0.000914733               0.000101899               0.000363607               0.000465506               0.000000000               0.000000000               0.000000000               0.000000000               0.000594932               0.001800496               0.001089064              -0.000001964               0.000600813               0.000598849               0.000000000               0.000000000               0.000000000               0.000000000               0.000415021               0.002562695               0.001157514              -0.000164705               0.000909124               0.000744420               0.000000000               0.000000000               0.000000000               0.000000000               0.000356366               0.003016625               0.001034945              -0.000243441               0.001086678               0.000843237               0.000000000               0.000000000               0.000000000               0.000000000               0.000337151               0.003300233               0.000882849              -0.000286098               0.001195432               0.000909335               0.000000000               0.000000000               0.000000000               0.000000000               0.000331847               0.003473363               0.000749516              -0.000309728               0.001261019               0.000951291               0.000000000               0.000000000               0.000000000               0.000000000               0.000320106               0.003574816               0.000642048              -0.000326812               0.001300531               0.000973719               0.000000000               0.000000000               0.000000000               0.000000000               0.000297540               0.003638257               0.000556247              -0.000343204               0.001327142               0.000983937               0.000000000               0.000000000               0.000000000               0.000000000               0.000271658               0.003681863               0.000486908              -0.000358360               0.001346729               0.000988369               0.000000000               0.000000000               0.000000000               0.000000000               0.000244787               0.003700966               0.000427089              -0.000370825               0.001357251               0.000986426               0.000000000               0.000000000               0.000000000               0.000000000               0.000209819               0.003699841               0.000370482              -0.000383797               0.001361200               0.000977403               0.000000000               0.000000000               0.000000000               0.000000000               0.000167448               0.003689741               0.000313017              -0.000398424               0.001362709               0.000964285               0.000000000               0.000000000               0.000000000               0.000000000               0.000113653               0.003669961               0.000250750              -0.000416124               0.001362016               0.000945892               0.000000000               0.000000000               0.000000000               0.000000000               0.000046644               0.003639483               0.000185280              -0.000437443               0.001358963               0.000921520               0.000000000               0.000000000               0.000000000               0.000000000              -0.000033954               0.003603650               0.000120506              -0.000463188               0.001355601               0.000892413               0.000000000               0.000000000               0.000000000               0.000000000              -0.000128981               0.003566161               0.000057774              -0.000494137               0.001353421               0.000859284               0.000000000               0.000000000               0.000000000               0.000000000              -0.000200629               0.003532904               0.000019835              -0.000516848               0.001349905               0.000833058               0.000000000               0.000000000               0.000000000               0.000000000               0.000348419               0.000729031               0.000637796               0.000039527               0.000229832               0.000269359               0.000000000               0.000000000               0.000000000               0.000000000               0.000503719               0.001299517               0.000903324               0.000026453               0.000424350               0.000450803               0.000000000               0.000000000               0.000000000               0.000000000               0.000491359               0.002021483               0.001074935              -0.000068427               0.000696629               0.000628203               0.000000000               0.000000000               0.000000000               0.000000000               0.000475875               0.002529062               0.001015240              -0.000137681               0.000888905               0.000751225               0.000000000               0.000000000               0.000000000               0.000000000               0.000464661               0.002882988               0.000902609              -0.000186126               0.001023028               0.000836902               0.000000000               0.000000000               0.000000000               0.000000000               0.000456074               0.003125490               0.000787323              -0.000219658               0.001115039               0.000895380               0.000000000               0.000000000               0.000000000               0.000000000               0.000433806               0.003288431               0.000682617              -0.000248376               0.001178925               0.000930548               0.000000000               0.000000000               0.000000000               0.000000000               0.000402509               0.003406874               0.000597895              -0.000274918               0.001227253               0.000952335               0.000000000               0.000000000               0.000000000               0.000000000               0.000370607               0.003491546               0.000532073              -0.000297465               0.001262992               0.000965527               0.000000000               0.000000000               0.000000000               0.000000000               0.000338689               0.003540795               0.000472396              -0.000315590               0.001285450               0.000969860               0.000000000               0.000000000               0.000000000               0.000000000               0.000301982               0.003573318               0.000412681              -0.000333421               0.001302234               0.000968813               0.000000000               0.000000000               0.000000000               0.000000000               0.000260710               0.003597896               0.000352214              -0.000351970               0.001316610               0.000964640               0.000000000               0.000000000               0.000000000               0.000000000               0.000212415               0.003604930               0.000287564              -0.000370960               0.001325284               0.000954325               0.000000000               0.000000000               0.000000000               0.000000000               0.000156745               0.003595387               0.000219602              -0.000390643               0.001328665               0.000938022               0.000000000               0.000000000               0.000000000               0.000000000               0.000091176               0.003576350               0.000149814              -0.000412852               0.001329722               0.000916870               0.000000000               0.000000000               0.000000000               0.000000000               0.000012357               0.003553811               0.000076462              -0.000439591               0.001331122               0.000891531               0.000000000               0.000000000               0.000000000               0.000000000              -0.000052415               0.003530051               0.000031806              -0.000460911               0.001330309               0.000869398               0.000000000               0.000000000               0.000000000               0.000000000               0.000022633               0.000395116               0.000400046              -0.000040903               0.000145338               0.000104435               0.000000000               0.000000000               0.000000000               0.000000000               0.000394786               0.000886150               0.000685638               0.000037275               0.000282955               0.000320230               0.000000000               0.000000000               0.000000000               0.000000000               0.000560717               0.001527223               0.000900437               0.000019365               0.000502614               0.000521978               0.000000000               0.000000000               0.000000000               0.000000000               0.000606106               0.002053476               0.000891965              -0.000029396               0.000694283               0.000664888               0.000000000               0.000000000               0.000000000               0.000000000               0.000612998               0.002458411               0.000822632              -0.000077428               0.000845271               0.000767843               0.000000000               0.000000000               0.000000000               0.000000000               0.000599716               0.002759576               0.000734320              -0.000120054               0.000959867               0.000839813               0.000000000               0.000000000               0.000000000               0.000000000               0.000568291               0.002979906               0.000644897              -0.000159379               0.001046418               0.000887039               0.000000000               0.000000000               0.000000000               0.000000000               0.000528025               0.003146487               0.000573243              -0.000195301               0.001113919               0.000918618               0.000000000               0.000000000               0.000000000               0.000000000               0.000484669               0.003268891               0.000518737              -0.000226860               0.001165239               0.000938379               0.000000000               0.000000000               0.000000000               0.000000000               0.000440993               0.003356383               0.000465842              -0.000254175               0.001203508               0.000949333               0.000000000               0.000000000               0.000000000               0.000000000               0.000399750               0.003427358               0.000409190              -0.000278513               0.001235279               0.000956766               0.000000000               0.000000000               0.000000000               0.000000000               0.000359512               0.003485897               0.000352753              -0.000300919               0.001262260               0.000961341               0.000000000               0.000000000               0.000000000               0.000000000               0.000320153               0.003524589               0.000294715              -0.000320516               0.001281690               0.000961174               0.000000000               0.000000000               0.000000000               0.000000000               0.000282605               0.003544454               0.000234368              -0.000337079               0.001293832               0.000956753               0.000000000               0.000000000               0.000000000               0.000000000               0.000245127               0.003547470               0.000169654              -0.000351510               0.001299648               0.000948138               0.000000000               0.000000000               0.000000000               0.000000000               0.000199739               0.003539542               0.000092381              -0.000367540               0.001302349               0.000934809               0.000000000               0.000000000               0.000000000               0.000000000               0.000160447               0.003526990               0.000045172              -0.000380705               0.001302553               0.000921848               0.000000000               0.000000000               0.000000000               0.000000000              -0.000264098               0.000182542               0.000221040              -0.000121855               0.000101464              -0.000020390               0.000000000               0.000000000               0.000000000               0.000000000               0.000285365               0.000584573               0.000455944               0.000033939               0.000183542               0.000217482               0.000000000               0.000000000               0.000000000               0.000000000               0.000615093               0.001131363               0.000647582               0.000089238               0.000347371               0.000436609               0.000000000               0.000000000               0.000000000               0.000000000               0.000725315               0.001651096               0.000667123               0.000065605               0.000528492               0.000594096               0.000000000               0.000000000               0.000000000               0.000000000               0.000749047               0.002089268               0.000632058               0.000019733               0.000689838               0.000709571               0.000000000               0.000000000               0.000000000               0.000000000               0.000733310               0.002434109               0.000574166              -0.000029273               0.000821119               0.000791846               0.000000000               0.000000000               0.000000000               0.000000000               0.000698953               0.002695560               0.000511054              -0.000074838               0.000923457               0.000848619               0.000000000               0.000000000               0.000000000               0.000000000               0.000653589               0.002897961               0.000460314              -0.000117149               0.001005027               0.000887878               0.000000000               0.000000000               0.000000000               0.000000000               0.000600527               0.003056719               0.000421736              -0.000156892               0.001071193               0.000914301               0.000000000               0.000000000               0.000000000               0.000000000               0.000545356               0.003179367               0.000383097              -0.000192912               0.001124082               0.000931170               0.000000000               0.000000000               0.000000000               0.000000000               0.000498879               0.003281083               0.000339496              -0.000223055               0.001168035               0.000944980               0.000000000               0.000000000               0.000000000               0.000000000               0.000460581               0.003366932               0.000295612              -0.000248148               0.001205016               0.000956867               0.000000000               0.000000000               0.000000000               0.000000000               0.000430807               0.003433125               0.000251554              -0.000267587               0.001233559               0.000965972               0.000000000               0.000000000               0.000000000               0.000000000               0.000411114               0.003481387               0.000206821              -0.000281005               0.001254119               0.000973114               0.000000000               0.000000000               0.000000000               0.000000000               0.000399862               0.003510432               0.000156097              -0.000288855               0.001266417               0.000977562               0.000000000               0.000000000               0.000000000               0.000000000               0.000395783               0.003524277               0.000088181              -0.000292115               0.001272119               0.000980004               0.000000000               0.000000000               0.000000000               0.000000000               0.000395733               0.003527267               0.000047707              -0.000292508               0.001273247               0.000980739               0.000000000               0.000000000               0.000000000               0.000000000              -0.000460038               0.000066029               0.000094340              -0.000180768               0.000082265              -0.000098503               0.000000000               0.000000000               0.000000000               0.000000000               0.000204858               0.000400478               0.000225854               0.000026761               0.000124571               0.000151332               0.000000000               0.000000000               0.000000000               0.000000000               0.000649713               0.000874580               0.000338598               0.000134319               0.000246751               0.000381069               0.000000000               0.000000000               0.000000000               0.000000000               0.000808775               0.001381092               0.000357780               0.000130653               0.000416809               0.000547461               0.000000000               0.000000000               0.000000000               0.000000000               0.000846209               0.001837702               0.000344118               0.000087614               0.000583356               0.000670971               0.000000000               0.000000000               0.000000000               0.000000000               0.000828367               0.002208665               0.000316509               0.000034554               0.000724696               0.000759250               0.000000000               0.000000000               0.000000000               0.000000000               0.000791269               0.002492339               0.000284380              -0.000014817               0.000835710               0.000820894               0.000000000               0.000000000               0.000000000               0.000000000               0.000746572               0.002715669               0.000257847              -0.000059494               0.000925045               0.000865551               0.000000000               0.000000000               0.000000000               0.000000000               0.000694108               0.002898157               0.000237719              -0.000101979               0.001000036               0.000898057               0.000000000               0.000000000               0.000000000               0.000000000               0.000637282               0.003044746               0.000217922              -0.000141612               0.001062109               0.000920497               0.000000000               0.000000000               0.000000000               0.000000000               0.000588003               0.003166023               0.000194294              -0.000175251               0.001113747               0.000938496               0.000000000               0.000000000               0.000000000               0.000000000               0.000551589               0.003268016               0.000169778              -0.000201656               0.001156546               0.000954891               0.000000000               0.000000000               0.000000000               0.000000000               0.000528015               0.003350038               0.000146464              -0.000220749               0.001190251               0.000969502               0.000000000               0.000000000               0.000000000               0.000000000               0.000519207               0.003417027               0.000121528              -0.000232425               0.001216473               0.000984048               0.000000000               0.000000000               0.000000000               0.000000000               0.000525839               0.003469415               0.000092377              -0.000236487               0.001235289               0.000998802               0.000000000               0.000000000               0.000000000               0.000000000               0.000553744               0.003505314               0.000052431              -0.000230510               0.001245263               0.001014753               0.000000000               0.000000000               0.000000000               0.000000000               0.000586659               0.003522589               0.000028860              -0.000220326               0.001247627               0.001027301               0.000000000               0.000000000               0.000000000               0.000000000              -0.000528558               0.000028974              -0.000000000              -0.000201831               0.000076934              -0.000124897               0.000000000               0.000000000               0.000000000               0.000000000               0.000176196               0.000339937              -0.000000000               0.000023581               0.000105451               0.000129032               0.000000000               0.000000000               0.000000000               0.000000000               0.000661795               0.000788258              -0.000000000               0.000149639               0.000212870               0.000362510               0.000000000               0.000000000               0.000000000               0.000000000               0.000837984               0.001285282              -0.000000000               0.000153582               0.000377229               0.000530811               0.000000000               0.000000000               0.000000000               0.000000000               0.000882574               0.001746512              -0.000000000               0.000112650               0.000544615               0.000657265               0.000000000               0.000000000               0.000000000               0.000000000               0.000863727               0.002127914              -0.000000000               0.000057908               0.000689995               0.000747903               0.000000000               0.000000000               0.000000000               0.000000000               0.000823887               0.002418239               0.000000000               0.000006678               0.000803846               0.000810523               0.000000000               0.000000000               0.000000000               0.000000000               0.000779979               0.002647304              -0.000000000              -0.000038421               0.000895233               0.000856812               0.000000000               0.000000000               0.000000000               0.000000000               0.000730802               0.002836794              -0.000000000              -0.000080548               0.000972438               0.000891890               0.000000000               0.000000000               0.000000000               0.000000000               0.000676215               0.002993645               0.000000000              -0.000120625               0.001038080               0.000917455               0.000000000               0.000000000               0.000000000               0.000000000               0.000626630               0.003123165               0.000000000              -0.000155409               0.001092848               0.000937438               0.000000000               0.000000000               0.000000000               0.000000000               0.000591611               0.003229049               0.000000000              -0.000181776               0.001136931               0.000955155               0.000000000               0.000000000               0.000000000               0.000000000               0.000569729               0.003315189               0.000000000              -0.000200750               0.001171969               0.000971219               0.000000000               0.000000000               0.000000000               0.000000000               0.000563237               0.003388140              -0.000000000              -0.000212303               0.001200136               0.000987833               0.000000000               0.000000000               0.000000000               0.000000000               0.000576893               0.003449881               0.000000000              -0.000214900               0.001221582               0.001006682               0.000000000               0.000000000               0.000000000               0.000000000               0.000615977               0.003494665               0.000000000              -0.000205841               0.001233490               0.001027649               0.000000000               0.000000000               0.000000000               0.000000000               0.000660164               0.003517194              -0.000000000              -0.000192087               0.001236415               0.001044328               0.000000000               0.000000000               0.000000000               0.000000000               0.000777785               0.008791227              -0.000000000              -0.000807232               0.003199457               0.002392225               0.000000000               0.000000000               0.000000000               0.000000000               0.000848095               0.007211506              -0.000000000              -0.000583401               0.002598278               0.002014877               0.000000000               0.000000000               0.000000000               0.000000000               0.001175992               0.005953433               0.000000000              -0.000303182               0.002085518               0.001782337               0.000000000               0.000000000               0.000000000               0.000000000               0.001215130               0.005265249               0.000000000              -0.000202482               0.001822560               0.001620078               0.000000000               0.000000000               0.000000000               0.000000000               0.001152536               0.004860481               0.000000000              -0.000175359               0.001678597               0.001503238               0.000000000               0.000000000               0.000000000               0.000000000               0.001051379               0.004601819              -0.000000000              -0.000180960               0.001594244               0.001413284               0.000000000               0.000000000               0.000000000               0.000000000               0.000935419               0.004429266              -0.000000000              -0.000202876               0.001544032               0.001341157               0.000000000               0.000000000               0.000000000               0.000000000               0.000820367               0.004315375              -0.000000000              -0.000231784               0.001515705               0.001283922               0.000000000               0.000000000               0.000000000               0.000000000               0.000710870               0.004240197              -0.000000000              -0.000263448               0.001501201               0.001237753               0.000000000               0.000000000               0.000000000               0.000000000               0.000599514               0.004188881              -0.000000000              -0.000298792               0.001495877               0.001197085               0.000000000               0.000000000               0.000000000               0.000000000               0.000488848               0.004152340              -0.000000000              -0.000335724               0.001496007               0.001160284               0.000000000               0.000000000               0.000000000               0.000000000               0.000387883               0.004126744              -0.000000000              -0.000370386               0.001499030               0.001128644               0.000000000               0.000000000               0.000000000               0.000000000               0.000293945               0.004104720               0.000000000              -0.000402860               0.001502513               0.001099653               0.000000000               0.000000000               0.000000000               0.000000000               0.000205298               0.004082425               0.000000000              -0.000433315               0.001505233               0.001071918               0.000000000               0.000000000               0.000000000               0.000000000               0.000126363               0.004055688               0.000000000              -0.000459574               0.001505074               0.001045500               0.000000000               0.000000000               0.000000000               0.000000000               0.000060596               0.004018982              -0.000000000              -0.000479648               0.001499530               0.001019882               0.000000000               0.000000000               0.000000000               0.000000000               0.000028461               0.003988772              -0.000000000              -0.000487922               0.001492218               0.001004296               0.000000000               0.000000000               0.000000000               0.000000000               0.000819227               0.008638284              -0.000645228              -0.000772574               0.003136924               0.002364350               0.000000000               0.000000000               0.000000000               0.000000000               0.000854032               0.007106593              -0.000394192              -0.000568061               0.002558194               0.001990133               0.000000000               0.000000000               0.000000000               0.000000000               0.001144657               0.005899369              -0.000137515              -0.000308174               0.002069161               0.001760987               0.000000000               0.000000000               0.000000000               0.000000000               0.001170884               0.005241394              -0.000020682              -0.000216092               0.001819145               0.001603052               0.000000000               0.000000000               0.000000000               0.000000000               0.001104051               0.004852522               0.000032203              -0.000192546               0.001681673               0.001489128               0.000000000               0.000000000               0.000000000               0.000000000               0.001003036               0.004604324               0.000054224              -0.000199402               0.001601227               0.001401825               0.000000000               0.000000000               0.000000000               0.000000000               0.000890728               0.004438100               0.000064582              -0.000220739               0.001552932               0.001332193               0.000000000               0.000000000               0.000000000               0.000000000               0.000778604               0.004327370               0.000069076              -0.000248944               0.001525424               0.001276480               0.000000000               0.000000000               0.000000000               0.000000000               0.000670255               0.004253023               0.000069638              -0.000280281               0.001511087               0.001230806               0.000000000               0.000000000               0.000000000               0.000000000               0.000564893               0.004202605               0.000067864              -0.000313490               0.001505351               0.001191861               0.000000000               0.000000000               0.000000000               0.000000000               0.000461636               0.004166014               0.000065013              -0.000347637               0.001504536               0.001156899               0.000000000               0.000000000               0.000000000               0.000000000               0.000366550               0.004138664               0.000061169              -0.000379876               0.001506166               0.001126290               0.000000000               0.000000000               0.000000000               0.000000000               0.000280631               0.004117448               0.000056668              -0.000409443               0.001508950               0.001099507               0.000000000               0.000000000               0.000000000               0.000000000               0.000198205               0.004096465               0.000051130              -0.000437730               0.001511385               0.001073655               0.000000000               0.000000000               0.000000000               0.000000000               0.000124125               0.004074555               0.000041108              -0.000462771               0.001512428               0.001049657               0.000000000               0.000000000               0.000000000               0.000000000               0.000060656               0.004047459               0.000024349              -0.000483185               0.001510201               0.001027016               0.000000000               0.000000000               0.000000000               0.000000000               0.000030096               0.004028126               0.000013903              -0.000492229               0.001506771               0.001014543               0.000000000               0.000000000               0.000000000               0.000000000               0.000935238               0.008199791              -0.001220029              -0.000674258               0.002957989               0.002283730               0.000000000               0.000000000               0.000000000               0.000000000               0.000871676               0.006807438              -0.000747376              -0.000524050               0.002443807               0.001919756               0.000000000               0.000000000               0.000000000               0.000000000               0.001058206               0.005748966              -0.000267680              -0.000321793               0.002023567               0.001701774               0.000000000               0.000000000               0.000000000               0.000000000               0.001044294               0.005169889              -0.000056634              -0.000254625               0.001808154               0.001553529               0.000000000               0.000000000               0.000000000               0.000000000               0.000966834               0.004822854               0.000036296              -0.000240293               0.001687700               0.001447406               0.000000000               0.000000000               0.000000000               0.000000000               0.000869096               0.004600499               0.000074865              -0.000249151               0.001616534               0.001367384               0.000000000               0.000000000               0.000000000               0.000000000               0.000766975               0.004451075               0.000092523              -0.000268768               0.001573266               0.001304498               0.000000000               0.000000000               0.000000000               0.000000000               0.000667296               0.004348361               0.000101351              -0.000293308               0.001547209               0.001253900               0.000000000               0.000000000               0.000000000               0.000000000               0.000570625               0.004277721               0.000104878              -0.000320730               0.001532803               0.001212073               0.000000000               0.000000000               0.000000000               0.000000000               0.000479585               0.004229819               0.000104733              -0.000348882               0.001526220               0.001177338               0.000000000               0.000000000               0.000000000               0.000000000               0.000392932               0.004194992               0.000100615              -0.000377024               0.001523991               0.001146968               0.000000000               0.000000000               0.000000000               0.000000000               0.000313326               0.004167886               0.000095594              -0.000403487               0.001523777               0.001120290               0.000000000               0.000000000               0.000000000               0.000000000               0.000243490               0.004149612               0.000088955              -0.000427392               0.001525654               0.001098262               0.000000000               0.000000000               0.000000000               0.000000000               0.000177015               0.004136578               0.000079514              -0.000450691               0.001529076               0.001078385               0.000000000               0.000000000               0.000000000               0.000000000               0.000114632               0.004130041               0.000063472              -0.000473267               0.001534422               0.001061155               0.000000000               0.000000000               0.000000000               0.000000000               0.000056645               0.004131209               0.000037145              -0.000495158               0.001542109               0.001046950               0.000000000               0.000000000               0.000000000               0.000000000               0.000031583               0.004139346               0.000019951              -0.000505573               0.001548293               0.001042719               0.000000000               0.000000000               0.000000000               0.000000000               0.001087940               0.007522400              -0.001664018              -0.000532322               0.002684882               0.002152560               0.000000000               0.000000000               0.000000000               0.000000000               0.000883637               0.006351652              -0.001029196              -0.000462592               0.002271393               0.001808801               0.000000000               0.000000000               0.000000000               0.000000000               0.000921685               0.005525319              -0.000391707              -0.000345032               0.001956766               0.001611733               0.000000000               0.000000000               0.000000000               0.000000000               0.000858577               0.005061306              -0.000120324              -0.000310696               0.001790651               0.001479954               0.000000000               0.000000000               0.000000000               0.000000000               0.000775740               0.004773696              -0.000001066              -0.000305809               0.001693152               0.001387344               0.000000000               0.000000000               0.000000000               0.000000000               0.000688524               0.004582749               0.000051036              -0.000314646               0.001632450               0.001317803               0.000000000               0.000000000               0.000000000               0.000000000               0.000603445               0.004452500               0.000075291              -0.000330270               0.001594242               0.001263972               0.000000000               0.000000000               0.000000000               0.000000000               0.000523990               0.004360444               0.000088667              -0.000348558               0.001569653               0.001221095               0.000000000               0.000000000               0.000000000               0.000000000               0.000449304               0.004297302               0.000096746              -0.000368673               0.001555311               0.001186638               0.000000000               0.000000000               0.000000000               0.000000000               0.000380899               0.004254479               0.000099729              -0.000388972               0.001547803               0.001158831               0.000000000               0.000000000               0.000000000               0.000000000               0.000315734               0.004222717               0.000095700              -0.000409438               0.001544038               0.001134599               0.000000000               0.000000000               0.000000000               0.000000000               0.000255099               0.004200776               0.000089174              -0.000429434               0.001543389               0.001113955               0.000000000               0.000000000               0.000000000               0.000000000               0.000201688               0.004189437               0.000080943              -0.000448045               0.001545813               0.001097768               0.000000000               0.000000000               0.000000000               0.000000000               0.000150550               0.004188794               0.000069188              -0.000467142               0.001551965               0.001084823               0.000000000               0.000000000               0.000000000               0.000000000               0.000099484               0.004199504               0.000053516              -0.000487630               0.001562364               0.001074734               0.000000000               0.000000000               0.000000000               0.000000000               0.000049353               0.004226509               0.000030034              -0.000509805               0.001578757               0.001068952               0.000000000               0.000000000               0.000000000               0.000000000               0.000031751               0.004257881               0.000012109              -0.000520327               0.001592722               0.001072395               0.000000000               0.000000000               0.000000000               0.000000000               0.001232160               0.006675028              -0.001952558              -0.000372319               0.002349093               0.001976774               0.000000000               0.000000000               0.000000000               0.000000000               0.000878872               0.005792407              -0.001230108              -0.000394474               0.002062274               0.001667800               0.000000000               0.000000000               0.000000000               0.000000000               0.000756916               0.005249070              -0.000507871              -0.000372289               0.001873769               0.001501479               0.000000000               0.000000000               0.000000000               0.000000000               0.000652306               0.004916509              -0.000208163              -0.000369948               0.001762136               0.001392188               0.000000000               0.000000000               0.000000000               0.000000000               0.000572845               0.004694523              -0.000075373              -0.000371998               0.001688825               0.001316827               0.000000000               0.000000000               0.000000000               0.000000000               0.000504863               0.004541066              -0.000014715              -0.000378309               0.001639777               0.001261468               0.000000000               0.000000000               0.000000000               0.000000000               0.000442292               0.004433001               0.000014369              -0.000388265               0.001607074               0.001218809               0.000000000               0.000000000               0.000000000               0.000000000               0.000388238               0.004355232               0.000031133              -0.000398814               0.001584667               0.001185854               0.000000000               0.000000000               0.000000000               0.000000000               0.000341060               0.004299716               0.000043929              -0.000409566               0.001569746               0.001160180               0.000000000               0.000000000               0.000000000               0.000000000               0.000296486               0.004258952               0.000049458              -0.000421186               0.001560032               0.001138846               0.000000000               0.000000000               0.000000000               0.000000000               0.000250207               0.004229609               0.000046081              -0.000434872               0.001554813               0.001119941               0.000000000               0.000000000               0.000000000               0.000000000               0.000204493               0.004212373               0.000038780              -0.000449860               0.001554064               0.001104203               0.000000000               0.000000000               0.000000000               0.000000000               0.000161134               0.004204563               0.000030346              -0.000465144               0.001556555               0.001091411               0.000000000               0.000000000               0.000000000               0.000000000               0.000119762               0.004206696               0.000021403              -0.000480925               0.001562526               0.001081601               0.000000000               0.000000000               0.000000000               0.000000000               0.000079090               0.004219909               0.000013458              -0.000497829               0.001572565               0.001074736               0.000000000               0.000000000               0.000000000               0.000000000               0.000039725               0.004244223               0.000005738              -0.000515630               0.001586603               0.001070974               0.000000000               0.000000000               0.000000000               0.000000000               0.000026592               0.004269698              -0.000001661              -0.000523739               0.001597798               0.001074059               0.000000000               0.000000000               0.000000000               0.000000000               0.001335226               0.005747164              -0.002079749              -0.000217687               0.001988264               0.001770577               0.000000000               0.000000000               0.000000000               0.000000000               0.000853156               0.005187834              -0.001349288              -0.000328546               0.001838776               0.001510230               0.000000000               0.000000000               0.000000000               0.000000000               0.000587288               0.004939622              -0.000616125              -0.000397219               0.001778930               0.001381711               0.000000000               0.000000000               0.000000000               0.000000000               0.000460162               0.004736470              -0.000315395              -0.000419497               0.001718640               0.001299143               0.000000000               0.000000000               0.000000000               0.000000000               0.000394951               0.004581016              -0.000178545              -0.000424519               0.001668496               0.001243977               0.000000000               0.000000000               0.000000000               0.000000000               0.000352267               0.004468030              -0.000111901              -0.000426403               0.001631463               0.001205060               0.000000000               0.000000000               0.000000000               0.000000000               0.000314903               0.004387579              -0.000079117              -0.000430358               0.001605964               0.001175607               0.000000000               0.000000000               0.000000000               0.000000000               0.000284684               0.004324007              -0.000058697              -0.000433743               0.001585902               0.001152159               0.000000000               0.000000000               0.000000000               0.000000000               0.000259200               0.004271891              -0.000040342              -0.000436785               0.001569545               0.001132759               0.000000000               0.000000000               0.000000000               0.000000000               0.000231625               0.004232243              -0.000029078              -0.000442170               0.001558124               0.001115954               0.000000000               0.000000000               0.000000000               0.000000000               0.000195871               0.004202891              -0.000026111              -0.000451909               0.001551586               0.001099677               0.000000000               0.000000000               0.000000000               0.000000000               0.000157627               0.004183109              -0.000028250              -0.000463777               0.001548948               0.001085171               0.000000000               0.000000000               0.000000000               0.000000000               0.000118818               0.004168897              -0.000030075              -0.000476554               0.001548470               0.001071915               0.000000000               0.000000000               0.000000000               0.000000000               0.000081207               0.004160617              -0.000027156              -0.000489623               0.001550066               0.001060443               0.000000000               0.000000000               0.000000000               0.000000000               0.000048359               0.004158527              -0.000019424              -0.000501680               0.001553388               0.001051709               0.000000000               0.000000000               0.000000000               0.000000000               0.000022435               0.004157993              -0.000010207              -0.000511335               0.001556429               0.001045094               0.000000000               0.000000000               0.000000000               0.000000000               0.000011335               0.004156188              -0.000005451              -0.000515272               0.001557139               0.001041868               0.000000000               0.000000000               0.000000000               0.000000000               0.001371782               0.004819161              -0.002060411              -0.000087979               0.001635697               0.001547717               0.000000000               0.000000000               0.000000000               0.000000000               0.000806676               0.004587587              -0.001397875              -0.000270945               0.001619495               0.001348550               0.000000000               0.000000000               0.000000000               0.000000000               0.000436538               0.004623624              -0.000719718              -0.000414251               0.001679276               0.001265025               0.000000000               0.000000000               0.000000000               0.000000000               0.000312375               0.004542796              -0.000435156              -0.000450708               0.001664486               0.001213778               0.000000000               0.000000000               0.000000000               0.000000000               0.000269495               0.004450073              -0.000298490              -0.000455197               0.001635075               0.001179878               0.000000000               0.000000000               0.000000000               0.000000000               0.000249411               0.004373289              -0.000222358              -0.000453131               0.001608792               0.001155661               0.000000000               0.000000000               0.000000000               0.000000000               0.000234498               0.004315669              -0.000179995              -0.000451521               0.001589049               0.001137528               0.000000000               0.000000000               0.000000000               0.000000000               0.000220347               0.004261825              -0.000154041              -0.000450097               0.001570626               0.001120529               0.000000000               0.000000000               0.000000000               0.000000000               0.000201434               0.004211018              -0.000126826              -0.000450838               0.001553938               0.001103100               0.000000000               0.000000000               0.000000000               0.000000000               0.000177658               0.004170567              -0.000104109              -0.000454698               0.001541741               0.001087043               0.000000000               0.000000000               0.000000000               0.000000000               0.000145763               0.004135877              -0.000089545              -0.000462322               0.001532719               0.001070397               0.000000000               0.000000000               0.000000000               0.000000000               0.000109191               0.004105696              -0.000079009              -0.000472264               0.001525973               0.001053709               0.000000000               0.000000000               0.000000000               0.000000000               0.000073423               0.004079427              -0.000067705              -0.000482393               0.001520593               0.001038200               0.000000000               0.000000000               0.000000000               0.000000000               0.000040092               0.004055803              -0.000050286              -0.000491940               0.001515901               0.001023961               0.000000000               0.000000000               0.000000000               0.000000000               0.000014970               0.004032245              -0.000029186              -0.000498416               0.001510207               0.001011791               0.000000000               0.000000000               0.000000000               0.000000000               0.000002594               0.004003988              -0.000011422              -0.000499525               0.001501158               0.001001633               0.000000000               0.000000000               0.000000000               0.000000000              -0.000004432               0.003979764              -0.000001449              -0.000499131               0.001492952               0.000993821               0.000000000               0.000000000               0.000000000               0.000000000               0.001341374               0.003944799              -0.001924437               0.000009913               0.001311615               0.001321528               0.000000000               0.000000000               0.000000000               0.000000000               0.000745139               0.004027282              -0.001391692              -0.000223984               0.001417075               0.001193091               0.000000000               0.000000000               0.000000000               0.000000000               0.000323615               0.004316540              -0.000819683              -0.000418211               0.001578236               0.001160025               0.000000000               0.000000000               0.000000000               0.000000000               0.000219952               0.004341532              -0.000555032              -0.000460209               0.001600566               0.001140357               0.000000000               0.000000000               0.000000000               0.000000000               0.000200886               0.004306520              -0.000414414              -0.000462982               0.001589820               0.001126838               0.000000000               0.000000000               0.000000000               0.000000000               0.000197499               0.004262945              -0.000325317              -0.000458805               0.001573902               0.001115097               0.000000000               0.000000000               0.000000000               0.000000000               0.000190921               0.004214823              -0.000267254              -0.000455256               0.001556679               0.001101423               0.000000000               0.000000000               0.000000000               0.000000000               0.000180413               0.004164921              -0.000230944              -0.000452959               0.001539279               0.001086320               0.000000000               0.000000000               0.000000000               0.000000000               0.000162061               0.004120501              -0.000194804              -0.000454289               0.001524916               0.001070627               0.000000000               0.000000000               0.000000000               0.000000000               0.000133374               0.004077938              -0.000159854              -0.000459726               0.001512541               0.001052815               0.000000000               0.000000000               0.000000000               0.000000000               0.000099454               0.004034747              -0.000131574              -0.000467047               0.001500585               0.001033537               0.000000000               0.000000000               0.000000000               0.000000000               0.000062989               0.003991564              -0.000106085              -0.000475324               0.001488949               0.001013626               0.000000000               0.000000000               0.000000000               0.000000000               0.000025756               0.003949251              -0.000081053              -0.000483997               0.001477736               0.000993739               0.000000000               0.000000000               0.000000000               0.000000000              -0.000005488               0.003906398              -0.000052663              -0.000490357               0.001465572               0.000975215               0.000000000               0.000000000               0.000000000               0.000000000              -0.000022122               0.003861017              -0.000025958              -0.000490922               0.001450633               0.000959712               0.000000000               0.000000000               0.000000000               0.000000000              -0.000019708               0.003812219              -0.000007435              -0.000483917               0.001432033               0.000948116               0.000000000               0.000000000               0.000000000               0.000000000              -0.000017409               0.003777407               0.000002645              -0.000478703               0.001418691               0.000939988               0.000000000               0.000000000               0.000000000               0.000000000               0.001272482               0.003186701              -0.001714303               0.000078840               0.001035942               0.001114783               0.000000000               0.000000000               0.000000000               0.000000000               0.000699043               0.003525697              -0.001357975              -0.000178572               0.001234744               0.001056172               0.000000000               0.000000000               0.000000000               0.000000000               0.000268586               0.004027745              -0.000929767              -0.000402748               0.001476817               0.001074069               0.000000000               0.000000000               0.000000000               0.000000000               0.000185097               0.004152684              -0.000678155              -0.000449673               0.001534105               0.001084432               0.000000000               0.000000000               0.000000000               0.000000000               0.000180586               0.004173770              -0.000525947              -0.000454000               0.001542576               0.001088576               0.000000000               0.000000000               0.000000000               0.000000000               0.000183108               0.004159529              -0.000422464              -0.000451275               0.001536921               0.001085646               0.000000000               0.000000000               0.000000000               0.000000000               0.000175486               0.004121601              -0.000347602              -0.000449392               0.001523650               0.001074259               0.000000000               0.000000000               0.000000000               0.000000000               0.000160571               0.004077995              -0.000294952              -0.000449534               0.001509163               0.001059629               0.000000000               0.000000000               0.000000000               0.000000000               0.000139105               0.004043249              -0.000251398              -0.000453240               0.001498816               0.001045576               0.000000000               0.000000000               0.000000000               0.000000000               0.000111174               0.004003924              -0.000210522              -0.000458799               0.001487561               0.001028762               0.000000000               0.000000000               0.000000000               0.000000000               0.000077457               0.003956724              -0.000171820              -0.000465543               0.001474076               0.001008533               0.000000000               0.000000000               0.000000000               0.000000000               0.000037653               0.003903648              -0.000134121              -0.000473835               0.001459148               0.000985313               0.000000000               0.000000000               0.000000000               0.000000000              -0.000003771               0.003848325              -0.000098293              -0.000482454               0.001443580               0.000961126               0.000000000               0.000000000               0.000000000               0.000000000              -0.000041777               0.003790817              -0.000063579              -0.000489517               0.001426765               0.000937248               0.000000000               0.000000000               0.000000000               0.000000000              -0.000068019               0.003727998              -0.000033321              -0.000491506               0.001406489               0.000914983               0.000000000               0.000000000               0.000000000               0.000000000              -0.000076996               0.003662059              -0.000011391              -0.000486630               0.001382884               0.000896254               0.000000000               0.000000000               0.000000000               0.000000000              -0.000077516               0.003621493              -0.000000540              -0.000481754               0.001367737               0.000885983               0.000000000               0.000000000               0.000000000               0.000000000               0.001149737               0.002458137              -0.001471793               0.000123881               0.000778076               0.000901958               0.000000000               0.000000000               0.000000000               0.000000000               0.000680966               0.002942847              -0.001312484              -0.000112495               0.001018437               0.000905942               0.000000000               0.000000000               0.000000000               0.000000000               0.000282281               0.003594666              -0.001056113              -0.000343478               0.001312703               0.000969225               0.000000000               0.000000000               0.000000000               0.000000000               0.000201351               0.003843105              -0.000824966              -0.000404881               0.001415982               0.001011101               0.000000000               0.000000000               0.000000000               0.000000000               0.000198572               0.003943642              -0.000657743              -0.000418490               0.001454031               0.001035541               0.000000000               0.000000000               0.000000000               0.000000000               0.000198722               0.003977764              -0.000534389              -0.000422699               0.001466808               0.001044109               0.000000000               0.000000000               0.000000000               0.000000000               0.000187955               0.003977115              -0.000441505              -0.000426655               0.001467910               0.001041255               0.000000000               0.000000000               0.000000000               0.000000000               0.000172643               0.003958346              -0.000373502              -0.000430051               0.001462786               0.001032735               0.000000000               0.000000000               0.000000000               0.000000000               0.000153605               0.003933503              -0.000322066              -0.000434085               0.001455850               0.001021764               0.000000000               0.000000000               0.000000000               0.000000000               0.000124297               0.003903971              -0.000275299              -0.000441384               0.001448438               0.001007055               0.000000000               0.000000000               0.000000000               0.000000000               0.000088335               0.003866616              -0.000227441              -0.000450200               0.001438926               0.000988726               0.000000000               0.000000000               0.000000000               0.000000000               0.000044821               0.003818258              -0.000180928              -0.000460473               0.001426231               0.000965758               0.000000000               0.000000000               0.000000000               0.000000000              -0.000004190               0.003764156              -0.000136541              -0.000472090               0.001412069               0.000939980               0.000000000               0.000000000               0.000000000               0.000000000              -0.000057677               0.003708388              -0.000093345              -0.000485176               0.001397843               0.000912666               0.000000000               0.000000000               0.000000000               0.000000000              -0.000111057               0.003651239              -0.000055374              -0.000498050               0.001383084               0.000885034               0.000000000               0.000000000               0.000000000               0.000000000              -0.000157506               0.003589101              -0.000024101              -0.000507701               0.001365589               0.000857887               0.000000000               0.000000000               0.000000000               0.000000000              -0.000183077               0.003548854              -0.000006802              -0.000512259               0.001353693               0.000841433               0.000000000               0.000000000               0.000000000               0.000000000               0.000944725               0.001778897              -0.001201754               0.000131907               0.000548990               0.000680897               0.000000000               0.000000000               0.000000000               0.000000000               0.000656218               0.002357841              -0.001228542              -0.000048650               0.000802155               0.000753505               0.000000000               0.000000000               0.000000000               0.000000000               0.000340888               0.003102035              -0.001147911              -0.000259922               0.001120642               0.000860720               0.000000000               0.000000000               0.000000000               0.000000000               0.000260325               0.003466646              -0.000962633              -0.000335709               0.001267440               0.000931731               0.000000000               0.000000000               0.000000000               0.000000000               0.000247072               0.003660240              -0.000791269              -0.000364877               0.001341694               0.000976816               0.000000000               0.000000000               0.000000000               0.000000000               0.000243998               0.003760603              -0.000654573              -0.000378575               0.001379713               0.001001138               0.000000000               0.000000000               0.000000000               0.000000000               0.000234606               0.003808037              -0.000550638              -0.000388027               0.001398675               0.001010649               0.000000000               0.000000000               0.000000000               0.000000000               0.000218331               0.003822980              -0.000472866              -0.000395998               0.001406313               0.001010315               0.000000000               0.000000000               0.000000000               0.000000000               0.000199573               0.003825384              -0.000410383              -0.000403332               0.001409559               0.001006227               0.000000000               0.000000000               0.000000000               0.000000000               0.000172352               0.003818770              -0.000355042              -0.000412713               0.001410482               0.000997768               0.000000000               0.000000000               0.000000000               0.000000000               0.000136310               0.003797437              -0.000302731              -0.000423562               0.001406987               0.000983425               0.000000000               0.000000000               0.000000000               0.000000000               0.000093103               0.003763132              -0.000251169              -0.000435477               0.001399524               0.000964047               0.000000000               0.000000000               0.000000000               0.000000000               0.000038940               0.003720055              -0.000197261              -0.000450403               0.001390140               0.000939737               0.000000000               0.000000000               0.000000000               0.000000000              -0.000027156               0.003675039              -0.000140862              -0.000469562               0.001381521               0.000911959               0.000000000               0.000000000               0.000000000               0.000000000              -0.000103834               0.003628460              -0.000088788              -0.000492494               0.001373639               0.000881145               0.000000000               0.000000000               0.000000000               0.000000000              -0.000188397               0.003577972              -0.000041389              -0.000517894               0.001365277               0.000847383               0.000000000               0.000000000               0.000000000               0.000000000              -0.000246237               0.003540088              -0.000012120              -0.000534848               0.001358300               0.000823452               0.000000000               0.000000000               0.000000000               0.000000000               0.000669314               0.001192734              -0.000914733               0.000101899               0.000363607               0.000465506               0.000000000               0.000000000               0.000000000               0.000000000               0.000594932               0.001800496              -0.001089064              -0.000001964               0.000600813               0.000598849               0.000000000               0.000000000               0.000000000               0.000000000               0.000415021               0.002562695              -0.001157514              -0.000164705               0.000909124               0.000744420               0.000000000               0.000000000               0.000000000               0.000000000               0.000356366               0.003016625              -0.001034945              -0.000243441               0.001086678               0.000843237               0.000000000               0.000000000               0.000000000               0.000000000               0.000337151               0.003300233              -0.000882849              -0.000286098               0.001195432               0.000909335               0.000000000               0.000000000               0.000000000               0.000000000               0.000331847               0.003473363              -0.000749516              -0.000309728               0.001261019               0.000951291               0.000000000               0.000000000               0.000000000               0.000000000               0.000320106               0.003574816              -0.000642048              -0.000326812               0.001300531               0.000973719               0.000000000               0.000000000               0.000000000               0.000000000               0.000297540               0.003638257              -0.000556247              -0.000343204               0.001327142               0.000983937               0.000000000               0.000000000               0.000000000               0.000000000               0.000271658               0.003681863              -0.000486908              -0.000358360               0.001346729               0.000988369               0.000000000               0.000000000               0.000000000               0.000000000               0.000244787               0.003700966              -0.000427089              -0.000370825               0.001357251               0.000986426               0.000000000               0.000000000               0.000000000               0.000000000               0.000209819               0.003699841              -0.000370482              -0.000383797               0.001361200               0.000977403               0.000000000               0.000000000               0.000000000               0.000000000               0.000167448               0.003689741              -0.000313017              -0.000398424               0.001362709               0.000964285               0.000000000               0.000000000               0.000000000               0.000000000               0.000113653               0.003669961              -0.000250750              -0.000416124               0.001362016               0.000945892               0.000000000               0.000000000               0.000000000               0.000000000               0.000046644               0.003639483              -0.000185280              -0.000437443               0.001358963               0.000921520               0.000000000               0.000000000               0.000000000               0.000000000              -0.000033954               0.003603650              -0.000120506              -0.000463188               0.001355601               0.000892413               0.000000000               0.000000000               0.000000000               0.000000000              -0.000128981               0.003566161              -0.000057774              -0.000494137               0.001353421               0.000859284               0.000000000               0.000000000               0.000000000               0.000000000              -0.000200629               0.003532904              -0.000019835              -0.000516848               0.001349905               0.000833058               0.000000000               0.000000000               0.000000000               0.000000000               0.000348419               0.000729031              -0.000637796               0.000039527               0.000229832               0.000269359               0.000000000               0.000000000               0.000000000               0.000000000               0.000503719               0.001299517              -0.000903324               0.000026453               0.000424350               0.000450803               0.000000000               0.000000000               0.000000000               0.000000000               0.000491359               0.002021483              -0.001074935              -0.000068427               0.000696629               0.000628203               0.000000000               0.000000000               0.000000000               0.000000000               0.000475875               0.002529062              -0.001015240              -0.000137681               0.000888905               0.000751225               0.000000000               0.000000000               0.000000000               0.000000000               0.000464661               0.002882988              -0.000902609              -0.000186126               0.001023028               0.000836902               0.000000000               0.000000000               0.000000000               0.000000000               0.000456074               0.003125490              -0.000787323              -0.000219658               0.001115039               0.000895380               0.000000000               0.000000000               0.000000000               0.000000000               0.000433806               0.003288431              -0.000682617              -0.000248376               0.001178925               0.000930548               0.000000000               0.000000000               0.000000000               0.000000000               0.000402509               0.003406874              -0.000597895              -0.000274918               0.001227253               0.000952335               0.000000000               0.000000000               0.000000000               0.000000000               0.000370607               0.003491546              -0.000532073              -0.000297465               0.001262992               0.000965527               0.000000000               0.000000000               0.000000000               0.000000000               0.000338689               0.003540795              -0.000472396              -0.000315590               0.001285450               0.000969860               0.000000000               0.000000000               0.000000000               0.000000000               0.000301982               0.003573318              -0.000412681              -0.000333421               0.001302234               0.000968813               0.000000000               0.000000000               0.000000000               0.000000000               0.000260710               0.003597896              -0.000352214              -0.000351970               0.001316610               0.000964640               0.000000000               0.000000000               0.000000000               0.000000000               0.000212415               0.003604930              -0.000287564              -0.000370960               0.001325284               0.000954325               0.000000000               0.000000000               0.000000000               0.000000000               0.000156745               0.003595387              -0.000219602              -0.000390643               0.001328665               0.000938022               0.000000000               0.000000000               0.000000000               0.000000000               0.000091176               0.003576350              -0.000149814              -0.000412852               0.001329722               0.000916870               0.000000000               0.000000000               0.000000000               0.000000000               0.000012357               0.003553811              -0.000076462              -0.000439591               0.001331122               0.000891531               0.000000000               0.000000000               0.000000000               0.000000000              -0.000052415               0.003530051              -0.000031806              -0.000460911               0.001330309               0.000869398               0.000000000               0.000000000               0.000000000               0.000000000               0.000022633               0.000395116              -0.000400046              -0.000040903               0.000145338               0.000104435               0.000000000               0.000000000               0.000000000               0.000000000               0.000394786               0.000886150              -0.000685638               0.000037275               0.000282955               0.000320230               0.000000000               0.000000000               0.000000000               0.000000000               0.000560717               0.001527223              -0.000900437               0.000019365               0.000502614               0.000521978               0.000000000               0.000000000               0.000000000               0.000000000               0.000606106               0.002053476              -0.000891965              -0.000029396               0.000694283               0.000664888               0.000000000               0.000000000               0.000000000               0.000000000               0.000612998               0.002458411              -0.000822632              -0.000077428               0.000845271               0.000767843               0.000000000               0.000000000               0.000000000               0.000000000               0.000599716               0.002759576              -0.000734320              -0.000120054               0.000959867               0.000839813               0.000000000               0.000000000               0.000000000               0.000000000               0.000568291               0.002979906              -0.000644897              -0.000159379               0.001046418               0.000887039               0.000000000               0.000000000               0.000000000               0.000000000               0.000528025               0.003146487              -0.000573243              -0.000195301               0.001113919               0.000918618               0.000000000               0.000000000               0.000000000               0.000000000               0.000484669               0.003268891              -0.000518737              -0.000226860               0.001165239               0.000938379               0.000000000               0.000000000               0.000000000               0.000000000               0.000440993               0.003356383              -0.000465842              -0.000254175               0.001203508               0.000949333               0.000000000               0.000000000               0.000000000               0.000000000               0.000399750               0.003427358              -0.000409190              -0.000278513               0.001235279               0.000956766               0.000000000               0.000000000               0.000000000               0.000000000               0.000359512               0.003485897              -0.000352753              -0.000300919               0.001262260               0.000961341               0.000000000               0.000000000               0.000000000               0.000000000               0.000320153               0.003524589              -0.000294715              -0.000320516               0.001281690               0.000961174               0.000000000               0.000000000               0.000000000               0.000000000               0.000282605               0.003544454              -0.000234368              -0.000337079               0.001293832               0.000956753               0.000000000               0.000000000               0.000000000               0.000000000               0.000245127               0.003547470              -0.000169654              -0.000351510               0.001299648               0.000948138               0.000000000               0.000000000               0.000000000               0.000000000               0.000199739               0.003539542              -0.000092381              -0.000367540               0.001302349               0.000934809               0.000000000               0.000000000               0.000000000               0.000000000               0.000160447               0.003526990              -0.000045172              -0.000380705               0.001302553               0.000921848               0.000000000               0.000000000               0.000000000               0.000000000              -0.000264098               0.000182542              -0.000221040              -0.000121855               0.000101464              -0.000020390               0.000000000               0.000000000               0.000000000               0.000000000               0.000285365               0.000584573              -0.000455944               0.000033939               0.000183542               0.000217482               0.000000000               0.000000000               0.000000000               0.000000000               0.000615093               0.001131363              -0.000647582               0.000089238               0.000347371               0.000436609               0.000000000               0.000000000               0.000000000               0.000000000               0.000725315               0.001651096              -0.000667123               0.000065605               0.000528492               0.000594096               0.000000000               0.000000000               0.000000000               0.000000000               0.000749047               0.002089268              -0.000632058               0.000019733               0.000689838               0.000709571               0.000000000               0.000000000               0.000000000               0.000000000               0.000733310               0.002434109              -0.000574166              -0.000029273               0.000821119               0.000791846               0.000000000               0.000000000               0.000000000               0.000000000               0.000698953               0.002695560              -0.000511054              -0.000074838               0.000923457               0.000848619               0.000000000               0.000000000               0.000000000               0.000000000               0.000653589               0.002897961              -0.000460314              -0.000117149               0.001005027               0.000887878               0.000000000               0.000000000               0.000000000               0.000000000               0.000600527               0.003056719              -0.000421736              -0.000156892               0.001071193               0.000914301               0.000000000               0.000000000               0.000000000               0.000000000               0.000545356               0.003179367              -0.000383097              -0.000192912               0.001124082               0.000931170               0.000000000               0.000000000               0.000000000               0.000000000               0.000498879               0.003281083              -0.000339496              -0.000223055               0.001168035               0.000944980               0.000000000               0.000000000               0.000000000               0.000000000               0.000460581               0.003366932              -0.000295612              -0.000248148               0.001205016               0.000956867               0.000000000               0.000000000               0.000000000               0.000000000               0.000430807               0.003433125              -0.000251554              -0.000267587               0.001233559               0.000965972               0.000000000               0.000000000               0.000000000               0.000000000               0.000411114               0.003481387              -0.000206821              -0.000281005               0.001254119               0.000973114               0.000000000               0.000000000               0.000000000               0.000000000               0.000399862               0.003510432              -0.000156097              -0.000288855               0.001266417               0.000977562               0.000000000               0.000000000               0.000000000               0.000000000               0.000395783               0.003524277              -0.000088181              -0.000292115               0.001272119               0.000980004               0.000000000               0.000000000               0.000000000               0.000000000               0.000395733               0.003527267              -0.000047707              -0.000292508               0.001273247               0.000980739               0.000000000               0.000000000               0.000000000               0.000000000              -0.000460038               0.000066029              -0.000094340              -0.000180768               0.000082265              -0.000098503               0.000000000               0.000000000               0.000000000               0.000000000               0.000204858               0.000400478              -0.000225854               0.000026761               0.000124571               0.000151332               0.000000000               0.000000000               0.000000000               0.000000000               0.000649713               0.000874580              -0.000338598               0.000134319               0.000246751               0.000381069               0.000000000               0.000000000               0.000000000               0.000000000               0.000808775               0.001381092              -0.000357780               0.000130653               0.000416809               0.000547461               0.000000000               0.000000000               0.000000000               0.000000000               0.000846209               0.001837702              -0.000344118               0.000087614               0.000583356               0.000670971               0.000000000               0.000000000               0.000000000               0.000000000               0.000828367               0.002208665              -0.000316509               0.000034554               0.000724696               0.000759250               0.000000000               0.000000000               0.000000000               0.000000000               0.000791269               0.002492339              -0.000284380              -0.000014817               0.000835710               0.000820894               0.000000000               0.000000000               0.000000000               0.000000000               0.000746572               0.002715669              -0.000257847              -0.000059494               0.000925045               0.000865551               0.000000000               0.000000000               0.000000000               0.000000000               0.000694108               0.002898157              -0.000237719              -0.000101979               0.001000036               0.000898057               0.000000000               0.000000000               0.000000000               0.000000000               0.000637282               0.003044746              -0.000217922              -0.000141612               0.001062109               0.000920497               0.000000000               0.000000000               0.000000000               0.000000000               0.000588003               0.003166023              -0.000194294              -0.000175251               0.001113747               0.000938496               0.000000000               0.000000000               0.000000000               0.000000000               0.000551589               0.003268016              -0.000169778              -0.000201656               0.001156546               0.000954891               0.000000000               0.000000000               0.000000000               0.000000000               0.000528015               0.003350038              -0.000146464              -0.000220749               0.001190251               0.000969502               0.000000000               0.000000000               0.000000000               0.000000000               0.000519207               0.003417027              -0.000121528              -0.000232425               0.001216473               0.000984048               0.000000000               0.000000000               0.000000000               0.000000000               0.000525839               0.003469415              -0.000092377              -0.000236487               0.001235289               0.000998802               0.000000000               0.000000000               0.000000000               0.000000000               0.000553744               0.003505314              -0.000052431              -0.000230510               0.001245263               0.001014753               0.000000000               0.000000000               0.000000000               0.000000000               0.000586659               0.003522589              -0.000028860              -0.000220326               0.001247627               0.001027301               0.000000000               0.000000000               0.000000000               0.000000000               0.000000000               0.000000000               0.000000000               0.000000000               0.000000000               0.000000000               0.000000000               0.000000000               0.000000000               0.000000000               0.000000000               0.000000000               0.000000000               0.000000000               0.000000000               0.000000000               0.000000000               0.000000000               0.000000000               0.000000000               0.000000000               0.000000000               0.000000000               0.000000000               0.000000000               0.000000000               0.000000000               0.000000000               0.000000000               0.000000000               0.000000000               0.000000000               0.000000000               0.000000000               0.000000000               0.000000000               0.000000000               0.000000000               0.000000000               0.000000000               0.000000000               0.000000000               0.000000000               0.000000000               0.000000000               0.000000000               0.000000000               0.000000000               0.000000000               0.000000000               0.000000000               0.000000000               0.000000000               0.000000000               0.000000000               0.000000000               0.000000000               0.000000000               0.000000000               0.000000000               0.000000000               0.000000000               0.000000000               0.000000000               0.000000000               0.000000000               0.000000000               0.000000000               0.000000000               0.000000000               0.000000000               0.000000000               0.000000000               0.000000000               0.000000000               0.000000000               0.000000000               0.000000000               0.000000000               0.000000000               0.000000000               0.000000000               0.000000000               0.000000000               0.000000000               0.000000000               0.000000000               0.000000000               0.000000000               0.000000000               0.000000000               0.000000000               0.000000000               0.000000000               0.000000000               0.000000000               0.000000000               0.000000000               0.000000000               0.000000000               0.000000000               0.000000000               0.000000000               0.000000000               0.000000000               0.000000000               0.000000000               0.000000000               0.000000000               0.000000000               0.000000000               0.000000000               0.000000000               0.000000000               0.000000000               0.000000000               0.000000000               0.000000000               0.000000000               0.000000000               0.000000000               0.000000000               0.000000000               0.000000000               0.000000000               0.000000000               0.000000000               0.000000000               0.000000000               0.000000000               0.000000000               0.000000000               0.000000000               0.000000000               0.000000000               0.000000000               0.000000000               0.000000000               0.000000000               0.000000000               0.000000000               0.000000000               0.000000000               0.000000000               0.000000000               0.000000000               0.000000000               0.000000000               0.000000000               0.000000000               0.000000000               0.000000000               0.000000000               0.000000000               0.000000000               0.000000000               0.000000000               0.000000000               0.000000000               0.000000000               0.000000000               0.000000000               0.000000000               0.000000000               0.000000000               0.000000000               0.000000000               0.000000000               0.000000000               0.000000000               0.000000000               0.000000000               0.000000000               0.000000000               0.000000000               0.000000000               0.000000000               0.000000000               0.000000000               0.000000000               0.000000000               0.000000000               0.000000000               0.000000000               0.000000000               0.000000000               0.000000000               0.000000000               0.000000000               0.000000000               0.000000000               0.000000000               0.000000000               0.000000000               0.000000000               0.000000000               0.000000000               0.000000000               0.000000000               0.000000000               0.000000000               0.000000000               0.000000000               0.000000000               0.000000000               0.000000000               0.000000000               0.000000000               0.000000000               0.000000000               0.000000000               0.000000000               0.000000000               0.000000000               0.000000000               0.000000000               0.000000000               0.000000000               0.000000000               0.000000000               0.000000000               0.000000000               0.000000000               0.000000000               0.000000000               0.000000000               0.000000000               0.000000000               0.000000000               0.000000000               0.000000000               0.000000000               0.000000000               0.000000000               0.000000000               0.000000000               0.000000000               0.000000000               0.000000000               0.000000000               0.000000000               0.000000000               0.000000000               0.000000000               0.000000000               0.000000000               0.000000000               0.000000000               0.000000000               0.000000000               0.000000000               0.000000000               0.000000000               0.000000000               0.000000000               0.000000000               0.000000000               0.000000000               0.000000000               0.000000000               0.000000000               0.000000000               0.000000000               0.000000000               0.000000000               0.000000000               0.000000000               0.000000000               0.000000000               0.000000000               0.000000000               0.000000000               0.000000000               0.000000000               0.000000000               0.000000000               0.000000000               0.000000000               0.000000000               0.000000000               0.000000000               0.000000000               0.000000000               0.000000000               0.000000000               0.000000000               0.000000000               0.000000000               0.000000000               0.000000000               0.000000000               0.000000000               0.000000000               0.000000000               0.000000000               0.000000000               0.000000000               0.000000000               0.000000000               0.000000000               0.000000000               0.000000000               0.000000000               0.000000000               0.000000000               0.000000000               0.000000000               0.000000000               0.000000000               0.000000000               0.000000000               0.000000000               0.000000000               0.000000000               0.000000000               0.000000000               0.000000000               0.000000000               0.000000000               0.000000000               0.000000000               0.000000000               0.000000000               0.000000000               0.000000000               0.000000000               0.000000000               0.000000000               0.000000000               0.000000000               0.000000000               0.000000000               0.000000000               0.000000000               0.000000000               0.000000000               0.000000000               0.000000000               0.000000000               0.000000000               0.000819227               0.008638284               0.000645228              -0.000772574               0.003136924               0.002364350               0.000000000               0.000000000               0.000000000               0.000000000               0.000854032               0.007106593               0.000394192              -0.000568061               0.002558194               0.001990133               0.000000000               0.000000000               0.000000000               0.000000000               0.001144657               0.005899369               0.000137515              -0.000308174               0.002069161               0.001760987               0.000000000               0.000000000               0.000000000               0.000000000               0.001170884               0.005241394               0.000020682              -0.000216092               0.001819145               0.001603052               0.000000000               0.000000000               0.000000000               0.000000000               0.001104051               0.004852522              -0.000032203              -0.000192546               0.001681673               0.001489128               0.000000000               0.000000000               0.000000000               0.000000000               0.001003036               0.004604324              -0.000054224              -0.000199402               0.001601227               0.001401825               0.000000000               0.000000000               0.000000000               0.000000000               0.000890728               0.004438100              -0.000064582              -0.000220739               0.001552932               0.001332193               0.000000000               0.000000000               0.000000000               0.000000000               0.000778604               0.004327370              -0.000069076              -0.000248944               0.001525424               0.001276480               0.000000000               0.000000000               0.000000000               0.000000000               0.000670255               0.004253023              -0.000069638              -0.000280281               0.001511087               0.001230806               0.000000000               0.000000000               0.000000000               0.000000000               0.000564893               0.004202605              -0.000067864              -0.000313490               0.001505351               0.001191861               0.000000000               0.000000000               0.000000000               0.000000000               0.000461636               0.004166014              -0.000065013              -0.000347637               0.001504536               0.001156899               0.000000000               0.000000000               0.000000000               0.000000000               0.000366550               0.004138664              -0.000061169              -0.000379876               0.001506166               0.001126290               0.000000000               0.000000000               0.000000000               0.000000000               0.000280631               0.004117448              -0.000056668              -0.000409443               0.001508950               0.001099507               0.000000000               0.000000000               0.000000000               0.000000000               0.000198205               0.004096465              -0.000051130              -0.000437730               0.001511385               0.001073655               0.000000000               0.000000000               0.000000000               0.000000000               0.000124125               0.004074555              -0.000041108              -0.000462771               0.001512428               0.001049657               0.000000000               0.000000000               0.000000000               0.000000000               0.000060656               0.004047459              -0.000024349              -0.000483185               0.001510201               0.001027016               0.000000000               0.000000000               0.000000000               0.000000000               0.000030096               0.004028126              -0.000013903              -0.000492229               0.001506771               0.001014543               0.000000000               0.000000000               0.000000000               0.000000000               0.000935238               0.008199791               0.001220029              -0.000674258               0.002957989               0.002283730               0.000000000               0.000000000               0.000000000               0.000000000               0.000871676               0.006807438               0.000747376              -0.000524050               0.002443807               0.001919756               0.000000000               0.000000000               0.000000000               0.000000000               0.001058206               0.005748966               0.000267680              -0.000321793               0.002023567               0.001701774               0.000000000               0.000000000               0.000000000               0.000000000               0.001044294               0.005169889               0.000056634              -0.000254625               0.001808154               0.001553529               0.000000000               0.000000000               0.000000000               0.000000000               0.000966834               0.004822854              -0.000036296              -0.000240293               0.001687700               0.001447406               0.000000000               0.000000000               0.000000000               0.000000000               0.000869096               0.004600499              -0.000074865              -0.000249151               0.001616534               0.001367384               0.000000000               0.000000000               0.000000000               0.000000000               0.000766975               0.004451075              -0.000092523              -0.000268768               0.001573266               0.001304498               0.000000000               0.000000000               0.000000000               0.000000000               0.000667296               0.004348361              -0.000101351              -0.000293308               0.001547209               0.001253900               0.000000000               0.000000000               0.000000000               0.000000000               0.000570625               0.004277721              -0.000104878              -0.000320730               0.001532803               0.001212073               0.000000000               0.000000000               0.000000000               0.000000000               0.000479585               0.004229819              -0.000104733              -0.000348882               0.001526220               0.001177338               0.000000000               0.000000000               0.000000000               0.000000000               0.000392932               0.004194992              -0.000100615              -0.000377024               0.001523991               0.001146968               0.000000000               0.000000000               0.000000000               0.000000000               0.000313326               0.004167886              -0.000095594              -0.000403487               0.001523777               0.001120290               0.000000000               0.000000000               0.000000000               0.000000000               0.000243490               0.004149612              -0.000088955              -0.000427392               0.001525654               0.001098262               0.000000000               0.000000000               0.000000000               0.000000000               0.000177015               0.004136578              -0.000079514              -0.000450691               0.001529076               0.001078385               0.000000000               0.000000000               0.000000000               0.000000000               0.000114632               0.004130041              -0.000063472              -0.000473267               0.001534422               0.001061155               0.000000000               0.000000000               0.000000000               0.000000000               0.000056645               0.004131209              -0.000037145              -0.000495158               0.001542109               0.001046950               0.000000000               0.000000000               0.000000000               0.000000000               0.000031583               0.004139346              -0.000019951              -0.000505573               0.001548293               0.001042719               0.000000000               0.000000000               0.000000000               0.000000000               0.001087940               0.007522400               0.001664018              -0.000532322               0.002684882               0.002152560               0.000000000               0.000000000               0.000000000               0.000000000               0.000883637               0.006351652               0.001029196              -0.000462592               0.002271393               0.001808801               0.000000000               0.000000000               0.000000000               0.000000000               0.000921685               0.005525319               0.000391707              -0.000345032               0.001956766               0.001611733               0.000000000               0.000000000               0.000000000               0.000000000               0.000858577               0.005061306               0.000120324              -0.000310696               0.001790651               0.001479954               0.000000000               0.000000000               0.000000000               0.000000000               0.000775740               0.004773696               0.000001066              -0.000305809               0.001693152               0.001387344               0.000000000               0.000000000               0.000000000               0.000000000               0.000688524               0.004582749              -0.000051036              -0.000314646               0.001632450               0.001317803               0.000000000               0.000000000               0.000000000               0.000000000               0.000603445               0.004452500              -0.000075291              -0.000330270               0.001594242               0.001263972               0.000000000               0.000000000               0.000000000               0.000000000               0.000523990               0.004360444              -0.000088667              -0.000348558               0.001569653               0.001221095               0.000000000               0.000000000               0.000000000               0.000000000               0.000449304               0.004297302              -0.000096746              -0.000368673               0.001555311               0.001186638               0.000000000               0.000000000               0.000000000               0.000000000               0.000380899               0.004254479              -0.000099729              -0.000388972               0.001547803               0.001158831               0.000000000               0.000000000               0.000000000               0.000000000               0.000315734               0.004222717              -0.000095700              -0.000409438               0.001544038               0.001134599               0.000000000               0.000000000               0.000000000               0.000000000               0.000255099               0.004200776              -0.000089174              -0.000429434               0.001543389               0.001113955               0.000000000               0.000000000               0.000000000               0.000000000               0.000201688               0.004189437              -0.000080943              -0.000448045               0.001545813               0.001097768               0.000000000               0.000000000               0.000000000               0.000000000               0.000150550               0.004188794              -0.000069188              -0.000467142               0.001551965               0.001084823               0.000000000               0.000000000               0.000000000               0.000000000               0.000099484               0.004199504              -0.000053516              -0.000487630               0.001562364               0.001074734               0.000000000               0.000000000               0.000000000               0.000000000               0.000049353               0.004226509              -0.000030034              -0.000509805               0.001578757               0.001068952               0.000000000               0.000000000               0.000000000               0.000000000               0.000031751               0.004257881              -0.000012109              -0.000520327               0.001592722               0.001072395               0.000000000               0.000000000               0.000000000               0.000000000               0.001232160               0.006675028               0.001952558              -0.000372319               0.002349093               0.001976774               0.000000000               0.000000000               0.000000000               0.000000000               0.000878872               0.005792407               0.001230108              -0.000394474               0.002062274               0.001667800               0.000000000               0.000000000               0.000000000               0.000000000               0.000756916               0.005249070               0.000507871              -0.000372289               0.001873769               0.001501479               0.000000000               0.000000000               0.000000000               0.000000000               0.000652306               0.004916509               0.000208163              -0.000369948               0.001762136               0.001392188               0.000000000               0.000000000               0.000000000               0.000000000               0.000572845               0.004694523               0.000075373              -0.000371998               0.001688825               0.001316827               0.000000000               0.000000000               0.000000000               0.000000000               0.000504863               0.004541066               0.000014715              -0.000378309               0.001639777               0.001261468               0.000000000               0.000000000               0.000000000               0.000000000               0.000442292               0.004433001              -0.000014369              -0.000388265               0.001607074               0.001218809               0.000000000               0.000000000               0.000000000               0.000000000               0.000388238               0.004355232              -0.000031133              -0.000398814               0.001584667               0.001185854               0.000000000               0.000000000               0.000000000               0.000000000               0.000341060               0.004299716              -0.000043929              -0.000409566               0.001569746               0.001160180               0.000000000               0.000000000               0.000000000               0.000000000               0.000296486               0.004258952              -0.000049458              -0.000421186               0.001560032               0.001138846               0.000000000               0.000000000               0.000000000               0.000000000               0.000250207               0.004229609              -0.000046081              -0.000434872               0.001554813               0.001119941               0.000000000               0.000000000               0.000000000               0.000000000               0.000204493               0.004212373              -0.000038780              -0.000449860               0.001554064               0.001104203               0.000000000               0.000000000               0.000000000               0.000000000               0.000161134               0.004204563              -0.000030346              -0.000465144               0.001556555               0.001091411               0.000000000               0.000000000               0.000000000               0.000000000               0.000119762               0.004206696              -0.000021403              -0.000480925               0.001562526               0.001081601               0.000000000               0.000000000               0.000000000               0.000000000               0.000079090               0.004219909              -0.000013458              -0.000497829               0.001572565               0.001074736               0.000000000               0.000000000               0.000000000               0.000000000               0.000039725               0.004244223              -0.000005738              -0.000515630               0.001586603               0.001070974               0.000000000               0.000000000               0.000000000               0.000000000               0.000026592               0.004269698               0.000001661              -0.000523739               0.001597798               0.001074059               0.000000000               0.000000000               0.000000000               0.000000000               0.001335226               0.005747164               0.002079749              -0.000217687               0.001988264               0.001770577               0.000000000               0.000000000               0.000000000               0.000000000               0.000853156               0.005187834               0.001349288              -0.000328546               0.001838776               0.001510230               0.000000000               0.000000000               0.000000000               0.000000000               0.000587288               0.004939622               0.000616125              -0.000397219               0.001778930               0.001381711               0.000000000               0.000000000               0.000000000               0.000000000               0.000460162               0.004736470               0.000315395              -0.000419497               0.001718640               0.001299143               0.000000000               0.000000000               0.000000000               0.000000000               0.000394951               0.004581016               0.000178545              -0.000424519               0.001668496               0.001243977               0.000000000               0.000000000               0.000000000               0.000000000               0.000352267               0.004468030               0.000111901              -0.000426403               0.001631463               0.001205060               0.000000000               0.000000000               0.000000000               0.000000000               0.000314903               0.004387579               0.000079117              -0.000430358               0.001605964               0.001175607               0.000000000               0.000000000               0.000000000               0.000000000               0.000284684               0.004324007               0.000058697              -0.000433743               0.001585902               0.001152159               0.000000000               0.000000000               0.000000000               0.000000000               0.000259200               0.004271891               0.000040342              -0.000436785               0.001569545               0.001132759               0.000000000               0.000000000               0.000000000               0.000000000               0.000231625               0.004232243               0.000029078              -0.000442170               0.001558124               0.001115954               0.000000000               0.000000000               0.000000000               0.000000000               0.000195871               0.004202891               0.000026111              -0.000451909               0.001551586               0.001099677               0.000000000               0.000000000               0.000000000               0.000000000               0.000157627               0.004183109               0.000028250              -0.000463777               0.001548948               0.001085171               0.000000000               0.000000000               0.000000000               0.000000000               0.000118818               0.004168897               0.000030075              -0.000476554               0.001548470               0.001071915               0.000000000               0.000000000               0.000000000               0.000000000               0.000081207               0.004160617               0.000027156              -0.000489623               0.001550066               0.001060443               0.000000000               0.000000000               0.000000000               0.000000000               0.000048359               0.004158527               0.000019424              -0.000501680               0.001553388               0.001051709               0.000000000               0.000000000               0.000000000               0.000000000               0.000022435               0.004157993               0.000010207              -0.000511335               0.001556429               0.001045094               0.000000000               0.000000000               0.000000000               0.000000000               0.000011335               0.004156188               0.000005451              -0.000515272               0.001557139               0.001041868               0.000000000               0.000000000               0.000000000               0.000000000               0.001371782               0.004819161               0.002060411              -0.000087979               0.001635697               0.001547717               0.000000000               0.000000000               0.000000000               0.000000000               0.000806676               0.004587587               0.001397875              -0.000270945               0.001619495               0.001348550               0.000000000               0.000000000               0.000000000               0.000000000               0.000436538               0.004623624               0.000719718              -0.000414251               0.001679276               0.001265025               0.000000000               0.000000000               0.000000000               0.000000000               0.000312375               0.004542796               0.000435156              -0.000450708               0.001664486               0.001213778               0.000000000               0.000000000               0.000000000               0.000000000               0.000269495               0.004450073               0.000298490              -0.000455197               0.001635075               0.001179878               0.000000000               0.000000000               0.000000000               0.000000000               0.000249411               0.004373289               0.000222358              -0.000453131               0.001608792               0.001155661               0.000000000               0.000000000               0.000000000               0.000000000               0.000234498               0.004315669               0.000179995              -0.000451521               0.001589049               0.001137528               0.000000000               0.000000000               0.000000000               0.000000000               0.000220347               0.004261825               0.000154041              -0.000450097               0.001570626               0.001120529               0.000000000               0.000000000               0.000000000               0.000000000               0.000201434               0.004211018               0.000126826              -0.000450838               0.001553938               0.001103100               0.000000000               0.000000000               0.000000000               0.000000000               0.000177658               0.004170567               0.000104109              -0.000454698               0.001541741               0.001087043               0.000000000               0.000000000               0.000000000               0.000000000               0.000145763               0.004135877               0.000089545              -0.000462322               0.001532719               0.001070397               0.000000000               0.000000000               0.000000000               0.000000000               0.000109191               0.004105696               0.000079009              -0.000472264               0.001525973               0.001053709               0.000000000               0.000000000               0.000000000               0.000000000               0.000073423               0.004079427               0.000067705              -0.000482393               0.001520593               0.001038200               0.000000000               0.000000000               0.000000000               0.000000000               0.000040092               0.004055803               0.000050286              -0.000491940               0.001515901               0.001023961               0.000000000               0.000000000               0.000000000               0.000000000               0.000014970               0.004032245               0.000029186              -0.000498416               0.001510207               0.001011791               0.000000000               0.000000000               0.000000000               0.000000000               0.000002594               0.004003988               0.000011422              -0.000499525               0.001501158               0.001001633               0.000000000               0.000000000               0.000000000               0.000000000              -0.000004432               0.003979764               0.000001449              -0.000499131               0.001492952               0.000993821               0.000000000               0.000000000               0.000000000               0.000000000               0.001341374               0.003944799               0.001924437               0.000009913               0.001311615               0.001321528               0.000000000               0.000000000               0.000000000               0.000000000               0.000745139               0.004027282               0.001391692              -0.000223984               0.001417075               0.001193091               0.000000000               0.000000000               0.000000000               0.000000000               0.000323615               0.004316540               0.000819683              -0.000418211               0.001578236               0.001160025               0.000000000               0.000000000               0.000000000               0.000000000               0.000219952               0.004341532               0.000555032              -0.000460209               0.001600566               0.001140357               0.000000000               0.000000000               0.000000000               0.000000000               0.000200886               0.004306520               0.000414414              -0.000462982               0.001589820               0.001126838               0.000000000               0.000000000               0.000000000               0.000000000               0.000197499               0.004262945               0.000325317              -0.000458805               0.001573902               0.001115097               0.000000000               0.000000000               0.000000000               0.000000000               0.000190921               0.004214823               0.000267254              -0.000455256               0.001556679               0.001101423               0.000000000               0.000000000               0.000000000               0.000000000               0.000180413               0.004164921               0.000230944              -0.000452959               0.001539279               0.001086320               0.000000000               0.000000000               0.000000000               0.000000000               0.000162061               0.004120501               0.000194804              -0.000454289               0.001524916               0.001070627               0.000000000               0.000000000               0.000000000               0.000000000               0.000133374               0.004077938               0.000159854              -0.000459726               0.001512541               0.001052815               0.000000000               0.000000000               0.000000000               0.000000000               0.000099454               0.004034747               0.000131574              -0.000467047               0.001500585               0.001033537               0.000000000               0.000000000               0.000000000               0.000000000               0.000062989               0.003991564               0.000106085              -0.000475324               0.001488949               0.001013626               0.000000000               0.000000000               0.000000000               0.000000000               0.000025756               0.003949251               0.000081053              -0.000483997               0.001477736               0.000993739               0.000000000               0.000000000               0.000000000               0.000000000              -0.000005488               0.003906398               0.000052663              -0.000490357               0.001465572               0.000975215               0.000000000               0.000000000               0.000000000               0.000000000              -0.000022122               0.003861017               0.000025958              -0.000490922               0.001450633               0.000959712               0.000000000               0.000000000               0.000000000               0.000000000              -0.000019708               0.003812219               0.000007435              -0.000483917               0.001432033               0.000948116               0.000000000               0.000000000               0.000000000               0.000000000              -0.000017409               0.003777407              -0.000002645              -0.000478703               0.001418691               0.000939988               0.000000000               0.000000000               0.000000000               0.000000000               0.001272482               0.003186701               0.001714303               0.000078840               0.001035942               0.001114783               0.000000000               0.000000000               0.000000000               0.000000000               0.000699043               0.003525697               0.001357975              -0.000178572               0.001234744               0.001056172               0.000000000               0.000000000               0.000000000               0.000000000               0.000268586               0.004027745               0.000929767              -0.000402748               0.001476817               0.001074069               0.000000000               0.000000000               0.000000000               0.000000000               0.000185097               0.004152684               0.000678155              -0.000449673               0.001534105               0.001084432               0.000000000               0.000000000               0.000000000               0.000000000               0.000180586               0.004173770               0.000525947              -0.000454000               0.001542576               0.001088576               0.000000000               0.000000000               0.000000000               0.000000000               0.000183108               0.004159529               0.000422464              -0.000451275               0.001536921               0.001085646               0.000000000               0.000000000               0.000000000               0.000000000               0.000175486               0.004121601               0.000347602              -0.000449392               0.001523650               0.001074259               0.000000000               0.000000000               0.000000000               0.000000000               0.000160571               0.004077995               0.000294952              -0.000449534               0.001509163               0.001059629               0.000000000               0.000000000               0.000000000               0.000000000               0.000139105               0.004043249               0.000251398              -0.000453240               0.001498816               0.001045576               0.000000000               0.000000000               0.000000000               0.000000000               0.000111174               0.004003924               0.000210522              -0.000458799               0.001487561               0.001028762               0.000000000               0.000000000               0.000000000               0.000000000               0.000077457               0.003956724               0.000171820              -0.000465543               0.001474076               0.001008533               0.000000000               0.000000000               0.000000000               0.000000000               0.000037653               0.003903648               0.000134121              -0.000473835               0.001459148               0.000985313               0.000000000               0.000000000               0.000000000               0.000000000              -0.000003771               0.003848325               0.000098293              -0.000482454               0.001443580               0.000961126               0.000000000               0.000000000               0.000000000               0.000000000              -0.000041777               0.003790817               0.000063579              -0.000489517               0.001426765               0.000937248               0.000000000               0.000000000               0.000000000               0.000000000              -0.000068019               0.003727998               0.000033321              -0.000491506               0.001406489               0.000914983               0.000000000               0.000000000               0.000000000               0.000000000              -0.000076996               0.003662059               0.000011391              -0.000486630               0.001382884               0.000896254               0.000000000               0.000000000               0.000000000               0.000000000              -0.000077516               0.003621493               0.000000540              -0.000481754               0.001367737               0.000885983               0.000000000               0.000000000               0.000000000               0.000000000               0.001149737               0.002458137               0.001471793               0.000123881               0.000778076               0.000901958               0.000000000               0.000000000               0.000000000               0.000000000               0.000680966               0.002942847               0.001312484              -0.000112495               0.001018437               0.000905942               0.000000000               0.000000000               0.000000000               0.000000000               0.000282281               0.003594666               0.001056113              -0.000343478               0.001312703               0.000969225               0.000000000               0.000000000               0.000000000               0.000000000               0.000201351               0.003843105               0.000824966              -0.000404881               0.001415982               0.001011101               0.000000000               0.000000000               0.000000000               0.000000000               0.000198572               0.003943642               0.000657743              -0.000418490               0.001454031               0.001035541               0.000000000               0.000000000               0.000000000               0.000000000               0.000198722               0.003977764               0.000534389              -0.000422699               0.001466808               0.001044109               0.000000000               0.000000000               0.000000000               0.000000000               0.000187955               0.003977115               0.000441505              -0.000426655               0.001467910               0.001041255               0.000000000               0.000000000               0.000000000               0.000000000               0.000172643               0.003958346               0.000373502              -0.000430051               0.001462786               0.001032735               0.000000000               0.000000000               0.000000000               0.000000000               0.000153605               0.003933503               0.000322066              -0.000434085               0.001455850               0.001021764               0.000000000               0.000000000               0.000000000               0.000000000               0.000124297               0.003903971               0.000275299              -0.000441384               0.001448438               0.001007055               0.000000000               0.000000000               0.000000000               0.000000000               0.000088335               0.003866616               0.000227441              -0.000450200               0.001438926               0.000988726               0.000000000               0.000000000               0.000000000               0.000000000               0.000044821               0.003818258               0.000180928              -0.000460473               0.001426231               0.000965758               0.000000000               0.000000000               0.000000000               0.000000000              -0.000004190               0.003764156               0.000136541              -0.000472090               0.001412069               0.000939980               0.000000000               0.000000000               0.000000000               0.000000000              -0.000057677               0.003708388               0.000093345              -0.000485176               0.001397843               0.000912666               0.000000000               0.000000000               0.000000000               0.000000000              -0.000111057               0.003651239               0.000055374              -0.000498050               0.001383084               0.000885034               0.000000000               0.000000000               0.000000000               0.000000000              -0.000157506               0.003589101               0.000024101              -0.000507701               0.001365589               0.000857887               0.000000000               0.000000000               0.000000000               0.000000000              -0.000183077               0.003548854               0.000006802              -0.000512259               0.001353693               0.000841433               0.000000000               0.000000000               0.000000000               0.000000000               0.000944725               0.001778897               0.001201754               0.000131907               0.000548990               0.000680897               0.000000000               0.000000000               0.000000000               0.000000000               0.000656218               0.002357841               0.001228542              -0.000048650               0.000802155               0.000753505               0.000000000               0.000000000               0.000000000               0.000000000               0.000340888               0.003102035               0.001147911              -0.000259922               0.001120642               0.000860720               0.000000000               0.000000000               0.000000000               0.000000000               0.000260325               0.003466646               0.000962633              -0.000335709               0.001267440               0.000931731               0.000000000               0.000000000               0.000000000               0.000000000               0.000247072               0.003660240               0.000791269              -0.000364877               0.001341694               0.000976816               0.000000000               0.000000000               0.000000000               0.000000000               0.000243998               0.003760603               0.000654573              -0.000378575               0.001379713               0.001001138               0.000000000               0.000000000               0.000000000               0.000000000               0.000234606               0.003808037               0.000550638              -0.000388027               0.001398675               0.001010649               0.000000000               0.000000000               0.000000000               0.000000000               0.000218331               0.003822980               0.000472866              -0.000395998               0.001406313               0.001010315               0.000000000               0.000000000               0.000000000               0.000000000               0.000199573               0.003825384               0.000410383              -0.000403332               0.001409559               0.001006227               0.000000000               0.000000000               0.000000000               0.000000000               0.000172352               0.003818770               0.000355042              -0.000412713               0.001410482               0.000997768               0.000000000               0.000000000               0.000000000               0.000000000               0.000136310               0.003797437               0.000302731              -0.000423562               0.001406987               0.000983425               0.000000000               0.000000000               0.000000000               0.000000000               0.000093103               0.003763132               0.000251169              -0.000435477               0.001399524               0.000964047               0.000000000               0.000000000               0.000000000               0.000000000               0.000038940               0.003720055               0.000197261              -0.000450403               0.001390140               0.000939737               0.000000000               0.000000000               0.000000000               0.000000000              -0.000027156               0.003675039               0.000140862              -0.000469562               0.001381521               0.000911959               0.000000000               0.000000000               0.000000000               0.000000000              -0.000103834               0.003628460               0.000088788              -0.000492494               0.001373639               0.000881145               0.000000000               0.000000000               0.000000000               0.000000000              -0.000188397               0.003577972               0.000041389              -0.000517894               0.001365277               0.000847383               0.000000000               0.000000000               0.000000000               0.000000000              -0.000246237               0.003540088               0.000012120              -0.000534848               0.001358300               0.000823452               0.000000000               0.000000000               0.000000000               0.000000000               0.000669314               0.001192734               0.000914733               0.000101899               0.000363607               0.000465506               0.000000000               0.000000000               0.000000000               0.000000000               0.000594932               0.001800496               0.001089064              -0.000001964               0.000600813               0.000598849               0.000000000               0.000000000               0.000000000               0.000000000               0.000415021               0.002562695               0.001157514              -0.000164705               0.000909124               0.000744420               0.000000000               0.000000000               0.000000000               0.000000000               0.000356366               0.003016625               0.001034945              -0.000243441               0.001086678               0.000843237               0.000000000               0.000000000               0.000000000               0.000000000               0.000337151               0.003300233               0.000882849              -0.000286098               0.001195432               0.000909335               0.000000000               0.000000000               0.000000000               0.000000000               0.000331847               0.003473363               0.000749516              -0.000309728               0.001261019               0.000951291               0.000000000               0.000000000               0.000000000               0.000000000               0.000320106               0.003574816               0.000642048              -0.000326812               0.001300531               0.000973719               0.000000000               0.000000000               0.000000000               0.000000000               0.000297540               0.003638257               0.000556247              -0.000343204               0.001327142               0.000983937               0.000000000               0.000000000               0.000000000               0.000000000               0.000271658               0.003681863               0.000486908              -0.000358360               0.001346729               0.000988369               0.000000000               0.000000000               0.000000000               0.000000000               0.000244787               0.003700966               0.000427089              -0.000370825               0.001357251               0.000986426               0.000000000               0.000000000               0.000000000               0.000000000               0.000209819               0.003699841               0.000370482              -0.000383797               0.001361200               0.000977403               0.000000000               0.000000000               0.000000000               0.000000000               0.000167448               0.003689741               0.000313017              -0.000398424               0.001362709               0.000964285               0.000000000               0.000000000               0.000000000               0.000000000               0.000113653               0.003669961               0.000250750              -0.000416124               0.001362016               0.000945892               0.000000000               0.000000000               0.000000000               0.000000000               0.000046644               0.003639483               0.000185280              -0.000437443               0.001358963               0.000921520               0.000000000               0.000000000               0.000000000               0.000000000              -0.000033954               0.003603650               0.000120506              -0.000463188               0.001355601               0.000892413               0.000000000               0.000000000               0.000000000               0.000000000              -0.000128981               0.003566161               0.000057774              -0.000494137               0.001353421               0.000859284               0.000000000               0.000000000               0.000000000               0.000000000              -0.000200629               0.003532904               0.000019835              -0.000516848               0.001349905               0.000833058               0.000000000               0.000000000               0.000000000               0.000000000               0.000348419               0.000729031               0.000637796               0.000039527               0.000229832               0.000269359               0.000000000               0.000000000               0.000000000               0.000000000               0.000503719               0.001299517               0.000903324               0.000026453               0.000424350               0.000450803               0.000000000               0.000000000               0.000000000               0.000000000               0.000491359               0.002021483               0.001074935              -0.000068427               0.000696629               0.000628203               0.000000000               0.000000000               0.000000000               0.000000000               0.000475875               0.002529062               0.001015240              -0.000137681               0.000888905               0.000751225               0.000000000               0.000000000               0.000000000               0.000000000               0.000464661               0.002882988               0.000902609              -0.000186126               0.001023028               0.000836902               0.000000000               0.000000000               0.000000000               0.000000000               0.000456074               0.003125490               0.000787323              -0.000219658               0.001115039               0.000895380               0.000000000               0.000000000               0.000000000               0.000000000               0.000433806               0.003288431               0.000682617              -0.000248376               0.001178925               0.000930548               0.000000000               0.000000000               0.000000000               0.000000000               0.000402509               0.003406874               0.000597895              -0.000274918               0.001227253               0.000952335               0.000000000               0.000000000               0.000000000               0.000000000               0.000370607               0.003491546               0.000532073              -0.000297465               0.001262992               0.000965527               0.000000000               0.000000000               0.000000000               0.000000000               0.000338689               0.003540795               0.000472396              -0.000315590               0.001285450               0.000969860               0.000000000               0.000000000               0.000000000               0.000000000               0.000301982               0.003573318               0.000412681              -0.000333421               0.001302234               0.000968813               0.000000000               0.000000000               0.000000000               0.000000000               0.000260710               0.003597896               0.000352214              -0.000351970               0.001316610               0.000964640               0.000000000               0.000000000               0.000000000               0.000000000               0.000212415               0.003604930               0.000287564              -0.000370960               0.001325284               0.000954325               0.000000000               0.000000000               0.000000000               0.000000000               0.000156745               0.003595387               0.000219602              -0.000390643               0.001328665               0.000938022               0.000000000               0.000000000               0.000000000               0.000000000               0.000091176               0.003576350               0.000149814              -0.000412852               0.001329722               0.000916870               0.000000000               0.000000000               0.000000000               0.000000000               0.000012357               0.003553811               0.000076462              -0.000439591               0.001331122               0.000891531               0.000000000               0.000000000               0.000000000               0.000000000              -0.000052415               0.003530051               0.000031806              -0.000460911               0.001330309               0.000869398               0.000000000               0.000000000               0.000000000               0.000000000               0.000022633               0.000395116               0.000400046              -0.000040903               0.000145338               0.000104435               0.000000000               0.000000000               0.000000000               0.000000000               0.000394786               0.000886150               0.000685638               0.000037275               0.000282955               0.000320230               0.000000000               0.000000000               0.000000000               0.000000000               0.000560717               0.001527223               0.000900437               0.000019365               0.000502614               0.000521978               0.000000000               0.000000000               0.000000000               0.000000000               0.000606106               0.002053476               0.000891965              -0.000029396               0.000694283               0.000664888               0.000000000               0.000000000               0.000000000               0.000000000               0.000612998               0.002458411               0.000822632              -0.000077428               0.000845271               0.000767843               0.000000000               0.000000000               0.000000000               0.000000000               0.000599716               0.002759576               0.000734320              -0.000120054               0.000959867               0.000839813               0.000000000               0.000000000               0.000000000               0.000000000               0.000568291               0.002979906               0.000644897              -0.000159379               0.001046418               0.000887039               0.000000000               0.000000000               0.000000000               0.000000000               0.000528025               0.003146487               0.000573243              -0.000195301               0.001113919               0.000918618               0.000000000               0.000000000               0.000000000               0.000000000               0.000484669               0.003268891               0.000518737              -0.000226860               0.001165239               0.000938379               0.000000000               0.000000000               0.000000000               0.000000000               0.000440993               0.003356383               0.000465842              -0.000254175               0.001203508               0.000949333               0.000000000               0.000000000               0.000000000               0.000000000               0.000399750               0.003427358               0.000409190              -0.000278513               0.001235279               0.000956766               0.000000000               0.000000000               0.000000000               0.000000000               0.000359512               0.003485897               0.000352753              -0.000300919               0.001262260               0.000961341               0.000000000               0.000000000               0.000000000               0.000000000               0.000320153               0.003524589               0.000294715              -0.000320516               0.001281690               0.000961174               0.000000000               0.000000000               0.000000000               0.000000000               0.000282605               0.003544454               0.000234368              -0.000337079               0.001293832               0.000956753               0.000000000               0.000000000               0.000000000               0.000000000               0.000245127               0.003547470               0.000169654              -0.000351510               0.001299648               0.000948138               0.000000000               0.000000000               0.000000000               0.000000000               0.000199739               0.003539542               0.000092381              -0.000367540               0.001302349               0.000934809               0.000000000               0.000000000               0.000000000               0.000000000               0.000160447               0.003526990               0.000045172              -0.000380705               0.001302553               0.000921848               0.000000000               0.000000000               0.000000000               0.000000000              -0.000264098               0.000182542               0.000221040              -0.000121855               0.000101464              -0.000020390               0.000000000               0.000000000               0.000000000               0.000000000               0.000285365               0.000584573               0.000455944               0.000033939               0.000183542               0.000217482               0.000000000               0.000000000               0.000000000               0.000000000               0.000615093               0.001131363               0.000647582               0.000089238               0.000347371               0.000436609               0.000000000               0.000000000               0.000000000               0.000000000               0.000725315               0.001651096               0.000667123               0.000065605               0.000528492               0.000594096               0.000000000               0.000000000               0.000000000               0.000000000               0.000749047               0.002089268               0.000632058               0.000019733               0.000689838               0.000709571               0.000000000               0.000000000               0.000000000               0.000000000               0.000733310               0.002434109               0.000574166              -0.000029273               0.000821119               0.000791846               0.000000000               0.000000000               0.000000000               0.000000000               0.000698953               0.002695560               0.000511054              -0.000074838               0.000923457               0.000848619               0.000000000               0.000000000               0.000000000               0.000000000               0.000653589               0.002897961               0.000460314              -0.000117149               0.001005027               0.000887878               0.000000000               0.000000000               0.000000000               0.000000000               0.000600527               0.003056719               0.000421736              -0.000156892               0.001071193               0.000914301               0.000000000               0.000000000               0.000000000               0.000000000               0.000545356               0.003179367               0.000383097              -0.000192912               0.001124082               0.000931170               0.000000000               0.000000000               0.000000000               0.000000000               0.000498879               0.003281083               0.000339496              -0.000223055               0.001168035               0.000944980               0.000000000               0.000000000               0.000000000               0.000000000               0.000460581               0.003366932               0.000295612              -0.000248148               0.001205016               0.000956867               0.000000000               0.000000000               0.000000000               0.000000000               0.000430807               0.003433125               0.000251554              -0.000267587               0.001233559               0.000965972               0.000000000               0.000000000               0.000000000               0.000000000               0.000411114               0.003481387               0.000206821              -0.000281005               0.001254119               0.000973114               0.000000000               0.000000000               0.000000000               0.000000000               0.000399862               0.003510432               0.000156097              -0.000288855               0.001266417               0.000977562               0.000000000               0.000000000               0.000000000               0.000000000               0.000395783               0.003524277               0.000088181              -0.000292115               0.001272119               0.000980004               0.000000000               0.000000000               0.000000000               0.000000000               0.000395733               0.003527267               0.000047707              -0.000292508               0.001273247               0.000980739               0.000000000               0.000000000               0.000000000               0.000000000              -0.000460038               0.000066029               0.000094340              -0.000180768               0.000082265              -0.000098503               0.000000000               0.000000000               0.000000000               0.000000000               0.000204858               0.000400478               0.000225854               0.000026761               0.000124571               0.000151332               0.000000000               0.000000000               0.000000000               0.000000000               0.000649713               0.000874580               0.000338598               0.000134319               0.000246751               0.000381069               0.000000000               0.000000000               0.000000000               0.000000000               0.000808775               0.001381092               0.000357780               0.000130653               0.000416809               0.000547461               0.000000000               0.000000000               0.000000000               0.000000000               0.000846209               0.001837702               0.000344118               0.000087614               0.000583356               0.000670971               0.000000000               0.000000000               0.000000000               0.000000000               0.000828367               0.002208665               0.000316509               0.000034554               0.000724696               0.000759250               0.000000000               0.000000000               0.000000000               0.000000000               0.000791269               0.002492339               0.000284380              -0.000014817               0.000835710               0.000820894               0.000000000               0.000000000               0.000000000               0.000000000               0.000746572               0.002715669               0.000257847              -0.000059494               0.000925045               0.000865551               0.000000000               0.000000000               0.000000000               0.000000000               0.000694108               0.002898157               0.000237719              -0.000101979               0.001000036               0.000898057               0.000000000               0.000000000               0.000000000               0.000000000               0.000637282               0.003044746               0.000217922              -0.000141612               0.001062109               0.000920497               0.000000000               0.000000000               0.000000000               0.000000000               0.000588003               0.003166023               0.000194294              -0.000175251               0.001113747               0.000938496               0.000000000               0.000000000               0.000000000               0.000000000               0.000551589               0.003268016               0.000169778              -0.000201656               0.001156546               0.000954891               0.000000000               0.000000000               0.000000000               0.000000000               0.000528015               0.003350038               0.000146464              -0.000220749               0.001190251               0.000969502               0.000000000               0.000000000               0.000000000               0.000000000               0.000519207               0.003417027               0.000121528              -0.000232425               0.001216473               0.000984048               0.000000000               0.000000000               0.000000000               0.000000000               0.000525839               0.003469415               0.000092377              -0.000236487               0.001235289               0.000998802               0.000000000               0.000000000               0.000000000               0.000000000               0.000553744               0.003505314               0.000052431              -0.000230510               0.001245263               0.001014753               0.000000000               0.000000000               0.000000000               0.000000000               0.000586659               0.003522589               0.000028860              -0.000220326               0.001247627               0.001027301               0.000000000               0.000000000               0.000000000               0.000000000               0.000000000               0.000000000               0.000000000               0.000000000               0.000000000               0.000000000               0.000000000               0.000000000               0.000000000               0.000000000               0.000000000               0.000000000               0.000000000               0.000000000               0.000000000               0.000000000               0.000000000               0.000000000               0.000000000               0.000000000               0.000000000               0.000000000               0.000000000               0.000000000               0.000000000               0.000000000               0.000000000               0.000000000               0.000000000               0.000000000               0.000000000               0.000000000               0.000000000               0.000000000               0.000000000               0.000000000               0.000000000               0.000000000               0.000000000               0.000000000               0.000000000               0.000000000               0.000000000               0.000000000               0.000000000               0.000000000               0.000000000               0.000000000               0.000000000               0.000000000               0.000000000               0.000000000               0.000000000               0.000000000               0.000000000               0.000000000               0.000000000               0.000000000               0.000000000               0.000000000               0.000000000               0.000000000               0.000000000               0.000000000               0.000000000               0.000000000               0.000000000               0.000000000               0.000000000               0.000000000               0.000000000               0.000000000               0.000000000               0.000000000               0.000000000               0.000000000               0.000000000               0.000000000               0.000000000               0.000000000               0.000000000               0.000000000               0.000000000               0.000000000               0.000000000               0.000000000               0.000000000               0.000000000               0.000000000               0.000000000               0.000000000               0.000000000               0.000000000               0.000000000               0.000000000               0.000000000               0.000000000               0.000000000               0.000000000               0.000000000               0.000000000               0.000000000               0.000000000               0.000000000               0.000000000               0.000000000               0.000000000               0.000000000               0.000000000               0.000000000               0.000000000               0.000000000               0.000000000               0.000000000               0.000000000               0.000000000               0.000000000               0.000000000               0.000000000               0.000000000               0.000000000               0.000000000               0.000000000               0.000000000               0.000000000               0.000000000               0.000000000               0.000000000               0.000000000               0.000000000               0.000000000               0.000000000               0.000000000               0.000000000               0.000000000               0.000000000               0.000000000               0.000000000               0.000000000               0.000000000               0.000000000               0.000000000               0.000000000               0.000000000               0.000000000               0.000000000               0.000000000               0.000000000               0.000000000               0.000000000               0.000000000               0.000000000               0.000000000               0.000000000               0.000000000               0.000000000               0.000000000               0.000000000               0.000000000               0.000000000               0.000000000               0.000000000               0.000000000               0.000000000               0.000000000               0.000000000               0.000000000               0.000000000               0.000000000               0.000000000 </DataArray>
</PointData>
</Piece>
</UnstructuredGrid> </VTKFile>
