<?xml version="1.0"?>
<VTKFile type="UnstructuredGrid" version="0.1">
<UnstructuredGrid>
<Piece NumberOfPoints="      1156" NumberOfCells="      1024">
<Points>
<DataArray type="Float64"                                    Name="coordinates"                                                      NumberOfComponents=" 3" format="ascii">
              0.133000000               0.000000000               0.000000000               0.155937500               0.000000000               0.000000000               0.178875000               0.000000000               0.000000000               0.201812500               0.000000000               0.000000000               0.224750000               0.000000000               0.000000000               0.247687500               0.000000000               0.000000000               0.270625000               0.000000000               0.000000000               0.293562500               0.000000000               0.000000000               0.316500000               0.000000000               0.000000000               0.339437500               0.000000000               0.000000000               0.362375000               0.000000000               0.000000000               0.385312500               0.000000000               0.000000000               0.408250000               0.000000000               0.000000000               0.431187500               0.000000000               0.000000000               0.454125000               0.000000000               0.000000000               0.477062500               0.000000000               0.000000000               0.500000000               0.000000000               0.000000000               0.132359569               0.013036280               0.000000000               0.155337096               0.016127762               0.000000000               0.178314623               0.019219245               0.000000000               0.201292150               0.022310727               0.000000000               0.224269676               0.025402210               0.000000000               0.247247203               0.028493692               0.000000000               0.270224730               0.031585175               0.000000000               0.293202257               0.034676657               0.000000000               0.316179784               0.037768140               0.000000000               0.339157311               0.040859622               0.000000000               0.362134838               0.043951105               0.000000000               0.385112365               0.047042587               0.000000000               0.408089892               0.050134070               0.000000000               0.431067419               0.053225552               0.000000000               0.454044946               0.056317035               0.000000000               0.477022473               0.059408517               0.000000000               0.500000000               0.062500000               0.000000000               0.130444442               0.025947013               0.000000000               0.153541665               0.032137825               0.000000000               0.176638887               0.038328636               0.000000000               0.199736109               0.044519448               0.000000000               0.222833332               0.050710260               0.000000000               0.245930554               0.056901071               0.000000000               0.269027776               0.063091883               0.000000000               0.292124999               0.069282695               0.000000000               0.315222221               0.075473506               0.000000000               0.338319444               0.081664318               0.000000000               0.361416666               0.087855130               0.000000000               0.384513888               0.094045942               0.000000000               0.407611111               0.100236753               0.000000000               0.430708333               0.106427565               0.000000000               0.453805555               0.112618377               0.000000000               0.476902778               0.118809188               0.000000000               0.500000000               0.125000000               0.000000000               0.127273065               0.038607862               0.000000000               0.150568498               0.047913621               0.000000000               0.173863932               0.057219379               0.000000000               0.197159365               0.066525138               0.000000000               0.220454798               0.075830897               0.000000000               0.243750232               0.085136655               0.000000000               0.267045665               0.094442414               0.000000000               0.290341099               0.103748172               0.000000000               0.313636532               0.113053931               0.000000000               0.336931966               0.122359690               0.000000000               0.360227399               0.131665448               0.000000000               0.383522833               0.140971207               0.000000000               0.406818266               0.150276966               0.000000000               0.430113700               0.159582724               0.000000000               0.453409133               0.168888483               0.000000000               0.476704567               0.178194241               0.000000000               0.500000000               0.187500000               0.000000000               0.122875978               0.050896897               0.000000000               0.146446229               0.063340840               0.000000000               0.170016481               0.075784784               0.000000000               0.193586732               0.088228728               0.000000000               0.217156983               0.100672672               0.000000000               0.240727235               0.113116616               0.000000000               0.264297486               0.125560560               0.000000000               0.287867738               0.138004504               0.000000000               0.311437989               0.150448448               0.000000000               0.335008240               0.162892392               0.000000000               0.358578492               0.175336336               0.000000000               0.382148743               0.187780280               0.000000000               0.405718994               0.200224224               0.000000000               0.429289246               0.212668168               0.000000000               0.452859497               0.225112112               0.000000000               0.476429749               0.237556056               0.000000000               0.500000000               0.250000000               0.000000000               0.117295528               0.062695766               0.000000000               0.141214558               0.078308531               0.000000000               0.165133587               0.093921295               0.000000000               0.189052617               0.109534060               0.000000000               0.212971646               0.125146824               0.000000000               0.236890676               0.140759589               0.000000000               0.260809705               0.156372354               0.000000000               0.284728735               0.171985118               0.000000000               0.308647764               0.187597883               0.000000000               0.332566794               0.203210648               0.000000000               0.356485823               0.218823412               0.000000000               0.380404853               0.234436177               0.000000000               0.404323882               0.250048941               0.000000000               0.428242912               0.265661706               0.000000000               0.452161941               0.281274471               0.000000000               0.476080971               0.296887235               0.000000000               0.500000000               0.312500000               0.000000000               0.110585458               0.073890841               0.000000000               0.134923867               0.092710163               0.000000000               0.159262276               0.111529486               0.000000000               0.183600685               0.130348808               0.000000000               0.207939094               0.149168131               0.000000000               0.232277503               0.167987453               0.000000000               0.256615912               0.186806776               0.000000000               0.280954320               0.205626098               0.000000000               0.305292729               0.224445420               0.000000000               0.329631138               0.243264743               0.000000000               0.353969547               0.262084065               0.000000000               0.378307956               0.280903388               0.000000000               0.402646365               0.299722710               0.000000000               0.426984773               0.318542033               0.000000000               0.451323182               0.337361355               0.000000000               0.475661591               0.356180678               0.000000000               0.500000000               0.375000000               0.000000000               0.102810390               0.084374307               0.000000000               0.127634741               0.106444663               0.000000000               0.152459092               0.128515018               0.000000000               0.177283442               0.150585374               0.000000000               0.202107793               0.172655730               0.000000000               0.226932143               0.194726086               0.000000000               0.251756494               0.216796442               0.000000000               0.276580845               0.238866798               0.000000000               0.301405195               0.260937153               0.000000000               0.326229546               0.283007509               0.000000000               0.351053896               0.305077865               0.000000000               0.375878247               0.327148221               0.000000000               0.400702598               0.349218577               0.000000000               0.425526948               0.371288933               0.000000000               0.450351299               0.393359288               0.000000000               0.475175649               0.415429644               0.000000000               0.500000000               0.437500000               0.000000000               0.094045202               0.094045202               0.000000000               0.119417377               0.119417377               0.000000000               0.144789552               0.144789552               0.000000000               0.170161727               0.170161727               0.000000000               0.195533901               0.195533901               0.000000000               0.220906076               0.220906076               0.000000000               0.246278251               0.246278251               0.000000000               0.271650426               0.271650426               0.000000000               0.297022601               0.297022601               0.000000000               0.322394776               0.322394776               0.000000000               0.347766951               0.347766951               0.000000000               0.373139126               0.373139126               0.000000000               0.398511300               0.398511300               0.000000000               0.423883475               0.423883475               0.000000000               0.449255650               0.449255650               0.000000000               0.474627825               0.474627825               0.000000000               0.500000000               0.500000000               0.000000000               0.084374307               0.102810390               0.000000000               0.106444663               0.127634741               0.000000000               0.128515018               0.152459092               0.000000000               0.150585374               0.177283442               0.000000000               0.172655730               0.202107793               0.000000000               0.194726086               0.226932143               0.000000000               0.216796442               0.251756494               0.000000000               0.238866798               0.276580845               0.000000000               0.260937153               0.301405195               0.000000000               0.283007509               0.326229546               0.000000000               0.305077865               0.351053896               0.000000000               0.327148221               0.375878247               0.000000000               0.349218577               0.400702598               0.000000000               0.371288933               0.425526948               0.000000000               0.393359288               0.450351299               0.000000000               0.415429644               0.475175649               0.000000000               0.437500000               0.500000000               0.000000000               0.073890841               0.110585458               0.000000000               0.092710163               0.134923867               0.000000000               0.111529486               0.159262276               0.000000000               0.130348808               0.183600685               0.000000000               0.149168131               0.207939094               0.000000000               0.167987453               0.232277503               0.000000000               0.186806776               0.256615912               0.000000000               0.205626098               0.280954320               0.000000000               0.224445420               0.305292729               0.000000000               0.243264743               0.329631138               0.000000000               0.262084065               0.353969547               0.000000000               0.280903388               0.378307956               0.000000000               0.299722710               0.402646365               0.000000000               0.318542033               0.426984773               0.000000000               0.337361355               0.451323182               0.000000000               0.356180678               0.475661591               0.000000000               0.375000000               0.500000000               0.000000000               0.062695766               0.117295528               0.000000000               0.078308531               0.141214558               0.000000000               0.093921295               0.165133587               0.000000000               0.109534060               0.189052617               0.000000000               0.125146824               0.212971646               0.000000000               0.140759589               0.236890676               0.000000000               0.156372354               0.260809705               0.000000000               0.171985118               0.284728735               0.000000000               0.187597883               0.308647764               0.000000000               0.203210648               0.332566794               0.000000000               0.218823412               0.356485823               0.000000000               0.234436177               0.380404853               0.000000000               0.250048941               0.404323882               0.000000000               0.265661706               0.428242912               0.000000000               0.281274471               0.452161941               0.000000000               0.296887235               0.476080971               0.000000000               0.312500000               0.500000000               0.000000000               0.050896897               0.122875978               0.000000000               0.063340840               0.146446229               0.000000000               0.075784784               0.170016481               0.000000000               0.088228728               0.193586732               0.000000000               0.100672672               0.217156983               0.000000000               0.113116616               0.240727235               0.000000000               0.125560560               0.264297486               0.000000000               0.138004504               0.287867738               0.000000000               0.150448448               0.311437989               0.000000000               0.162892392               0.335008240               0.000000000               0.175336336               0.358578492               0.000000000               0.187780280               0.382148743               0.000000000               0.200224224               0.405718994               0.000000000               0.212668168               0.429289246               0.000000000               0.225112112               0.452859497               0.000000000               0.237556056               0.476429749               0.000000000               0.250000000               0.500000000               0.000000000               0.038607862               0.127273065               0.000000000               0.047913621               0.150568498               0.000000000               0.057219379               0.173863932               0.000000000               0.066525138               0.197159365               0.000000000               0.075830897               0.220454798               0.000000000               0.085136655               0.243750232               0.000000000               0.094442414               0.267045665               0.000000000               0.103748172               0.290341099               0.000000000               0.113053931               0.313636532               0.000000000               0.122359690               0.336931966               0.000000000               0.131665448               0.360227399               0.000000000               0.140971207               0.383522833               0.000000000               0.150276966               0.406818266               0.000000000               0.159582724               0.430113700               0.000000000               0.168888483               0.453409133               0.000000000               0.178194241               0.476704567               0.000000000               0.187500000               0.500000000               0.000000000               0.025947013               0.130444442               0.000000000               0.032137825               0.153541665               0.000000000               0.038328636               0.176638887               0.000000000               0.044519448               0.199736109               0.000000000               0.050710260               0.222833332               0.000000000               0.056901071               0.245930554               0.000000000               0.063091883               0.269027776               0.000000000               0.069282695               0.292124999               0.000000000               0.075473506               0.315222221               0.000000000               0.081664318               0.338319444               0.000000000               0.087855130               0.361416666               0.000000000               0.094045942               0.384513888               0.000000000               0.100236753               0.407611111               0.000000000               0.106427565               0.430708333               0.000000000               0.112618377               0.453805555               0.000000000               0.118809188               0.476902778               0.000000000               0.125000000               0.500000000               0.000000000               0.013036280               0.132359569               0.000000000               0.016127762               0.155337096               0.000000000               0.019219245               0.178314623               0.000000000               0.022310727               0.201292150               0.000000000               0.025402210               0.224269676               0.000000000               0.028493692               0.247247203               0.000000000               0.031585175               0.270224730               0.000000000               0.034676657               0.293202257               0.000000000               0.037768140               0.316179784               0.000000000               0.040859622               0.339157311               0.000000000               0.043951105               0.362134838               0.000000000               0.047042587               0.385112365               0.000000000               0.050134070               0.408089892               0.000000000               0.053225552               0.431067419               0.000000000               0.056317035               0.454044946               0.000000000               0.059408517               0.477022473               0.000000000               0.062500000               0.500000000               0.000000000               0.000000000               0.133000000               0.000000000               0.000000000               0.155937500               0.000000000               0.000000000               0.178875000               0.000000000               0.000000000               0.201812500               0.000000000               0.000000000               0.224750000               0.000000000               0.000000000               0.247687500               0.000000000               0.000000000               0.270625000               0.000000000               0.000000000               0.293562500               0.000000000               0.000000000               0.316500000               0.000000000               0.000000000               0.339437500               0.000000000               0.000000000               0.362375000               0.000000000               0.000000000               0.385312500               0.000000000               0.000000000               0.408250000               0.000000000               0.000000000               0.431187500               0.000000000               0.000000000               0.454125000               0.000000000               0.000000000               0.477062500               0.000000000               0.000000000               0.500000000               0.000000000               0.133000000               0.000000000               0.000000000               0.155937500               0.000000000               0.000000000               0.178875000               0.000000000               0.000000000               0.201812500               0.000000000               0.000000000               0.224750000               0.000000000               0.000000000               0.247687500               0.000000000               0.000000000               0.270625000               0.000000000               0.000000000               0.293562500               0.000000000               0.000000000               0.316500000               0.000000000               0.000000000               0.339437500               0.000000000               0.000000000               0.362375000               0.000000000               0.000000000               0.385312500               0.000000000               0.000000000               0.408250000               0.000000000               0.000000000               0.431187500               0.000000000               0.000000000               0.454125000               0.000000000               0.000000000               0.477062500               0.000000000               0.000000000               0.500000000               0.000000000               0.000000000               0.132359569              -0.013036280               0.000000000               0.155337096              -0.016127762               0.000000000               0.178314623              -0.019219245               0.000000000               0.201292150              -0.022310727               0.000000000               0.224269676              -0.025402210               0.000000000               0.247247203              -0.028493692               0.000000000               0.270224730              -0.031585175               0.000000000               0.293202257              -0.034676657               0.000000000               0.316179784              -0.037768140               0.000000000               0.339157311              -0.040859622               0.000000000               0.362134838              -0.043951105               0.000000000               0.385112365              -0.047042587               0.000000000               0.408089892              -0.050134070               0.000000000               0.431067419              -0.053225552               0.000000000               0.454044946              -0.056317035               0.000000000               0.477022473              -0.059408517               0.000000000               0.500000000              -0.062500000               0.000000000               0.130444442              -0.025947013               0.000000000               0.153541665              -0.032137825               0.000000000               0.176638887              -0.038328636               0.000000000               0.199736109              -0.044519448               0.000000000               0.222833332              -0.050710260               0.000000000               0.245930554              -0.056901071               0.000000000               0.269027776              -0.063091883               0.000000000               0.292124999              -0.069282695               0.000000000               0.315222221              -0.075473506               0.000000000               0.338319444              -0.081664318               0.000000000               0.361416666              -0.087855130               0.000000000               0.384513888              -0.094045942               0.000000000               0.407611111              -0.100236753               0.000000000               0.430708333              -0.106427565               0.000000000               0.453805555              -0.112618377               0.000000000               0.476902778              -0.118809188               0.000000000               0.500000000              -0.125000000               0.000000000               0.127273065              -0.038607862               0.000000000               0.150568498              -0.047913621               0.000000000               0.173863932              -0.057219379               0.000000000               0.197159365              -0.066525138               0.000000000               0.220454798              -0.075830897               0.000000000               0.243750232              -0.085136655               0.000000000               0.267045665              -0.094442414               0.000000000               0.290341099              -0.103748172               0.000000000               0.313636532              -0.113053931               0.000000000               0.336931966              -0.122359690               0.000000000               0.360227399              -0.131665448               0.000000000               0.383522833              -0.140971207               0.000000000               0.406818266              -0.150276966               0.000000000               0.430113700              -0.159582724               0.000000000               0.453409133              -0.168888483               0.000000000               0.476704567              -0.178194241               0.000000000               0.500000000              -0.187500000               0.000000000               0.122875978              -0.050896897               0.000000000               0.146446229              -0.063340840               0.000000000               0.170016481              -0.075784784               0.000000000               0.193586732              -0.088228728               0.000000000               0.217156983              -0.100672672               0.000000000               0.240727235              -0.113116616               0.000000000               0.264297486              -0.125560560               0.000000000               0.287867738              -0.138004504               0.000000000               0.311437989              -0.150448448               0.000000000               0.335008240              -0.162892392               0.000000000               0.358578492              -0.175336336               0.000000000               0.382148743              -0.187780280               0.000000000               0.405718994              -0.200224224               0.000000000               0.429289246              -0.212668168               0.000000000               0.452859497              -0.225112112               0.000000000               0.476429749              -0.237556056               0.000000000               0.500000000              -0.250000000               0.000000000               0.117295528              -0.062695766               0.000000000               0.141214558              -0.078308531               0.000000000               0.165133587              -0.093921295               0.000000000               0.189052617              -0.109534060               0.000000000               0.212971646              -0.125146824               0.000000000               0.236890676              -0.140759589               0.000000000               0.260809705              -0.156372354               0.000000000               0.284728735              -0.171985118               0.000000000               0.308647764              -0.187597883               0.000000000               0.332566794              -0.203210648               0.000000000               0.356485823              -0.218823412               0.000000000               0.380404853              -0.234436177               0.000000000               0.404323882              -0.250048941               0.000000000               0.428242912              -0.265661706               0.000000000               0.452161941              -0.281274471               0.000000000               0.476080971              -0.296887235               0.000000000               0.500000000              -0.312500000               0.000000000               0.110585458              -0.073890841               0.000000000               0.134923867              -0.092710163               0.000000000               0.159262276              -0.111529486               0.000000000               0.183600685              -0.130348808               0.000000000               0.207939094              -0.149168131               0.000000000               0.232277503              -0.167987453               0.000000000               0.256615912              -0.186806776               0.000000000               0.280954320              -0.205626098               0.000000000               0.305292729              -0.224445420               0.000000000               0.329631138              -0.243264743               0.000000000               0.353969547              -0.262084065               0.000000000               0.378307956              -0.280903388               0.000000000               0.402646365              -0.299722710               0.000000000               0.426984773              -0.318542033               0.000000000               0.451323182              -0.337361355               0.000000000               0.475661591              -0.356180678               0.000000000               0.500000000              -0.375000000               0.000000000               0.102810390              -0.084374307               0.000000000               0.127634741              -0.106444663               0.000000000               0.152459092              -0.128515018               0.000000000               0.177283442              -0.150585374               0.000000000               0.202107793              -0.172655730               0.000000000               0.226932143              -0.194726086               0.000000000               0.251756494              -0.216796442               0.000000000               0.276580845              -0.238866798               0.000000000               0.301405195              -0.260937153               0.000000000               0.326229546              -0.283007509               0.000000000               0.351053896              -0.305077865               0.000000000               0.375878247              -0.327148221               0.000000000               0.400702598              -0.349218577               0.000000000               0.425526948              -0.371288933               0.000000000               0.450351299              -0.393359288               0.000000000               0.475175649              -0.415429644               0.000000000               0.500000000              -0.437500000               0.000000000               0.094045202              -0.094045202               0.000000000               0.119417377              -0.119417377               0.000000000               0.144789552              -0.144789552               0.000000000               0.170161727              -0.170161727               0.000000000               0.195533901              -0.195533901               0.000000000               0.220906076              -0.220906076               0.000000000               0.246278251              -0.246278251               0.000000000               0.271650426              -0.271650426               0.000000000               0.297022601              -0.297022601               0.000000000               0.322394776              -0.322394776               0.000000000               0.347766951              -0.347766951               0.000000000               0.373139126              -0.373139126               0.000000000               0.398511300              -0.398511300               0.000000000               0.423883475              -0.423883475               0.000000000               0.449255650              -0.449255650               0.000000000               0.474627825              -0.474627825               0.000000000               0.500000000              -0.500000000               0.000000000               0.084374307              -0.102810390               0.000000000               0.106444663              -0.127634741               0.000000000               0.128515018              -0.152459092               0.000000000               0.150585374              -0.177283442               0.000000000               0.172655730              -0.202107793               0.000000000               0.194726086              -0.226932143               0.000000000               0.216796442              -0.251756494               0.000000000               0.238866798              -0.276580845               0.000000000               0.260937153              -0.301405195               0.000000000               0.283007509              -0.326229546               0.000000000               0.305077865              -0.351053896               0.000000000               0.327148221              -0.375878247               0.000000000               0.349218577              -0.400702598               0.000000000               0.371288933              -0.425526948               0.000000000               0.393359288              -0.450351299               0.000000000               0.415429644              -0.475175649               0.000000000               0.437500000              -0.500000000               0.000000000               0.073890841              -0.110585458               0.000000000               0.092710163              -0.134923867               0.000000000               0.111529486              -0.159262276               0.000000000               0.130348808              -0.183600685               0.000000000               0.149168131              -0.207939094               0.000000000               0.167987453              -0.232277503               0.000000000               0.186806776              -0.256615912               0.000000000               0.205626098              -0.280954320               0.000000000               0.224445420              -0.305292729               0.000000000               0.243264743              -0.329631138               0.000000000               0.262084065              -0.353969547               0.000000000               0.280903388              -0.378307956               0.000000000               0.299722710              -0.402646365               0.000000000               0.318542033              -0.426984773               0.000000000               0.337361355              -0.451323182               0.000000000               0.356180678              -0.475661591               0.000000000               0.375000000              -0.500000000               0.000000000               0.062695766              -0.117295528               0.000000000               0.078308531              -0.141214558               0.000000000               0.093921295              -0.165133587               0.000000000               0.109534060              -0.189052617               0.000000000               0.125146824              -0.212971646               0.000000000               0.140759589              -0.236890676               0.000000000               0.156372354              -0.260809705               0.000000000               0.171985118              -0.284728735               0.000000000               0.187597883              -0.308647764               0.000000000               0.203210648              -0.332566794               0.000000000               0.218823412              -0.356485823               0.000000000               0.234436177              -0.380404853               0.000000000               0.250048941              -0.404323882               0.000000000               0.265661706              -0.428242912               0.000000000               0.281274471              -0.452161941               0.000000000               0.296887235              -0.476080971               0.000000000               0.312500000              -0.500000000               0.000000000               0.050896897              -0.122875978               0.000000000               0.063340840              -0.146446229               0.000000000               0.075784784              -0.170016481               0.000000000               0.088228728              -0.193586732               0.000000000               0.100672672              -0.217156983               0.000000000               0.113116616              -0.240727235               0.000000000               0.125560560              -0.264297486               0.000000000               0.138004504              -0.287867738               0.000000000               0.150448448              -0.311437989               0.000000000               0.162892392              -0.335008240               0.000000000               0.175336336              -0.358578492               0.000000000               0.187780280              -0.382148743               0.000000000               0.200224224              -0.405718994               0.000000000               0.212668168              -0.429289246               0.000000000               0.225112112              -0.452859497               0.000000000               0.237556056              -0.476429749               0.000000000               0.250000000              -0.500000000               0.000000000               0.038607862              -0.127273065               0.000000000               0.047913621              -0.150568498               0.000000000               0.057219379              -0.173863932               0.000000000               0.066525138              -0.197159365               0.000000000               0.075830897              -0.220454798               0.000000000               0.085136655              -0.243750232               0.000000000               0.094442414              -0.267045665               0.000000000               0.103748172              -0.290341099               0.000000000               0.113053931              -0.313636532               0.000000000               0.122359690              -0.336931966               0.000000000               0.131665448              -0.360227399               0.000000000               0.140971207              -0.383522833               0.000000000               0.150276966              -0.406818266               0.000000000               0.159582724              -0.430113700               0.000000000               0.168888483              -0.453409133               0.000000000               0.178194241              -0.476704567               0.000000000               0.187500000              -0.500000000               0.000000000               0.025947013              -0.130444442               0.000000000               0.032137825              -0.153541665               0.000000000               0.038328636              -0.176638887               0.000000000               0.044519448              -0.199736109               0.000000000               0.050710260              -0.222833332               0.000000000               0.056901071              -0.245930554               0.000000000               0.063091883              -0.269027776               0.000000000               0.069282695              -0.292124999               0.000000000               0.075473506              -0.315222221               0.000000000               0.081664318              -0.338319444               0.000000000               0.087855130              -0.361416666               0.000000000               0.094045942              -0.384513888               0.000000000               0.100236753              -0.407611111               0.000000000               0.106427565              -0.430708333               0.000000000               0.112618377              -0.453805555               0.000000000               0.118809188              -0.476902778               0.000000000               0.125000000              -0.500000000               0.000000000               0.013036280              -0.132359569               0.000000000               0.016127762              -0.155337096               0.000000000               0.019219245              -0.178314623               0.000000000               0.022310727              -0.201292150               0.000000000               0.025402210              -0.224269676               0.000000000               0.028493692              -0.247247203               0.000000000               0.031585175              -0.270224730               0.000000000               0.034676657              -0.293202257               0.000000000               0.037768140              -0.316179784               0.000000000               0.040859622              -0.339157311               0.000000000               0.043951105              -0.362134838               0.000000000               0.047042587              -0.385112365               0.000000000               0.050134070              -0.408089892               0.000000000               0.053225552              -0.431067419               0.000000000               0.056317035              -0.454044946               0.000000000               0.059408517              -0.477022473               0.000000000               0.062500000              -0.500000000               0.000000000               0.000000000              -0.133000000               0.000000000               0.000000000              -0.155937500               0.000000000               0.000000000              -0.178875000               0.000000000               0.000000000              -0.201812500               0.000000000               0.000000000              -0.224750000               0.000000000               0.000000000              -0.247687500               0.000000000               0.000000000              -0.270625000               0.000000000               0.000000000              -0.293562500               0.000000000               0.000000000              -0.316500000               0.000000000               0.000000000              -0.339437500               0.000000000               0.000000000              -0.362375000               0.000000000               0.000000000              -0.385312500               0.000000000               0.000000000              -0.408250000               0.000000000               0.000000000              -0.431187500               0.000000000               0.000000000              -0.454125000               0.000000000               0.000000000              -0.477062500               0.000000000               0.000000000              -0.500000000               0.000000000              -0.133000000               0.000000000               0.000000000              -0.155937500               0.000000000               0.000000000              -0.178875000               0.000000000               0.000000000              -0.201812500               0.000000000               0.000000000              -0.224750000               0.000000000               0.000000000              -0.247687500               0.000000000               0.000000000              -0.270625000               0.000000000               0.000000000              -0.293562500               0.000000000               0.000000000              -0.316500000               0.000000000               0.000000000              -0.339437500               0.000000000               0.000000000              -0.362375000               0.000000000               0.000000000              -0.385312500               0.000000000               0.000000000              -0.408250000               0.000000000               0.000000000              -0.431187500               0.000000000               0.000000000              -0.454125000               0.000000000               0.000000000              -0.477062500               0.000000000               0.000000000              -0.500000000               0.000000000               0.000000000              -0.132359569              -0.013036280               0.000000000              -0.155337096              -0.016127762               0.000000000              -0.178314623              -0.019219245               0.000000000              -0.201292150              -0.022310727               0.000000000              -0.224269676              -0.025402210               0.000000000              -0.247247203              -0.028493692               0.000000000              -0.270224730              -0.031585175               0.000000000              -0.293202257              -0.034676657               0.000000000              -0.316179784              -0.037768140               0.000000000              -0.339157311              -0.040859622               0.000000000              -0.362134838              -0.043951105               0.000000000              -0.385112365              -0.047042587               0.000000000              -0.408089892              -0.050134070               0.000000000              -0.431067419              -0.053225552               0.000000000              -0.454044946              -0.056317035               0.000000000              -0.477022473              -0.059408517               0.000000000              -0.500000000              -0.062500000               0.000000000              -0.130444442              -0.025947013               0.000000000              -0.153541665              -0.032137825               0.000000000              -0.176638887              -0.038328636               0.000000000              -0.199736109              -0.044519448               0.000000000              -0.222833332              -0.050710260               0.000000000              -0.245930554              -0.056901071               0.000000000              -0.269027776              -0.063091883               0.000000000              -0.292124999              -0.069282695               0.000000000              -0.315222221              -0.075473506               0.000000000              -0.338319444              -0.081664318               0.000000000              -0.361416666              -0.087855130               0.000000000              -0.384513888              -0.094045942               0.000000000              -0.407611111              -0.100236753               0.000000000              -0.430708333              -0.106427565               0.000000000              -0.453805555              -0.112618377               0.000000000              -0.476902778              -0.118809188               0.000000000              -0.500000000              -0.125000000               0.000000000              -0.127273065              -0.038607862               0.000000000              -0.150568498              -0.047913621               0.000000000              -0.173863932              -0.057219379               0.000000000              -0.197159365              -0.066525138               0.000000000              -0.220454798              -0.075830897               0.000000000              -0.243750232              -0.085136655               0.000000000              -0.267045665              -0.094442414               0.000000000              -0.290341099              -0.103748172               0.000000000              -0.313636532              -0.113053931               0.000000000              -0.336931966              -0.122359690               0.000000000              -0.360227399              -0.131665448               0.000000000              -0.383522833              -0.140971207               0.000000000              -0.406818266              -0.150276966               0.000000000              -0.430113700              -0.159582724               0.000000000              -0.453409133              -0.168888483               0.000000000              -0.476704567              -0.178194241               0.000000000              -0.500000000              -0.187500000               0.000000000              -0.122875978              -0.050896897               0.000000000              -0.146446229              -0.063340840               0.000000000              -0.170016481              -0.075784784               0.000000000              -0.193586732              -0.088228728               0.000000000              -0.217156983              -0.100672672               0.000000000              -0.240727235              -0.113116616               0.000000000              -0.264297486              -0.125560560               0.000000000              -0.287867738              -0.138004504               0.000000000              -0.311437989              -0.150448448               0.000000000              -0.335008240              -0.162892392               0.000000000              -0.358578492              -0.175336336               0.000000000              -0.382148743              -0.187780280               0.000000000              -0.405718994              -0.200224224               0.000000000              -0.429289246              -0.212668168               0.000000000              -0.452859497              -0.225112112               0.000000000              -0.476429749              -0.237556056               0.000000000              -0.500000000              -0.250000000               0.000000000              -0.117295528              -0.062695766               0.000000000              -0.141214558              -0.078308531               0.000000000              -0.165133587              -0.093921295               0.000000000              -0.189052617              -0.109534060               0.000000000              -0.212971646              -0.125146824               0.000000000              -0.236890676              -0.140759589               0.000000000              -0.260809705              -0.156372354               0.000000000              -0.284728735              -0.171985118               0.000000000              -0.308647764              -0.187597883               0.000000000              -0.332566794              -0.203210648               0.000000000              -0.356485823              -0.218823412               0.000000000              -0.380404853              -0.234436177               0.000000000              -0.404323882              -0.250048941               0.000000000              -0.428242912              -0.265661706               0.000000000              -0.452161941              -0.281274471               0.000000000              -0.476080971              -0.296887235               0.000000000              -0.500000000              -0.312500000               0.000000000              -0.110585458              -0.073890841               0.000000000              -0.134923867              -0.092710163               0.000000000              -0.159262276              -0.111529486               0.000000000              -0.183600685              -0.130348808               0.000000000              -0.207939094              -0.149168131               0.000000000              -0.232277503              -0.167987453               0.000000000              -0.256615912              -0.186806776               0.000000000              -0.280954320              -0.205626098               0.000000000              -0.305292729              -0.224445420               0.000000000              -0.329631138              -0.243264743               0.000000000              -0.353969547              -0.262084065               0.000000000              -0.378307956              -0.280903388               0.000000000              -0.402646365              -0.299722710               0.000000000              -0.426984773              -0.318542033               0.000000000              -0.451323182              -0.337361355               0.000000000              -0.475661591              -0.356180678               0.000000000              -0.500000000              -0.375000000               0.000000000              -0.102810390              -0.084374307               0.000000000              -0.127634741              -0.106444663               0.000000000              -0.152459092              -0.128515018               0.000000000              -0.177283442              -0.150585374               0.000000000              -0.202107793              -0.172655730               0.000000000              -0.226932143              -0.194726086               0.000000000              -0.251756494              -0.216796442               0.000000000              -0.276580845              -0.238866798               0.000000000              -0.301405195              -0.260937153               0.000000000              -0.326229546              -0.283007509               0.000000000              -0.351053896              -0.305077865               0.000000000              -0.375878247              -0.327148221               0.000000000              -0.400702598              -0.349218577               0.000000000              -0.425526948              -0.371288933               0.000000000              -0.450351299              -0.393359288               0.000000000              -0.475175649              -0.415429644               0.000000000              -0.500000000              -0.437500000               0.000000000              -0.094045202              -0.094045202               0.000000000              -0.119417377              -0.119417377               0.000000000              -0.144789552              -0.144789552               0.000000000              -0.170161727              -0.170161727               0.000000000              -0.195533901              -0.195533901               0.000000000              -0.220906076              -0.220906076               0.000000000              -0.246278251              -0.246278251               0.000000000              -0.271650426              -0.271650426               0.000000000              -0.297022601              -0.297022601               0.000000000              -0.322394776              -0.322394776               0.000000000              -0.347766951              -0.347766951               0.000000000              -0.373139126              -0.373139126               0.000000000              -0.398511300              -0.398511300               0.000000000              -0.423883475              -0.423883475               0.000000000              -0.449255650              -0.449255650               0.000000000              -0.474627825              -0.474627825               0.000000000              -0.500000000              -0.500000000               0.000000000              -0.084374307              -0.102810390               0.000000000              -0.106444663              -0.127634741               0.000000000              -0.128515018              -0.152459092               0.000000000              -0.150585374              -0.177283442               0.000000000              -0.172655730              -0.202107793               0.000000000              -0.194726086              -0.226932143               0.000000000              -0.216796442              -0.251756494               0.000000000              -0.238866798              -0.276580845               0.000000000              -0.260937153              -0.301405195               0.000000000              -0.283007509              -0.326229546               0.000000000              -0.305077865              -0.351053896               0.000000000              -0.327148221              -0.375878247               0.000000000              -0.349218577              -0.400702598               0.000000000              -0.371288933              -0.425526948               0.000000000              -0.393359288              -0.450351299               0.000000000              -0.415429644              -0.475175649               0.000000000              -0.437500000              -0.500000000               0.000000000              -0.073890841              -0.110585458               0.000000000              -0.092710163              -0.134923867               0.000000000              -0.111529486              -0.159262276               0.000000000              -0.130348808              -0.183600685               0.000000000              -0.149168131              -0.207939094               0.000000000              -0.167987453              -0.232277503               0.000000000              -0.186806776              -0.256615912               0.000000000              -0.205626098              -0.280954320               0.000000000              -0.224445420              -0.305292729               0.000000000              -0.243264743              -0.329631138               0.000000000              -0.262084065              -0.353969547               0.000000000              -0.280903388              -0.378307956               0.000000000              -0.299722710              -0.402646365               0.000000000              -0.318542033              -0.426984773               0.000000000              -0.337361355              -0.451323182               0.000000000              -0.356180678              -0.475661591               0.000000000              -0.375000000              -0.500000000               0.000000000              -0.062695766              -0.117295528               0.000000000              -0.078308531              -0.141214558               0.000000000              -0.093921295              -0.165133587               0.000000000              -0.109534060              -0.189052617               0.000000000              -0.125146824              -0.212971646               0.000000000              -0.140759589              -0.236890676               0.000000000              -0.156372354              -0.260809705               0.000000000              -0.171985118              -0.284728735               0.000000000              -0.187597883              -0.308647764               0.000000000              -0.203210648              -0.332566794               0.000000000              -0.218823412              -0.356485823               0.000000000              -0.234436177              -0.380404853               0.000000000              -0.250048941              -0.404323882               0.000000000              -0.265661706              -0.428242912               0.000000000              -0.281274471              -0.452161941               0.000000000              -0.296887235              -0.476080971               0.000000000              -0.312500000              -0.500000000               0.000000000              -0.050896897              -0.122875978               0.000000000              -0.063340840              -0.146446229               0.000000000              -0.075784784              -0.170016481               0.000000000              -0.088228728              -0.193586732               0.000000000              -0.100672672              -0.217156983               0.000000000              -0.113116616              -0.240727235               0.000000000              -0.125560560              -0.264297486               0.000000000              -0.138004504              -0.287867738               0.000000000              -0.150448448              -0.311437989               0.000000000              -0.162892392              -0.335008240               0.000000000              -0.175336336              -0.358578492               0.000000000              -0.187780280              -0.382148743               0.000000000              -0.200224224              -0.405718994               0.000000000              -0.212668168              -0.429289246               0.000000000              -0.225112112              -0.452859497               0.000000000              -0.237556056              -0.476429749               0.000000000              -0.250000000              -0.500000000               0.000000000              -0.038607862              -0.127273065               0.000000000              -0.047913621              -0.150568498               0.000000000              -0.057219379              -0.173863932               0.000000000              -0.066525138              -0.197159365               0.000000000              -0.075830897              -0.220454798               0.000000000              -0.085136655              -0.243750232               0.000000000              -0.094442414              -0.267045665               0.000000000              -0.103748172              -0.290341099               0.000000000              -0.113053931              -0.313636532               0.000000000              -0.122359690              -0.336931966               0.000000000              -0.131665448              -0.360227399               0.000000000              -0.140971207              -0.383522833               0.000000000              -0.150276966              -0.406818266               0.000000000              -0.159582724              -0.430113700               0.000000000              -0.168888483              -0.453409133               0.000000000              -0.178194241              -0.476704567               0.000000000              -0.187500000              -0.500000000               0.000000000              -0.025947013              -0.130444442               0.000000000              -0.032137825              -0.153541665               0.000000000              -0.038328636              -0.176638887               0.000000000              -0.044519448              -0.199736109               0.000000000              -0.050710260              -0.222833332               0.000000000              -0.056901071              -0.245930554               0.000000000              -0.063091883              -0.269027776               0.000000000              -0.069282695              -0.292124999               0.000000000              -0.075473506              -0.315222221               0.000000000              -0.081664318              -0.338319444               0.000000000              -0.087855130              -0.361416666               0.000000000              -0.094045942              -0.384513888               0.000000000              -0.100236753              -0.407611111               0.000000000              -0.106427565              -0.430708333               0.000000000              -0.112618377              -0.453805555               0.000000000              -0.118809188              -0.476902778               0.000000000              -0.125000000              -0.500000000               0.000000000              -0.013036280              -0.132359569               0.000000000              -0.016127762              -0.155337096               0.000000000              -0.019219245              -0.178314623               0.000000000              -0.022310727              -0.201292150               0.000000000              -0.025402210              -0.224269676               0.000000000              -0.028493692              -0.247247203               0.000000000              -0.031585175              -0.270224730               0.000000000              -0.034676657              -0.293202257               0.000000000              -0.037768140              -0.316179784               0.000000000              -0.040859622              -0.339157311               0.000000000              -0.043951105              -0.362134838               0.000000000              -0.047042587              -0.385112365               0.000000000              -0.050134070              -0.408089892               0.000000000              -0.053225552              -0.431067419               0.000000000              -0.056317035              -0.454044946               0.000000000              -0.059408517              -0.477022473               0.000000000              -0.062500000              -0.500000000               0.000000000               0.000000000              -0.133000000               0.000000000               0.000000000              -0.155937500               0.000000000               0.000000000              -0.178875000               0.000000000               0.000000000              -0.201812500               0.000000000               0.000000000              -0.224750000               0.000000000               0.000000000              -0.247687500               0.000000000               0.000000000              -0.270625000               0.000000000               0.000000000              -0.293562500               0.000000000               0.000000000              -0.316500000               0.000000000               0.000000000              -0.339437500               0.000000000               0.000000000              -0.362375000               0.000000000               0.000000000              -0.385312500               0.000000000               0.000000000              -0.408250000               0.000000000               0.000000000              -0.431187500               0.000000000               0.000000000              -0.454125000               0.000000000               0.000000000              -0.477062500               0.000000000               0.000000000              -0.500000000               0.000000000              -0.133000000               0.000000000               0.000000000              -0.155937500               0.000000000               0.000000000              -0.178875000               0.000000000               0.000000000              -0.201812500               0.000000000               0.000000000              -0.224750000               0.000000000               0.000000000              -0.247687500               0.000000000               0.000000000              -0.270625000               0.000000000               0.000000000              -0.293562500               0.000000000               0.000000000              -0.316500000               0.000000000               0.000000000              -0.339437500               0.000000000               0.000000000              -0.362375000               0.000000000               0.000000000              -0.385312500               0.000000000               0.000000000              -0.408250000               0.000000000               0.000000000              -0.431187500               0.000000000               0.000000000              -0.454125000               0.000000000               0.000000000              -0.477062500               0.000000000               0.000000000              -0.500000000               0.000000000               0.000000000              -0.132359569               0.013036280               0.000000000              -0.155337096               0.016127762               0.000000000              -0.178314623               0.019219245               0.000000000              -0.201292150               0.022310727               0.000000000              -0.224269676               0.025402210               0.000000000              -0.247247203               0.028493692               0.000000000              -0.270224730               0.031585175               0.000000000              -0.293202257               0.034676657               0.000000000              -0.316179784               0.037768140               0.000000000              -0.339157311               0.040859622               0.000000000              -0.362134838               0.043951105               0.000000000              -0.385112365               0.047042587               0.000000000              -0.408089892               0.050134070               0.000000000              -0.431067419               0.053225552               0.000000000              -0.454044946               0.056317035               0.000000000              -0.477022473               0.059408517               0.000000000              -0.500000000               0.062500000               0.000000000              -0.130444442               0.025947013               0.000000000              -0.153541665               0.032137825               0.000000000              -0.176638887               0.038328636               0.000000000              -0.199736109               0.044519448               0.000000000              -0.222833332               0.050710260               0.000000000              -0.245930554               0.056901071               0.000000000              -0.269027776               0.063091883               0.000000000              -0.292124999               0.069282695               0.000000000              -0.315222221               0.075473506               0.000000000              -0.338319444               0.081664318               0.000000000              -0.361416666               0.087855130               0.000000000              -0.384513888               0.094045942               0.000000000              -0.407611111               0.100236753               0.000000000              -0.430708333               0.106427565               0.000000000              -0.453805555               0.112618377               0.000000000              -0.476902778               0.118809188               0.000000000              -0.500000000               0.125000000               0.000000000              -0.127273065               0.038607862               0.000000000              -0.150568498               0.047913621               0.000000000              -0.173863932               0.057219379               0.000000000              -0.197159365               0.066525138               0.000000000              -0.220454798               0.075830897               0.000000000              -0.243750232               0.085136655               0.000000000              -0.267045665               0.094442414               0.000000000              -0.290341099               0.103748172               0.000000000              -0.313636532               0.113053931               0.000000000              -0.336931966               0.122359690               0.000000000              -0.360227399               0.131665448               0.000000000              -0.383522833               0.140971207               0.000000000              -0.406818266               0.150276966               0.000000000              -0.430113700               0.159582724               0.000000000              -0.453409133               0.168888483               0.000000000              -0.476704567               0.178194241               0.000000000              -0.500000000               0.187500000               0.000000000              -0.122875978               0.050896897               0.000000000              -0.146446229               0.063340840               0.000000000              -0.170016481               0.075784784               0.000000000              -0.193586732               0.088228728               0.000000000              -0.217156983               0.100672672               0.000000000              -0.240727235               0.113116616               0.000000000              -0.264297486               0.125560560               0.000000000              -0.287867738               0.138004504               0.000000000              -0.311437989               0.150448448               0.000000000              -0.335008240               0.162892392               0.000000000              -0.358578492               0.175336336               0.000000000              -0.382148743               0.187780280               0.000000000              -0.405718994               0.200224224               0.000000000              -0.429289246               0.212668168               0.000000000              -0.452859497               0.225112112               0.000000000              -0.476429749               0.237556056               0.000000000              -0.500000000               0.250000000               0.000000000              -0.117295528               0.062695766               0.000000000              -0.141214558               0.078308531               0.000000000              -0.165133587               0.093921295               0.000000000              -0.189052617               0.109534060               0.000000000              -0.212971646               0.125146824               0.000000000              -0.236890676               0.140759589               0.000000000              -0.260809705               0.156372354               0.000000000              -0.284728735               0.171985118               0.000000000              -0.308647764               0.187597883               0.000000000              -0.332566794               0.203210648               0.000000000              -0.356485823               0.218823412               0.000000000              -0.380404853               0.234436177               0.000000000              -0.404323882               0.250048941               0.000000000              -0.428242912               0.265661706               0.000000000              -0.452161941               0.281274471               0.000000000              -0.476080971               0.296887235               0.000000000              -0.500000000               0.312500000               0.000000000              -0.110585458               0.073890841               0.000000000              -0.134923867               0.092710163               0.000000000              -0.159262276               0.111529486               0.000000000              -0.183600685               0.130348808               0.000000000              -0.207939094               0.149168131               0.000000000              -0.232277503               0.167987453               0.000000000              -0.256615912               0.186806776               0.000000000              -0.280954320               0.205626098               0.000000000              -0.305292729               0.224445420               0.000000000              -0.329631138               0.243264743               0.000000000              -0.353969547               0.262084065               0.000000000              -0.378307956               0.280903388               0.000000000              -0.402646365               0.299722710               0.000000000              -0.426984773               0.318542033               0.000000000              -0.451323182               0.337361355               0.000000000              -0.475661591               0.356180678               0.000000000              -0.500000000               0.375000000               0.000000000              -0.102810390               0.084374307               0.000000000              -0.127634741               0.106444663               0.000000000              -0.152459092               0.128515018               0.000000000              -0.177283442               0.150585374               0.000000000              -0.202107793               0.172655730               0.000000000              -0.226932143               0.194726086               0.000000000              -0.251756494               0.216796442               0.000000000              -0.276580845               0.238866798               0.000000000              -0.301405195               0.260937153               0.000000000              -0.326229546               0.283007509               0.000000000              -0.351053896               0.305077865               0.000000000              -0.375878247               0.327148221               0.000000000              -0.400702598               0.349218577               0.000000000              -0.425526948               0.371288933               0.000000000              -0.450351299               0.393359288               0.000000000              -0.475175649               0.415429644               0.000000000              -0.500000000               0.437500000               0.000000000              -0.094045202               0.094045202               0.000000000              -0.119417377               0.119417377               0.000000000              -0.144789552               0.144789552               0.000000000              -0.170161727               0.170161727               0.000000000              -0.195533901               0.195533901               0.000000000              -0.220906076               0.220906076               0.000000000              -0.246278251               0.246278251               0.000000000              -0.271650426               0.271650426               0.000000000              -0.297022601               0.297022601               0.000000000              -0.322394776               0.322394776               0.000000000              -0.347766951               0.347766951               0.000000000              -0.373139126               0.373139126               0.000000000              -0.398511300               0.398511300               0.000000000              -0.423883475               0.423883475               0.000000000              -0.449255650               0.449255650               0.000000000              -0.474627825               0.474627825               0.000000000              -0.500000000               0.500000000               0.000000000              -0.084374307               0.102810390               0.000000000              -0.106444663               0.127634741               0.000000000              -0.128515018               0.152459092               0.000000000              -0.150585374               0.177283442               0.000000000              -0.172655730               0.202107793               0.000000000              -0.194726086               0.226932143               0.000000000              -0.216796442               0.251756494               0.000000000              -0.238866798               0.276580845               0.000000000              -0.260937153               0.301405195               0.000000000              -0.283007509               0.326229546               0.000000000              -0.305077865               0.351053896               0.000000000              -0.327148221               0.375878247               0.000000000              -0.349218577               0.400702598               0.000000000              -0.371288933               0.425526948               0.000000000              -0.393359288               0.450351299               0.000000000              -0.415429644               0.475175649               0.000000000              -0.437500000               0.500000000               0.000000000              -0.073890841               0.110585458               0.000000000              -0.092710163               0.134923867               0.000000000              -0.111529486               0.159262276               0.000000000              -0.130348808               0.183600685               0.000000000              -0.149168131               0.207939094               0.000000000              -0.167987453               0.232277503               0.000000000              -0.186806776               0.256615912               0.000000000              -0.205626098               0.280954320               0.000000000              -0.224445420               0.305292729               0.000000000              -0.243264743               0.329631138               0.000000000              -0.262084065               0.353969547               0.000000000              -0.280903388               0.378307956               0.000000000              -0.299722710               0.402646365               0.000000000              -0.318542033               0.426984773               0.000000000              -0.337361355               0.451323182               0.000000000              -0.356180678               0.475661591               0.000000000              -0.375000000               0.500000000               0.000000000              -0.062695766               0.117295528               0.000000000              -0.078308531               0.141214558               0.000000000              -0.093921295               0.165133587               0.000000000              -0.109534060               0.189052617               0.000000000              -0.125146824               0.212971646               0.000000000              -0.140759589               0.236890676               0.000000000              -0.156372354               0.260809705               0.000000000              -0.171985118               0.284728735               0.000000000              -0.187597883               0.308647764               0.000000000              -0.203210648               0.332566794               0.000000000              -0.218823412               0.356485823               0.000000000              -0.234436177               0.380404853               0.000000000              -0.250048941               0.404323882               0.000000000              -0.265661706               0.428242912               0.000000000              -0.281274471               0.452161941               0.000000000              -0.296887235               0.476080971               0.000000000              -0.312500000               0.500000000               0.000000000              -0.050896897               0.122875978               0.000000000              -0.063340840               0.146446229               0.000000000              -0.075784784               0.170016481               0.000000000              -0.088228728               0.193586732               0.000000000              -0.100672672               0.217156983               0.000000000              -0.113116616               0.240727235               0.000000000              -0.125560560               0.264297486               0.000000000              -0.138004504               0.287867738               0.000000000              -0.150448448               0.311437989               0.000000000              -0.162892392               0.335008240               0.000000000              -0.175336336               0.358578492               0.000000000              -0.187780280               0.382148743               0.000000000              -0.200224224               0.405718994               0.000000000              -0.212668168               0.429289246               0.000000000              -0.225112112               0.452859497               0.000000000              -0.237556056               0.476429749               0.000000000              -0.250000000               0.500000000               0.000000000              -0.038607862               0.127273065               0.000000000              -0.047913621               0.150568498               0.000000000              -0.057219379               0.173863932               0.000000000              -0.066525138               0.197159365               0.000000000              -0.075830897               0.220454798               0.000000000              -0.085136655               0.243750232               0.000000000              -0.094442414               0.267045665               0.000000000              -0.103748172               0.290341099               0.000000000              -0.113053931               0.313636532               0.000000000              -0.122359690               0.336931966               0.000000000              -0.131665448               0.360227399               0.000000000              -0.140971207               0.383522833               0.000000000              -0.150276966               0.406818266               0.000000000              -0.159582724               0.430113700               0.000000000              -0.168888483               0.453409133               0.000000000              -0.178194241               0.476704567               0.000000000              -0.187500000               0.500000000               0.000000000              -0.025947013               0.130444442               0.000000000              -0.032137825               0.153541665               0.000000000              -0.038328636               0.176638887               0.000000000              -0.044519448               0.199736109               0.000000000              -0.050710260               0.222833332               0.000000000              -0.056901071               0.245930554               0.000000000              -0.063091883               0.269027776               0.000000000              -0.069282695               0.292124999               0.000000000              -0.075473506               0.315222221               0.000000000              -0.081664318               0.338319444               0.000000000              -0.087855130               0.361416666               0.000000000              -0.094045942               0.384513888               0.000000000              -0.100236753               0.407611111               0.000000000              -0.106427565               0.430708333               0.000000000              -0.112618377               0.453805555               0.000000000              -0.118809188               0.476902778               0.000000000              -0.125000000               0.500000000               0.000000000              -0.013036280               0.132359569               0.000000000              -0.016127762               0.155337096               0.000000000              -0.019219245               0.178314623               0.000000000              -0.022310727               0.201292150               0.000000000              -0.025402210               0.224269676               0.000000000              -0.028493692               0.247247203               0.000000000              -0.031585175               0.270224730               0.000000000              -0.034676657               0.293202257               0.000000000              -0.037768140               0.316179784               0.000000000              -0.040859622               0.339157311               0.000000000              -0.043951105               0.362134838               0.000000000              -0.047042587               0.385112365               0.000000000              -0.050134070               0.408089892               0.000000000              -0.053225552               0.431067419               0.000000000              -0.056317035               0.454044946               0.000000000              -0.059408517               0.477022473               0.000000000              -0.062500000               0.500000000               0.000000000               0.000000000               0.133000000               0.000000000               0.000000000               0.155937500               0.000000000               0.000000000               0.178875000               0.000000000               0.000000000               0.201812500               0.000000000               0.000000000               0.224750000               0.000000000               0.000000000               0.247687500               0.000000000               0.000000000               0.270625000               0.000000000               0.000000000               0.293562500               0.000000000               0.000000000               0.316500000               0.000000000               0.000000000               0.339437500               0.000000000               0.000000000               0.362375000               0.000000000               0.000000000               0.385312500               0.000000000               0.000000000               0.408250000               0.000000000               0.000000000               0.431187500               0.000000000               0.000000000               0.454125000               0.000000000               0.000000000               0.477062500               0.000000000               0.000000000               0.500000000               0.000000000 </DataArray>
</Points>
<Cells>
<DataArray type="Int32"                                    Name="connectivity"                                                      NumberOfComponents=" 1" format="ascii">
         0          1         18         17          1          2         19         18          2          3         20         19          3          4         21         20          4          5         22         21          5          6         23         22          6          7         24         23          7          8         25         24          8          9         26         25          9         10         27         26         10         11         28         27         11         12         29         28         12         13         30         29         13         14         31         30         14         15         32         31         15         16         33         32         17         18         35         34         18         19         36         35         19         20         37         36         20         21         38         37         21         22         39         38         22         23         40         39         23         24         41         40         24         25         42         41         25         26         43         42         26         27         44         43         27         28         45         44         28         29         46         45         29         30         47         46         30         31         48         47         31         32         49         48         32         33         50         49         34         35         52         51         35         36         53         52         36         37         54         53         37         38         55         54         38         39         56         55         39         40         57         56         40         41         58         57         41         42         59         58         42         43         60         59         43         44         61         60         44         45         62         61         45         46         63         62         46         47         64         63         47         48         65         64         48         49         66         65         49         50         67         66         51         52         69         68         52         53         70         69         53         54         71         70         54         55         72         71         55         56         73         72         56         57         74         73         57         58         75         74         58         59         76         75         59         60         77         76         60         61         78         77         61         62         79         78         62         63         80         79         63         64         81         80         64         65         82         81         65         66         83         82         66         67         84         83         68         69         86         85         69         70         87         86         70         71         88         87         71         72         89         88         72         73         90         89         73         74         91         90         74         75         92         91         75         76         93         92         76         77         94         93         77         78         95         94         78         79         96         95         79         80         97         96         80         81         98         97         81         82         99         98         82         83        100         99         83         84        101        100         85         86        103        102         86         87        104        103         87         88        105        104         88         89        106        105         89         90        107        106         90         91        108        107         91         92        109        108         92         93        110        109         93         94        111        110         94         95        112        111         95         96        113        112         96         97        114        113         97         98        115        114         98         99        116        115         99        100        117        116        100        101        118        117        102        103        120        119        103        104        121        120        104        105        122        121        105        106        123        122        106        107        124        123        107        108        125        124        108        109        126        125        109        110        127        126        110        111        128        127        111        112        129        128        112        113        130        129        113        114        131        130        114        115        132        131        115        116        133        132        116        117        134        133        117        118        135        134        119        120        137        136        120        121        138        137        121        122        139        138        122        123        140        139        123        124        141        140        124        125        142        141        125        126        143        142        126        127        144        143        127        128        145        144        128        129        146        145        129        130        147        146        130        131        148        147        131        132        149        148        132        133        150        149        133        134        151        150        134        135        152        151        136        137        154        153        137        138        155        154        138        139        156        155        139        140        157        156        140        141        158        157        141        142        159        158        142        143        160        159        143        144        161        160        144        145        162        161        145        146        163        162        146        147        164        163        147        148        165        164        148        149        166        165        149        150        167        166        150        151        168        167        151        152        169        168        153        154        171        170        154        155        172        171        155        156        173        172        156        157        174        173        157        158        175        174        158        159        176        175        159        160        177        176        160        161        178        177        161        162        179        178        162        163        180        179        163        164        181        180        164        165        182        181        165        166        183        182        166        167        184        183        167        168        185        184        168        169        186        185        170        171        188        187        171        172        189        188        172        173        190        189        173        174        191        190        174        175        192        191        175        176        193        192        176        177        194        193        177        178        195        194        178        179        196        195        179        180        197        196        180        181        198        197        181        182        199        198        182        183        200        199        183        184        201        200        184        185        202        201        185        186        203        202        187        188        205        204        188        189        206        205        189        190        207        206        190        191        208        207        191        192        209        208        192        193        210        209        193        194        211        210        194        195        212        211        195        196        213        212        196        197        214        213        197        198        215        214        198        199        216        215        199        200        217        216        200        201        218        217        201        202        219        218        202        203        220        219        204        205        222        221        205        206        223        222        206        207        224        223        207        208        225        224        208        209        226        225        209        210        227        226        210        211        228        227        211        212        229        228        212        213        230        229        213        214        231        230        214        215        232        231        215        216        233        232        216        217        234        233        217        218        235        234        218        219        236        235        219        220        237        236        221        222        239        238        222        223        240        239        223        224        241        240        224        225        242        241        225        226        243        242        226        227        244        243        227        228        245        244        228        229        246        245        229        230        247        246        230        231        248        247        231        232        249        248        232        233        250        249        233        234        251        250        234        235        252        251        235        236        253        252        236        237        254        253        238        239        256        255        239        240        257        256        240        241        258        257        241        242        259        258        242        243        260        259        243        244        261        260        244        245        262        261        245        246        263        262        246        247        264        263        247        248        265        264        248        249        266        265        249        250        267        266        250        251        268        267        251        252        269        268        252        253        270        269        253        254        271        270        255        256        273        272        256        257        274        273        257        258        275        274        258        259        276        275        259        260        277        276        260        261        278        277        261        262        279        278        262        263        280        279        263        264        281        280        264        265        282        281        265        266        283        282        266        267        284        283        267        268        285        284        268        269        286        285        269        270        287        286        270        271        288        287        306        307          1          0        307        308          2          1        308        309          3          2        309        310          4          3        310        311          5          4        311        312          6          5        312        313          7          6        313        314          8          7        314        315          9          8        315        316         10          9        316        317         11         10        317        318         12         11        318        319         13         12        319        320         14         13        320        321         15         14        321        322         16         15        323        324        307        306        324        325        308        307        325        326        309        308        326        327        310        309        327        328        311        310        328        329        312        311        329        330        313        312        330        331        314        313        331        332        315        314        332        333        316        315        333        334        317        316        334        335        318        317        335        336        319        318        336        337        320        319        337        338        321        320        338        339        322        321        340        341        324        323        341        342        325        324        342        343        326        325        343        344        327        326        344        345        328        327        345        346        329        328        346        347        330        329        347        348        331        330        348        349        332        331        349        350        333        332        350        351        334        333        351        352        335        334        352        353        336        335        353        354        337        336        354        355        338        337        355        356        339        338        357        358        341        340        358        359        342        341        359        360        343        342        360        361        344        343        361        362        345        344        362        363        346        345        363        364        347        346        364        365        348        347        365        366        349        348        366        367        350        349        367        368        351        350        368        369        352        351        369        370        353        352        370        371        354        353        371        372        355        354        372        373        356        355        374        375        358        357        375        376        359        358        376        377        360        359        377        378        361        360        378        379        362        361        379        380        363        362        380        381        364        363        381        382        365        364        382        383        366        365        383        384        367        366        384        385        368        367        385        386        369        368        386        387        370        369        387        388        371        370        388        389        372        371        389        390        373        372        391        392        375        374        392        393        376        375        393        394        377        376        394        395        378        377        395        396        379        378        396        397        380        379        397        398        381        380        398        399        382        381        399        400        383        382        400        401        384        383        401        402        385        384        402        403        386        385        403        404        387        386        404        405        388        387        405        406        389        388        406        407        390        389        408        409        392        391        409        410        393        392        410        411        394        393        411        412        395        394        412        413        396        395        413        414        397        396        414        415        398        397        415        416        399        398        416        417        400        399        417        418        401        400        418        419        402        401        419        420        403        402        420        421        404        403        421        422        405        404        422        423        406        405        423        424        407        406        425        426        409        408        426        427        410        409        427        428        411        410        428        429        412        411        429        430        413        412        430        431        414        413        431        432        415        414        432        433        416        415        433        434        417        416        434        435        418        417        435        436        419        418        436        437        420        419        437        438        421        420        438        439        422        421        439        440        423        422        440        441        424        423        442        443        426        425        443        444        427        426        444        445        428        427        445        446        429        428        446        447        430        429        447        448        431        430        448        449        432        431        449        450        433        432        450        451        434        433        451        452        435        434        452        453        436        435        453        454        437        436        454        455        438        437        455        456        439        438        456        457        440        439        457        458        441        440        459        460        443        442        460        461        444        443        461        462        445        444        462        463        446        445        463        464        447        446        464        465        448        447        465        466        449        448        466        467        450        449        467        468        451        450        468        469        452        451        469        470        453        452        470        471        454        453        471        472        455        454        472        473        456        455        473        474        457        456        474        475        458        457        476        477        460        459        477        478        461        460        478        479        462        461        479        480        463        462        480        481        464        463        481        482        465        464        482        483        466        465        483        484        467        466        484        485        468        467        485        486        469        468        486        487        470        469        487        488        471        470        488        489        472        471        489        490        473        472        490        491        474        473        491        492        475        474        493        494        477        476        494        495        478        477        495        496        479        478        496        497        480        479        497        498        481        480        498        499        482        481        499        500        483        482        500        501        484        483        501        502        485        484        502        503        486        485        503        504        487        486        504        505        488        487        505        506        489        488        506        507        490        489        507        508        491        490        508        509        492        491        510        511        494        493        511        512        495        494        512        513        496        495        513        514        497        496        514        515        498        497        515        516        499        498        516        517        500        499        517        518        501        500        518        519        502        501        519        520        503        502        520        521        504        503        521        522        505        504        522        523        506        505        523        524        507        506        524        525        508        507        525        526        509        508        527        528        511        510        528        529        512        511        529        530        513        512        530        531        514        513        531        532        515        514        532        533        516        515        533        534        517        516        534        535        518        517        535        536        519        518        536        537        520        519        537        538        521        520        538        539        522        521        539        540        523        522        540        541        524        523        541        542        525        524        542        543        526        525        544        545        528        527        545        546        529        528        546        547        530        529        547        548        531        530        548        549        532        531        549        550        533        532        550        551        534        533        551        552        535        534        552        553        536        535        553        554        537        536        554        555        538        537        555        556        539        538        556        557        540        539        557        558        541        540        558        559        542        541        559        560        543        542        561        562        545        544        562        563        546        545        563        564        547        546        564        565        548        547        565        566        549        548        566        567        550        549        567        568        551        550        568        569        552        551        569        570        553        552        570        571        554        553        571        572        555        554        572        573        556        555        573        574        557        556        574        575        558        557        575        576        559        558        576        577        560        559        578        579        596        595        579        580        597        596        580        581        598        597        581        582        599        598        582        583        600        599        583        584        601        600        584        585        602        601        585        586        603        602        586        587        604        603        587        588        605        604        588        589        606        605        589        590        607        606        590        591        608        607        591        592        609        608        592        593        610        609        593        594        611        610        595        596        613        612        596        597        614        613        597        598        615        614        598        599        616        615        599        600        617        616        600        601        618        617        601        602        619        618        602        603        620        619        603        604        621        620        604        605        622        621        605        606        623        622        606        607        624        623        607        608        625        624        608        609        626        625        609        610        627        626        610        611        628        627        612        613        630        629        613        614        631        630        614        615        632        631        615        616        633        632        616        617        634        633        617        618        635        634        618        619        636        635        619        620        637        636        620        621        638        637        621        622        639        638        622        623        640        639        623        624        641        640        624        625        642        641        625        626        643        642        626        627        644        643        627        628        645        644        629        630        647        646        630        631        648        647        631        632        649        648        632        633        650        649        633        634        651        650        634        635        652        651        635        636        653        652        636        637        654        653        637        638        655        654        638        639        656        655        639        640        657        656        640        641        658        657        641        642        659        658        642        643        660        659        643        644        661        660        644        645        662        661        646        647        664        663        647        648        665        664        648        649        666        665        649        650        667        666        650        651        668        667        651        652        669        668        652        653        670        669        653        654        671        670        654        655        672        671        655        656        673        672        656        657        674        673        657        658        675        674        658        659        676        675        659        660        677        676        660        661        678        677        661        662        679        678        663        664        681        680        664        665        682        681        665        666        683        682        666        667        684        683        667        668        685        684        668        669        686        685        669        670        687        686        670        671        688        687        671        672        689        688        672        673        690        689        673        674        691        690        674        675        692        691        675        676        693        692        676        677        694        693        677        678        695        694        678        679        696        695        680        681        698        697        681        682        699        698        682        683        700        699        683        684        701        700        684        685        702        701        685        686        703        702        686        687        704        703        687        688        705        704        688        689        706        705        689        690        707        706        690        691        708        707        691        692        709        708        692        693        710        709        693        694        711        710        694        695        712        711        695        696        713        712        697        698        715        714        698        699        716        715        699        700        717        716        700        701        718        717        701        702        719        718        702        703        720        719        703        704        721        720        704        705        722        721        705        706        723        722        706        707        724        723        707        708        725        724        708        709        726        725        709        710        727        726        710        711        728        727        711        712        729        728        712        713        730        729        714        715        732        731        715        716        733        732        716        717        734        733        717        718        735        734        718        719        736        735        719        720        737        736        720        721        738        737        721        722        739        738        722        723        740        739        723        724        741        740        724        725        742        741        725        726        743        742        726        727        744        743        727        728        745        744        728        729        746        745        729        730        747        746        731        732        749        748        732        733        750        749        733        734        751        750        734        735        752        751        735        736        753        752        736        737        754        753        737        738        755        754        738        739        756        755        739        740        757        756        740        741        758        757        741        742        759        758        742        743        760        759        743        744        761        760        744        745        762        761        745        746        763        762        746        747        764        763        748        749        766        765        749        750        767        766        750        751        768        767        751        752        769        768        752        753        770        769        753        754        771        770        754        755        772        771        755        756        773        772        756        757        774        773        757        758        775        774        758        759        776        775        759        760        777        776        760        761        778        777        761        762        779        778        762        763        780        779        763        764        781        780        765        766        783        782        766        767        784        783        767        768        785        784        768        769        786        785        769        770        787        786        770        771        788        787        771        772        789        788        772        773        790        789        773        774        791        790        774        775        792        791        775        776        793        792        776        777        794        793        777        778        795        794        778        779        796        795        779        780        797        796        780        781        798        797        782        783        800        799        783        784        801        800        784        785        802        801        785        786        803        802        786        787        804        803        787        788        805        804        788        789        806        805        789        790        807        806        790        791        808        807        791        792        809        808        792        793        810        809        793        794        811        810        794        795        812        811        795        796        813        812        796        797        814        813        797        798        815        814        799        800        817        816        800        801        818        817        801        802        819        818        802        803        820        819        803        804        821        820        804        805        822        821        805        806        823        822        806        807        824        823        807        808        825        824        808        809        826        825        809        810        827        826        810        811        828        827        811        812        829        828        812        813        830        829        813        814        831        830        814        815        832        831        816        817        834        833        817        818        835        834        818        819        836        835        819        820        837        836        820        821        838        837        821        822        839        838        822        823        840        839        823        824        841        840        824        825        842        841        825        826        843        842        826        827        844        843        827        828        845        844        828        829        846        845        829        830        847        846        830        831        848        847        831        832        849        848        833        834        562        561        834        835        563        562        835        836        564        563        836        837        565        564        837        838        566        565        838        839        567        566        839        840        568        567        840        841        569        568        841        842        570        569        842        843        571        570        843        844        572        571        844        845        573        572        845        846        574        573        846        847        575        574        847        848        576        575        848        849        577        576        884        885        579        578        885        886        580        579        886        887        581        580        887        888        582        581        888        889        583        582        889        890        584        583        890        891        585        584        891        892        586        585        892        893        587        586        893        894        588        587        894        895        589        588        895        896        590        589        896        897        591        590        897        898        592        591        898        899        593        592        899        900        594        593        901        902        885        884        902        903        886        885        903        904        887        886        904        905        888        887        905        906        889        888        906        907        890        889        907        908        891        890        908        909        892        891        909        910        893        892        910        911        894        893        911        912        895        894        912        913        896        895        913        914        897        896        914        915        898        897        915        916        899        898        916        917        900        899        918        919        902        901        919        920        903        902        920        921        904        903        921        922        905        904        922        923        906        905        923        924        907        906        924        925        908        907        925        926        909        908        926        927        910        909        927        928        911        910        928        929        912        911        929        930        913        912        930        931        914        913        931        932        915        914        932        933        916        915        933        934        917        916        935        936        919        918        936        937        920        919        937        938        921        920        938        939        922        921        939        940        923        922        940        941        924        923        941        942        925        924        942        943        926        925        943        944        927        926        944        945        928        927        945        946        929        928        946        947        930        929        947        948        931        930        948        949        932        931        949        950        933        932        950        951        934        933        952        953        936        935        953        954        937        936        954        955        938        937        955        956        939        938        956        957        940        939        957        958        941        940        958        959        942        941        959        960        943        942        960        961        944        943        961        962        945        944        962        963        946        945        963        964        947        946        964        965        948        947        965        966        949        948        966        967        950        949        967        968        951        950        969        970        953        952        970        971        954        953        971        972        955        954        972        973        956        955        973        974        957        956        974        975        958        957        975        976        959        958        976        977        960        959        977        978        961        960        978        979        962        961        979        980        963        962        980        981        964        963        981        982        965        964        982        983        966        965        983        984        967        966        984        985        968        967        986        987        970        969        987        988        971        970        988        989        972        971        989        990        973        972        990        991        974        973        991        992        975        974        992        993        976        975        993        994        977        976        994        995        978        977        995        996        979        978        996        997        980        979        997        998        981        980        998        999        982        981        999       1000        983        982       1000       1001        984        983       1001       1002        985        984       1003       1004        987        986       1004       1005        988        987       1005       1006        989        988       1006       1007        990        989       1007       1008        991        990       1008       1009        992        991       1009       1010        993        992       1010       1011        994        993       1011       1012        995        994       1012       1013        996        995       1013       1014        997        996       1014       1015        998        997       1015       1016        999        998       1016       1017       1000        999       1017       1018       1001       1000       1018       1019       1002       1001       1020       1021       1004       1003       1021       1022       1005       1004       1022       1023       1006       1005       1023       1024       1007       1006       1024       1025       1008       1007       1025       1026       1009       1008       1026       1027       1010       1009       1027       1028       1011       1010       1028       1029       1012       1011       1029       1030       1013       1012       1030       1031       1014       1013       1031       1032       1015       1014       1032       1033       1016       1015       1033       1034       1017       1016       1034       1035       1018       1017       1035       1036       1019       1018       1037       1038       1021       1020       1038       1039       1022       1021       1039       1040       1023       1022       1040       1041       1024       1023       1041       1042       1025       1024       1042       1043       1026       1025       1043       1044       1027       1026       1044       1045       1028       1027       1045       1046       1029       1028       1046       1047       1030       1029       1047       1048       1031       1030       1048       1049       1032       1031       1049       1050       1033       1032       1050       1051       1034       1033       1051       1052       1035       1034       1052       1053       1036       1035       1054       1055       1038       1037       1055       1056       1039       1038       1056       1057       1040       1039       1057       1058       1041       1040       1058       1059       1042       1041       1059       1060       1043       1042       1060       1061       1044       1043       1061       1062       1045       1044       1062       1063       1046       1045       1063       1064       1047       1046       1064       1065       1048       1047       1065       1066       1049       1048       1066       1067       1050       1049       1067       1068       1051       1050       1068       1069       1052       1051       1069       1070       1053       1052       1071       1072       1055       1054       1072       1073       1056       1055       1073       1074       1057       1056       1074       1075       1058       1057       1075       1076       1059       1058       1076       1077       1060       1059       1077       1078       1061       1060       1078       1079       1062       1061       1079       1080       1063       1062       1080       1081       1064       1063       1081       1082       1065       1064       1082       1083       1066       1065       1083       1084       1067       1066       1084       1085       1068       1067       1085       1086       1069       1068       1086       1087       1070       1069       1088       1089       1072       1071       1089       1090       1073       1072       1090       1091       1074       1073       1091       1092       1075       1074       1092       1093       1076       1075       1093       1094       1077       1076       1094       1095       1078       1077       1095       1096       1079       1078       1096       1097       1080       1079       1097       1098       1081       1080       1098       1099       1082       1081       1099       1100       1083       1082       1100       1101       1084       1083       1101       1102       1085       1084       1102       1103       1086       1085       1103       1104       1087       1086       1105       1106       1089       1088       1106       1107       1090       1089       1107       1108       1091       1090       1108       1109       1092       1091       1109       1110       1093       1092       1110       1111       1094       1093       1111       1112       1095       1094       1112       1113       1096       1095       1113       1114       1097       1096       1114       1115       1098       1097       1115       1116       1099       1098       1116       1117       1100       1099       1117       1118       1101       1100       1118       1119       1102       1101       1119       1120       1103       1102       1120       1121       1104       1103       1122       1123       1106       1105       1123       1124       1107       1106       1124       1125       1108       1107       1125       1126       1109       1108       1126       1127       1110       1109       1127       1128       1111       1110       1128       1129       1112       1111       1129       1130       1113       1112       1130       1131       1114       1113       1131       1132       1115       1114       1132       1133       1116       1115       1133       1134       1117       1116       1134       1135       1118       1117       1135       1136       1119       1118       1136       1137       1120       1119       1137       1138       1121       1120        272        273       1123       1122        273        274       1124       1123        274        275       1125       1124        275        276       1126       1125        276        277       1127       1126        277        278       1128       1127        278        279       1129       1128        279        280       1130       1129        280        281       1131       1130        281        282       1132       1131        282        283       1133       1132        283        284       1134       1133        284        285       1135       1134        285        286       1136       1135        286        287       1137       1136        287        288       1138       1137 </DataArray>
<DataArray type="Int32"                                    Name="offsets"                                                      NumberOfComponents=" 1" format="ascii">
         4          8         12         16         20         24         28         32         36         40         44         48         52         56         60         64         68         72         76         80         84         88         92         96        100        104        108        112        116        120        124        128        132        136        140        144        148        152        156        160        164        168        172        176        180        184        188        192        196        200        204        208        212        216        220        224        228        232        236        240        244        248        252        256        260        264        268        272        276        280        284        288        292        296        300        304        308        312        316        320        324        328        332        336        340        344        348        352        356        360        364        368        372        376        380        384        388        392        396        400        404        408        412        416        420        424        428        432        436        440        444        448        452        456        460        464        468        472        476        480        484        488        492        496        500        504        508        512        516        520        524        528        532        536        540        544        548        552        556        560        564        568        572        576        580        584        588        592        596        600        604        608        612        616        620        624        628        632        636        640        644        648        652        656        660        664        668        672        676        680        684        688        692        696        700        704        708        712        716        720        724        728        732        736        740        744        748        752        756        760        764        768        772        776        780        784        788        792        796        800        804        808        812        816        820        824        828        832        836        840        844        848        852        856        860        864        868        872        876        880        884        888        892        896        900        904        908        912        916        920        924        928        932        936        940        944        948        952        956        960        964        968        972        976        980        984        988        992        996       1000       1004       1008       1012       1016       1020       1024       1028       1032       1036       1040       1044       1048       1052       1056       1060       1064       1068       1072       1076       1080       1084       1088       1092       1096       1100       1104       1108       1112       1116       1120       1124       1128       1132       1136       1140       1144       1148       1152       1156       1160       1164       1168       1172       1176       1180       1184       1188       1192       1196       1200       1204       1208       1212       1216       1220       1224       1228       1232       1236       1240       1244       1248       1252       1256       1260       1264       1268       1272       1276       1280       1284       1288       1292       1296       1300       1304       1308       1312       1316       1320       1324       1328       1332       1336       1340       1344       1348       1352       1356       1360       1364       1368       1372       1376       1380       1384       1388       1392       1396       1400       1404       1408       1412       1416       1420       1424       1428       1432       1436       1440       1444       1448       1452       1456       1460       1464       1468       1472       1476       1480       1484       1488       1492       1496       1500       1504       1508       1512       1516       1520       1524       1528       1532       1536       1540       1544       1548       1552       1556       1560       1564       1568       1572       1576       1580       1584       1588       1592       1596       1600       1604       1608       1612       1616       1620       1624       1628       1632       1636       1640       1644       1648       1652       1656       1660       1664       1668       1672       1676       1680       1684       1688       1692       1696       1700       1704       1708       1712       1716       1720       1724       1728       1732       1736       1740       1744       1748       1752       1756       1760       1764       1768       1772       1776       1780       1784       1788       1792       1796       1800       1804       1808       1812       1816       1820       1824       1828       1832       1836       1840       1844       1848       1852       1856       1860       1864       1868       1872       1876       1880       1884       1888       1892       1896       1900       1904       1908       1912       1916       1920       1924       1928       1932       1936       1940       1944       1948       1952       1956       1960       1964       1968       1972       1976       1980       1984       1988       1992       1996       2000       2004       2008       2012       2016       2020       2024       2028       2032       2036       2040       2044       2048       2052       2056       2060       2064       2068       2072       2076       2080       2084       2088       2092       2096       2100       2104       2108       2112       2116       2120       2124       2128       2132       2136       2140       2144       2148       2152       2156       2160       2164       2168       2172       2176       2180       2184       2188       2192       2196       2200       2204       2208       2212       2216       2220       2224       2228       2232       2236       2240       2244       2248       2252       2256       2260       2264       2268       2272       2276       2280       2284       2288       2292       2296       2300       2304       2308       2312       2316       2320       2324       2328       2332       2336       2340       2344       2348       2352       2356       2360       2364       2368       2372       2376       2380       2384       2388       2392       2396       2400       2404       2408       2412       2416       2420       2424       2428       2432       2436       2440       2444       2448       2452       2456       2460       2464       2468       2472       2476       2480       2484       2488       2492       2496       2500       2504       2508       2512       2516       2520       2524       2528       2532       2536       2540       2544       2548       2552       2556       2560       2564       2568       2572       2576       2580       2584       2588       2592       2596       2600       2604       2608       2612       2616       2620       2624       2628       2632       2636       2640       2644       2648       2652       2656       2660       2664       2668       2672       2676       2680       2684       2688       2692       2696       2700       2704       2708       2712       2716       2720       2724       2728       2732       2736       2740       2744       2748       2752       2756       2760       2764       2768       2772       2776       2780       2784       2788       2792       2796       2800       2804       2808       2812       2816       2820       2824       2828       2832       2836       2840       2844       2848       2852       2856       2860       2864       2868       2872       2876       2880       2884       2888       2892       2896       2900       2904       2908       2912       2916       2920       2924       2928       2932       2936       2940       2944       2948       2952       2956       2960       2964       2968       2972       2976       2980       2984       2988       2992       2996       3000       3004       3008       3012       3016       3020       3024       3028       3032       3036       3040       3044       3048       3052       3056       3060       3064       3068       3072       3076       3080       3084       3088       3092       3096       3100       3104       3108       3112       3116       3120       3124       3128       3132       3136       3140       3144       3148       3152       3156       3160       3164       3168       3172       3176       3180       3184       3188       3192       3196       3200       3204       3208       3212       3216       3220       3224       3228       3232       3236       3240       3244       3248       3252       3256       3260       3264       3268       3272       3276       3280       3284       3288       3292       3296       3300       3304       3308       3312       3316       3320       3324       3328       3332       3336       3340       3344       3348       3352       3356       3360       3364       3368       3372       3376       3380       3384       3388       3392       3396       3400       3404       3408       3412       3416       3420       3424       3428       3432       3436       3440       3444       3448       3452       3456       3460       3464       3468       3472       3476       3480       3484       3488       3492       3496       3500       3504       3508       3512       3516       3520       3524       3528       3532       3536       3540       3544       3548       3552       3556       3560       3564       3568       3572       3576       3580       3584       3588       3592       3596       3600       3604       3608       3612       3616       3620       3624       3628       3632       3636       3640       3644       3648       3652       3656       3660       3664       3668       3672       3676       3680       3684       3688       3692       3696       3700       3704       3708       3712       3716       3720       3724       3728       3732       3736       3740       3744       3748       3752       3756       3760       3764       3768       3772       3776       3780       3784       3788       3792       3796       3800       3804       3808       3812       3816       3820       3824       3828       3832       3836       3840       3844       3848       3852       3856       3860       3864       3868       3872       3876       3880       3884       3888       3892       3896       3900       3904       3908       3912       3916       3920       3924       3928       3932       3936       3940       3944       3948       3952       3956       3960       3964       3968       3972       3976       3980       3984       3988       3992       3996       4000       4004       4008       4012       4016       4020       4024       4028       4032       4036       4040       4044       4048       4052       4056       4060       4064       4068       4072       4076       4080       4084       4088       4092       4096 </DataArray>
<DataArray type="UInt8"                                    Name="types"                                                      NumberOfComponents=" 1" format="ascii">
         9          9          9          9          9          9          9          9          9          9          9          9          9          9          9          9          9          9          9          9          9          9          9          9          9          9          9          9          9          9          9          9          9          9          9          9          9          9          9          9          9          9          9          9          9          9          9          9          9          9          9          9          9          9          9          9          9          9          9          9          9          9          9          9          9          9          9          9          9          9          9          9          9          9          9          9          9          9          9          9          9          9          9          9          9          9          9          9          9          9          9          9          9          9          9          9          9          9          9          9          9          9          9          9          9          9          9          9          9          9          9          9          9          9          9          9          9          9          9          9          9          9          9          9          9          9          9          9          9          9          9          9          9          9          9          9          9          9          9          9          9          9          9          9          9          9          9          9          9          9          9          9          9          9          9          9          9          9          9          9          9          9          9          9          9          9          9          9          9          9          9          9          9          9          9          9          9          9          9          9          9          9          9          9          9          9          9          9          9          9          9          9          9          9          9          9          9          9          9          9          9          9          9          9          9          9          9          9          9          9          9          9          9          9          9          9          9          9          9          9          9          9          9          9          9          9          9          9          9          9          9          9          9          9          9          9          9          9          9          9          9          9          9          9          9          9          9          9          9          9          9          9          9          9          9          9          9          9          9          9          9          9          9          9          9          9          9          9          9          9          9          9          9          9          9          9          9          9          9          9          9          9          9          9          9          9          9          9          9          9          9          9          9          9          9          9          9          9          9          9          9          9          9          9          9          9          9          9          9          9          9          9          9          9          9          9          9          9          9          9          9          9          9          9          9          9          9          9          9          9          9          9          9          9          9          9          9          9          9          9          9          9          9          9          9          9          9          9          9          9          9          9          9          9          9          9          9          9          9          9          9          9          9          9          9          9          9          9          9          9          9          9          9          9          9          9          9          9          9          9          9          9          9          9          9          9          9          9          9          9          9          9          9          9          9          9          9          9          9          9          9          9          9          9          9          9          9          9          9          9          9          9          9          9          9          9          9          9          9          9          9          9          9          9          9          9          9          9          9          9          9          9          9          9          9          9          9          9          9          9          9          9          9          9          9          9          9          9          9          9          9          9          9          9          9          9          9          9          9          9          9          9          9          9          9          9          9          9          9          9          9          9          9          9          9          9          9          9          9          9          9          9          9          9          9          9          9          9          9          9          9          9          9          9          9          9          9          9          9          9          9          9          9          9          9          9          9          9          9          9          9          9          9          9          9          9          9          9          9          9          9          9          9          9          9          9          9          9          9          9          9          9          9          9          9          9          9          9          9          9          9          9          9          9          9          9          9          9          9          9          9          9          9          9          9          9          9          9          9          9          9          9          9          9          9          9          9          9          9          9          9          9          9          9          9          9          9          9          9          9          9          9          9          9          9          9          9          9          9          9          9          9          9          9          9          9          9          9          9          9          9          9          9          9          9          9          9          9          9          9          9          9          9          9          9          9          9          9          9          9          9          9          9          9          9          9          9          9          9          9          9          9          9          9          9          9          9          9          9          9          9          9          9          9          9          9          9          9          9          9          9          9          9          9          9          9          9          9          9          9          9          9          9          9          9          9          9          9          9          9          9          9          9          9          9          9          9          9          9          9          9          9          9          9          9          9          9          9          9          9          9          9          9          9          9          9          9          9          9          9          9          9          9          9          9          9          9          9          9          9          9          9          9          9          9          9          9          9          9          9          9          9          9          9          9          9          9          9          9          9          9          9          9          9          9          9          9          9          9          9          9          9          9          9          9          9          9          9          9          9          9          9          9          9          9          9          9          9          9          9          9          9          9          9          9          9          9          9          9          9          9          9          9          9          9          9          9          9          9          9          9          9          9          9          9          9          9          9          9          9          9          9          9          9          9          9          9          9          9          9          9          9          9          9          9          9          9          9          9          9          9          9          9          9          9          9          9          9          9          9          9          9          9          9          9          9          9          9          9          9          9          9          9          9          9          9          9          9          9          9          9          9          9          9          9          9          9          9          9          9          9          9          9          9          9          9          9          9          9          9          9          9          9          9          9          9          9          9          9          9          9          9          9          9          9          9          9          9          9          9          9          9          9          9          9          9          9          9          9          9          9          9          9          9          9          9          9          9          9          9          9          9          9          9          9          9          9          9          9          9          9          9          9          9          9          9          9          9          9          9          9          9          9          9          9          9          9          9          9          9          9          9          9          9          9          9          9          9          9          9          9          9          9          9          9          9          9          9          9          9          9          9          9          9          9          9          9          9          9          9          9          9          9          9          9          9          9          9          9          9          9          9          9          9          9          9          9          9          9          9          9          9          9          9          9          9          9          9          9          9          9          9          9          9          9          9          9          9          9          9          9          9          9          9          9          9          9          9          9          9          9          9          9          9          9          9          9          9          9          9          9          9          9          9 </DataArray>
</Cells>
<CellData>
<DataArray type="Int32"                                    Name="material"                                                      NumberOfComponents=" 1" format="ascii">
         1          1          1          1          1          1          1          1          1          1          1          1          1          1          1          1          1          1          1          1          1          1          1          1          1          1          1          1          1          1          1          1          1          1          1          1          1          1          1          1          1          1          1          1          1          1          1          1          1          1          1          1          1          1          1          1          1          1          1          1          1          1          1          1          1          1          1          1          1          1          1          1          1          1          1          1          1          1          1          1          1          1          1          1          1          1          1          1          1          1          1          1          1          1          1          1          1          1          1          1          1          1          1          1          1          1          1          1          1          1          1          1          1          1          1          1          1          1          1          1          1          1          1          1          1          1          1          1          1          1          1          1          1          1          1          1          1          1          1          1          1          1          1          1          1          1          1          1          1          1          1          1          1          1          1          1          1          1          1          1          1          1          1          1          1          1          1          1          1          1          1          1          1          1          1          1          1          1          1          1          1          1          1          1          1          1          1          1          1          1          1          1          1          1          1          1          1          1          1          1          1          1          1          1          1          1          1          1          1          1          1          1          1          1          1          1          1          1          1          1          1          1          1          1          1          1          1          1          1          1          1          1          1          1          1          1          1          1          1          1          1          1          1          1          1          1          1          1          1          1          1          1          1          1          1          1          1          1          1          1          1          1          1          1          1          1          1          1          1          1          1          1          1          1          1          1          1          1          1          1          1          1          1          1          1          1          1          1          1          1          1          1          1          1          1          1          1          1          1          1          1          1          1          1          1          1          1          1          1          1          1          1          1          1          1          1          1          1          1          1          1          1          1          1          1          1          1          1          1          1          1          1          1          1          1          1          1          1          1          1          1          1          1          1          1          1          1          1          1          1          1          1          1          1          1          1          1          1          1          1          1          1          1          1          1          1          1          1          1          1          1          1          1          1          1          1          1          1          1          1          1          1          1          1          1          1          1          1          1          1          1          1          1          1          1          1          1          1          1          1          1          1          1          1          1          1          1          1          1          1          1          1          1          1          1          1          1          1          1          1          1          1          1          1          1          1          1          1          1          1          1          1          1          1          1          1          1          1          1          1          1          1          1          1          1          1          1          1          1          1          1          1          1          1          1          1          1          1          1          1          1          1          1          1          1          1          1          1          1          1          1          1          1          1          1          1          1          1          1          1          1          1          1          1          1          1          1          1          1          1          1          1          1          1          1          1          1          1          1          1          1          1          1          1          1          1          1          1          1          1          1          1          1          1          1          1          1          1          1          1          1          1          1          1          1          1          1          1          1          1          1          1          1          1          1          1          1          1          1          1          1          1          1          1          1          1          1          1          1          1          1          1          1          1          1          1          1          1          1          1          1          1          1          1          1          1          1          1          1          1          1          1          1          1          1          1          1          1          1          1          1          1          1          1          1          1          1          1          1          1          1          1          1          1          1          1          1          1          1          1          1          1          1          1          1          1          1          1          1          1          1          1          1          1          1          1          1          1          1          1          1          1          1          1          1          1          1          1          1          1          1          1          1          1          1          1          1          1          1          1          1          1          1          1          1          1          1          1          1          1          1          1          1          1          1          1          1          1          1          1          1          1          1          1          1          1          1          1          1          1          1          1          1          1          1          1          1          1          1          1          1          1          1          1          1          1          1          1          1          1          1          1          1          1          1          1          1          1          1          1          1          1          1          1          1          1          1          1          1          1          1          1          1          1          1          1          1          1          1          1          1          1          1          1          1          1          1          1          1          1          1          1          1          1          1          1          1          1          1          1          1          1          1          1          1          1          1          1          1          1          1          1          1          1          1          1          1          1          1          1          1          1          1          1          1          1          1          1          1          1          1          1          1          1          1          1          1          1          1          1          1          1          1          1          1          1          1          1          1          1          1          1          1          1          1          1          1          1          1          1          1          1          1          1          1          1          1          1          1          1          1          1          1          1          1          1          1          1          1          1          1          1          1          1          1          1          1          1          1          1          1          1          1          1          1          1          1          1          1          1          1          1          1          1          1          1          1          1          1          1          1          1          1          1          1          1          1          1          1          1          1          1          1          1          1          1          1          1          1          1          1          1          1          1          1          1          1          1          1          1          1          1          1          1          1          1          1          1          1          1          1          1          1          1          1          1          1          1          1          1          1          1          1          1          1          1          1          1          1          1          1          1          1          1          1          1          1          1          1          1          1          1          1          1          1          1          1          1          1          1          1          1          1          1          1          1          1          1          1          1          1          1          1          1          1          1          1          1          1          1          1          1          1          1          1          1          1          1          1          1          1          1          1          1          1          1          1          1          1          1          1          1          1          1          1          1          1          1          1          1          1          1          1          1          1          1          1          1          1          1          1          1          1          1          1          1          1          1          1          1          1          1          1          1          1          1          1          1          1          1          1          1          1          1          1          1          1          1          1          1          1          1          1          1 </DataArray>
</CellData>
<PointData>
<DataArray type="Float64"                                    Name="u"                                                      NumberOfComponents=" 3" format="ascii">
             -0.000727617              -0.000000000               0.999999984              -0.000778695               0.000000000               0.999999984              -0.000800824               0.000000000               0.999999984              -0.000812934              -0.000000000               0.999999984              -0.000822162              -0.000000000               0.999999984              -0.000831345              -0.000000000               0.999999984              -0.000841470               0.000000000               0.999999984              -0.000852792              -0.000000000               0.999999984              -0.000865290               0.000000000               0.999999984              -0.000878770              -0.000000000               0.999999984              -0.000892985               0.000000000               0.999999984              -0.000907549              -0.000000000               0.999999984              -0.000922147               0.000000000               0.999999984              -0.000936447               0.000000000               0.999999984              -0.000950171               0.000000000               0.999999984              -0.000962946               0.000000000               0.999999984              -0.000974026              -0.000000000               0.999999984              -0.000723659               0.000132077               0.999999984              -0.000770917               0.000107570               0.999999984              -0.000790629               0.000096783               0.999999984              -0.000801214               0.000092848               0.999999984              -0.000809593               0.000092684               0.999999984              -0.000818241               0.000094443               0.999999984              -0.000827890               0.000097080               0.999999984              -0.000838705               0.000100044               0.999999984              -0.000850592               0.000102850               0.999999984              -0.000863340               0.000105370               0.999999984              -0.000876772               0.000107211               0.999999984              -0.000890455               0.000107794               0.999999984              -0.000903956               0.000106885               0.999999984              -0.000917009               0.000104371               0.999999984              -0.000929233               0.000099621               0.999999984              -0.000940182               0.000091806               0.999999984              -0.000949183               0.000079807               0.999999984              -0.000711920               0.000262696               0.999999984              -0.000748019               0.000214357               0.999999984              -0.000760965               0.000193865               0.999999984              -0.000767558               0.000187010               0.999999984              -0.000773452               0.000187419               0.999999984              -0.000780322               0.000191220               0.999999984              -0.000788584               0.000196716               0.999999984              -0.000798038               0.000202643               0.999999984              -0.000808373               0.000208164               0.999999984              -0.000819184               0.000212987               0.999999984              -0.000830132               0.000216396               0.999999984              -0.000840838               0.000217499               0.999999984              -0.000850844               0.000215733               0.999999984              -0.000859711               0.000210688               0.999999984              -0.000867029               0.000201491               0.999999984              -0.000872408               0.000186730               0.999999984              -0.000875538               0.000164882               0.999999984              -0.000692499               0.000390658               0.999999984              -0.000711019               0.000319856               0.999999984              -0.000714053               0.000291695               0.999999984              -0.000715160               0.000283489               0.999999984              -0.000717884               0.000285389               0.999999984              -0.000722720               0.000291851               0.999999984              -0.000729306               0.000300326               0.999999984              -0.000736892               0.000309150               0.999999984              -0.000744840               0.000317241               0.999999984              -0.000752729               0.000323994               0.999999984              -0.000759952               0.000328671               0.999999984              -0.000766003               0.000330010               0.999999984              -0.000770454               0.000327263               0.999999984              -0.000772802               0.000319759               0.999999984              -0.000772725               0.000306664               0.999999984              -0.000770302               0.000287286               0.999999984              -0.000765798               0.000260609               0.999999984              -0.000665586               0.000514792               0.999999984              -0.000661620               0.000423898               0.999999984              -0.000653714               0.000390506               0.999999984              -0.000649548               0.000382523               0.999999984              -0.000649589               0.000386788               0.999999984              -0.000652737               0.000396472               0.999999984              -0.000657658               0.000408054               0.999999984              -0.000663086               0.000419680               0.999999984              -0.000668170               0.000430007               0.999999984              -0.000672270               0.000438432               0.999999984              -0.000674562               0.000443821               0.999999984              -0.000674451               0.000444927               0.999999984              -0.000671603               0.000440960               0.999999984              -0.000665916               0.000431461               0.999999984              -0.000657470               0.000416285               0.999999984              -0.000646677               0.000395410               0.999999984              -0.000634233               0.000368922               0.999999984              -0.000631813               0.000633756               0.999999984              -0.000602490               0.000526350               0.999999984              -0.000584525               0.000490309               0.999999984              -0.000576501               0.000483951               0.999999984              -0.000575084               0.000491313               0.999999984              -0.000577298               0.000504210               0.999999984              -0.000580794               0.000518750               0.999999984              -0.000583963               0.000532847               0.999999984              -0.000585776               0.000545144               0.999999984              -0.000585289               0.000554562               0.999999984              -0.000581623               0.000559898               0.999999984              -0.000574403               0.000560186               0.999999984              -0.000563593               0.000555051               0.999999984              -0.000549526               0.000544514               0.999999984              -0.000532760               0.000528908               0.999999984              -0.000514016               0.000508991               0.999999984              -0.000494128               0.000485679               0.999999984              -0.000591721               0.000746458               0.999999984              -0.000536688               0.000627209               0.999999984              -0.000511134               0.000590802               0.999999984              -0.000501586               0.000586839               0.999999984              -0.000500302               0.000597312               0.999999984              -0.000502243               0.000613185               0.999999984              -0.000504367               0.000630388               0.999999984              -0.000504943               0.000646652               0.999999984              -0.000502849               0.000660375               0.999999984              -0.000496971               0.000669977               0.999999984              -0.000486631               0.000674485               0.999999984              -0.000471790               0.000673608               0.999999984              -0.000452872               0.000667476               0.999999984              -0.000430625               0.000656570               0.999999984              -0.000405847               0.000641671               0.999999984              -0.000379381               0.000623778               0.999999984              -0.000351856               0.000604037               0.999999984              -0.000546176               0.000851870               0.999999984              -0.000467485               0.000726360               0.999999984              -0.000437816               0.000691141               0.999999984              -0.000429302               0.000689601               0.999999984              -0.000429238               0.000702718               0.999999984              -0.000431259               0.000721142               0.999999984              -0.000431921               0.000740471               0.999999984              -0.000429436               0.000758361               0.999999984              -0.000422622               0.000772653               0.999999984              -0.000410364               0.000781856               0.999999984              -0.000392512               0.000785361               0.999999984              -0.000369399               0.000783449               0.999999984              -0.000341891               0.000776892               0.999999984              -0.000310987               0.000766504               0.999999984              -0.000277672               0.000753145               0.999999984              -0.000242691               0.000737906               0.999999984              -0.000206712               0.000721485               0.999999984              -0.000496929               0.000948162               0.999999984              -0.000397319               0.000823740               0.999999984              -0.000368347               0.000789902               0.999999984              -0.000362473               0.000790327               0.999999984              -0.000364350               0.000805509               0.999999984              -0.000366462               0.000825902               0.999999984              -0.000365247               0.000846875               0.999999984              -0.000358986               0.000865607               0.999999984              -0.000346254               0.000879819               0.999999984              -0.000326494               0.000888372               0.999999984              -0.000299909               0.000891237               0.999999984              -0.000267380               0.000889000               0.999999984              -0.000230243               0.000882931               0.999999984              -0.000189707               0.000873937               0.999999984              -0.000146899               0.000863121               0.999999984              -0.000102885               0.000851313               0.999999984              -0.000058597               0.000839072               0.999999984              -0.000446243               0.001038938               0.999999984              -0.000339031               0.000931898               0.999999984              -0.000306854               0.000893889               0.999999984              -0.000299588               0.000888397               0.999999984              -0.000301040               0.000898632               0.999999984              -0.000303861               0.000916139               0.999999984              -0.000304075               0.000935987               0.999999984              -0.000300126               0.000955600               0.999999984              -0.000290640               0.000972830               0.999999984              -0.000274776               0.000986494               0.999999984              -0.000252428               0.000995801               0.999999984              -0.000223646               0.001000800               0.999999984              -0.000189381               0.001001980               0.999999984              -0.000150721               0.001000484               0.999999984              -0.000108711               0.000996866               0.999999984              -0.000064515               0.000992060               0.999999984              -0.000019557               0.000986595               0.999999984              -0.000390740               0.001121465               0.999999984              -0.000283655               0.001036287               0.999999984              -0.000248467               0.001000271               0.999999984              -0.000239066               0.000991482               0.999999984              -0.000239205               0.000998085               0.999999984              -0.000242027               0.001013086               0.999999984              -0.000243155               0.001031904               0.999999984              -0.000240837               0.001051964               0.999999984              -0.000233915               0.001071469               0.999999984              -0.000221578               0.001088983               0.999999984              -0.000203377               0.001103601               0.999999984              -0.000178761               0.001114921               0.999999984              -0.000147992               0.001122897               0.999999984              -0.000111904               0.001128102               0.999999984              -0.000071408               0.001131306               0.999999984              -0.000027520               0.001133098               0.999999984               0.000018396               0.001134162               0.999999984              -0.000331553               0.001193863               0.999999984              -0.000231063               0.001133948               0.999999984              -0.000194671               0.001104326               0.999999984              -0.000183071               0.001095698               0.999999984              -0.000181431               0.001100649               0.999999984              -0.000183335               0.001114110               0.999999984              -0.000184761               0.001132426               0.999999984              -0.000183466               0.001153079               0.999999984              -0.000178479               0.001174556               0.999999984              -0.000169121               0.001195259               0.999999984              -0.000154646               0.001214330               0.999999984              -0.000134278               0.001231203               0.999999984              -0.000107689               0.001245482               0.999999984              -0.000075125               0.001257109               0.999999984              -0.000036959               0.001266592               0.999999984               0.000006132               0.001274601               0.999999984               0.000053136               0.001281842               0.999999984              -0.000269263               0.001254919               0.999999984              -0.000181299               0.001220870               0.999999984              -0.000146274               0.001200887               0.999999984              -0.000133383               0.001195324               0.999999984              -0.000129981               0.001200851               0.999999984              -0.000130523               0.001214267               0.999999984              -0.000131558               0.001232918               0.999999984              -0.000130868               0.001254700               0.999999984              -0.000127372               0.001278059               0.999999984              -0.000120488               0.001301957               0.999999984              -0.000109265               0.001325295               0.999999984              -0.000093067               0.001347278               0.999999984              -0.000071027               0.001367471               0.999999984              -0.000042809               0.001385558               0.999999984              -0.000008139               0.001401606               0.999999984               0.000033268               0.001415968               0.999999984               0.000081053               0.001429292               0.999999984              -0.000204353               0.001303626               0.999999984              -0.000133950               0.001293279               0.999999984              -0.000103537               0.001284262               0.999999984              -0.000090962               0.001283734               0.999999984              -0.000086540               0.001291605               0.999999984              -0.000085835               0.001306364               0.999999984              -0.000086181               0.001326202               0.999999984              -0.000085720               0.001349566               0.999999984              -0.000083253               0.001375264               0.999999984              -0.000078289               0.001402405               0.999999984              -0.000070227               0.001430002               0.999999984              -0.000058061               0.001457099               0.999999984              -0.000040952               0.001483109               0.999999984              -0.000018172               0.001507675               0.999999984               0.000011236               0.001530536               0.999999984               0.000048330               0.001551706               0.999999984               0.000094029               0.001571406               0.999999984              -0.000137399               0.001338993               0.999999984              -0.000088383               0.001347681               0.999999984              -0.000065852               0.001348939               0.999999984              -0.000055644               0.001353893               0.999999984              -0.000051515               0.001364838               0.999999984              -0.000050260               0.001381443               0.999999984              -0.000050166               0.001402843               0.999999984              -0.000049667               0.001427996               0.999999984              -0.000048116               0.001455939               0.999999984              -0.000044842               0.001485967               0.999999984              -0.000039499               0.001517364               0.999999984              -0.000031475               0.001549296               0.999999984              -0.000019845               0.001580819               0.999999984              -0.000003711               0.001611570               0.999999984               0.000017999               0.001641142               0.999999984               0.000046675               0.001669133               0.999999984               0.000084191               0.001695281               0.999999984              -0.000069048               0.001360492               0.999999984              -0.000043915               0.001381408               0.999999984              -0.000031924               0.001389953               0.999999984              -0.000026153               0.001399108               0.999999984              -0.000023654               0.001412529               0.999999984              -0.000022816               0.001430734               0.999999984              -0.000022549               0.001453467               0.999999984              -0.000022178               0.001480048               0.999999984              -0.000021407               0.001509738               0.999999984              -0.000019801               0.001541921               0.999999984              -0.000017080               0.001575948               0.999999984              -0.000013065               0.001611216               0.999999984              -0.000007306               0.001646941               0.999999984               0.000001026               0.001682593               0.999999984               0.000012581               0.001717604               0.999999984               0.000028376               0.001751247               0.999999984               0.000050135               0.001782662               0.999999984               0.000000000               0.001367749               0.999999984               0.000000000               0.001392876               0.999999984               0.000000000               0.001404022               0.999999984               0.000000000               0.001414696               0.999999984               0.000000000               0.001429007               0.999999984               0.000000000               0.001447845               0.999999984               0.000000000               0.001471114               0.999999984              -0.000000000               0.001498228               0.999999984              -0.000000000               0.001528556               0.999999984               0.000000000               0.001561600               0.999999984              -0.000000000               0.001596620               0.999999984               0.000000000               0.001633122               0.999999984               0.000000000               0.001670492               0.999999984              -0.000000000               0.001708135               0.999999984              -0.000000000               0.001745379               0.999999984               0.000000000               0.001781398               0.999999984               0.000000000               0.001815053               0.999999984              -0.000727617              -0.000000000               0.999999984              -0.000778695               0.000000000               0.999999984              -0.000800824               0.000000000               0.999999984              -0.000812934              -0.000000000               0.999999984              -0.000822162              -0.000000000               0.999999984              -0.000831345              -0.000000000               0.999999984              -0.000841470               0.000000000               0.999999984              -0.000852792              -0.000000000               0.999999984              -0.000865290               0.000000000               0.999999984              -0.000878770              -0.000000000               0.999999984              -0.000892985               0.000000000               0.999999984              -0.000907549              -0.000000000               0.999999984              -0.000922147               0.000000000               0.999999984              -0.000936447               0.000000000               0.999999984              -0.000950171               0.000000000               0.999999984              -0.000962946               0.000000000               0.999999984              -0.000974026              -0.000000000               0.999999984              -0.000723659              -0.000132077               0.999999984              -0.000770917              -0.000107570               0.999999984              -0.000790629              -0.000096783               0.999999984              -0.000801214              -0.000092848               0.999999984              -0.000809593              -0.000092684               0.999999984              -0.000818241              -0.000094443               0.999999984              -0.000827890              -0.000097080               0.999999984              -0.000838705              -0.000100044               0.999999984              -0.000850592              -0.000102850               0.999999984              -0.000863340              -0.000105370               0.999999984              -0.000876772              -0.000107211               0.999999984              -0.000890455              -0.000107794               0.999999984              -0.000903956              -0.000106885               0.999999984              -0.000917009              -0.000104371               0.999999984              -0.000929233              -0.000099621               0.999999984              -0.000940182              -0.000091806               0.999999984              -0.000949183              -0.000079807               0.999999984              -0.000711920              -0.000262696               0.999999984              -0.000748019              -0.000214357               0.999999984              -0.000760965              -0.000193865               0.999999984              -0.000767558              -0.000187010               0.999999984              -0.000773452              -0.000187419               0.999999984              -0.000780322              -0.000191220               0.999999984              -0.000788584              -0.000196716               0.999999984              -0.000798038              -0.000202643               0.999999984              -0.000808373              -0.000208164               0.999999984              -0.000819184              -0.000212987               0.999999984              -0.000830132              -0.000216396               0.999999984              -0.000840838              -0.000217499               0.999999984              -0.000850844              -0.000215733               0.999999984              -0.000859711              -0.000210688               0.999999984              -0.000867029              -0.000201491               0.999999984              -0.000872408              -0.000186730               0.999999984              -0.000875538              -0.000164882               0.999999984              -0.000692499              -0.000390658               0.999999984              -0.000711019              -0.000319856               0.999999984              -0.000714053              -0.000291695               0.999999984              -0.000715160              -0.000283489               0.999999984              -0.000717884              -0.000285389               0.999999984              -0.000722720              -0.000291851               0.999999984              -0.000729306              -0.000300326               0.999999984              -0.000736892              -0.000309150               0.999999984              -0.000744840              -0.000317241               0.999999984              -0.000752729              -0.000323994               0.999999984              -0.000759952              -0.000328671               0.999999984              -0.000766003              -0.000330010               0.999999984              -0.000770454              -0.000327263               0.999999984              -0.000772802              -0.000319759               0.999999984              -0.000772725              -0.000306664               0.999999984              -0.000770302              -0.000287286               0.999999984              -0.000765798              -0.000260609               0.999999984              -0.000665586              -0.000514792               0.999999984              -0.000661620              -0.000423898               0.999999984              -0.000653714              -0.000390506               0.999999984              -0.000649548              -0.000382523               0.999999984              -0.000649589              -0.000386788               0.999999984              -0.000652737              -0.000396472               0.999999984              -0.000657658              -0.000408054               0.999999984              -0.000663086              -0.000419680               0.999999984              -0.000668170              -0.000430007               0.999999984              -0.000672270              -0.000438432               0.999999984              -0.000674562              -0.000443821               0.999999984              -0.000674451              -0.000444927               0.999999984              -0.000671603              -0.000440960               0.999999984              -0.000665916              -0.000431461               0.999999984              -0.000657470              -0.000416285               0.999999984              -0.000646677              -0.000395410               0.999999984              -0.000634233              -0.000368922               0.999999984              -0.000631813              -0.000633756               0.999999984              -0.000602490              -0.000526350               0.999999984              -0.000584525              -0.000490309               0.999999984              -0.000576501              -0.000483951               0.999999984              -0.000575084              -0.000491313               0.999999984              -0.000577298              -0.000504210               0.999999984              -0.000580794              -0.000518750               0.999999984              -0.000583963              -0.000532847               0.999999984              -0.000585776              -0.000545144               0.999999984              -0.000585289              -0.000554562               0.999999984              -0.000581623              -0.000559898               0.999999984              -0.000574403              -0.000560186               0.999999984              -0.000563593              -0.000555051               0.999999984              -0.000549526              -0.000544514               0.999999984              -0.000532760              -0.000528908               0.999999984              -0.000514016              -0.000508991               0.999999984              -0.000494128              -0.000485679               0.999999984              -0.000591721              -0.000746458               0.999999984              -0.000536688              -0.000627209               0.999999984              -0.000511134              -0.000590802               0.999999984              -0.000501586              -0.000586839               0.999999984              -0.000500302              -0.000597312               0.999999984              -0.000502243              -0.000613185               0.999999984              -0.000504367              -0.000630388               0.999999984              -0.000504943              -0.000646652               0.999999984              -0.000502849              -0.000660375               0.999999984              -0.000496971              -0.000669977               0.999999984              -0.000486631              -0.000674485               0.999999984              -0.000471790              -0.000673608               0.999999984              -0.000452872              -0.000667476               0.999999984              -0.000430625              -0.000656570               0.999999984              -0.000405847              -0.000641671               0.999999984              -0.000379381              -0.000623778               0.999999984              -0.000351856              -0.000604037               0.999999984              -0.000546176              -0.000851870               0.999999984              -0.000467485              -0.000726360               0.999999984              -0.000437816              -0.000691141               0.999999984              -0.000429302              -0.000689601               0.999999984              -0.000429238              -0.000702718               0.999999984              -0.000431259              -0.000721142               0.999999984              -0.000431921              -0.000740471               0.999999984              -0.000429436              -0.000758361               0.999999984              -0.000422622              -0.000772653               0.999999984              -0.000410364              -0.000781856               0.999999984              -0.000392512              -0.000785361               0.999999984              -0.000369399              -0.000783449               0.999999984              -0.000341891              -0.000776892               0.999999984              -0.000310987              -0.000766504               0.999999984              -0.000277672              -0.000753145               0.999999984              -0.000242691              -0.000737906               0.999999984              -0.000206712              -0.000721485               0.999999984              -0.000496929              -0.000948162               0.999999984              -0.000397319              -0.000823740               0.999999984              -0.000368347              -0.000789902               0.999999984              -0.000362473              -0.000790327               0.999999984              -0.000364350              -0.000805509               0.999999984              -0.000366462              -0.000825902               0.999999984              -0.000365247              -0.000846875               0.999999984              -0.000358986              -0.000865607               0.999999984              -0.000346254              -0.000879819               0.999999984              -0.000326494              -0.000888372               0.999999984              -0.000299909              -0.000891237               0.999999984              -0.000267380              -0.000889000               0.999999984              -0.000230243              -0.000882931               0.999999984              -0.000189707              -0.000873937               0.999999984              -0.000146899              -0.000863121               0.999999984              -0.000102885              -0.000851313               0.999999984              -0.000058597              -0.000839072               0.999999984              -0.000446243              -0.001038938               0.999999984              -0.000339031              -0.000931898               0.999999984              -0.000306854              -0.000893889               0.999999984              -0.000299588              -0.000888397               0.999999984              -0.000301040              -0.000898632               0.999999984              -0.000303861              -0.000916139               0.999999984              -0.000304075              -0.000935987               0.999999984              -0.000300126              -0.000955600               0.999999984              -0.000290640              -0.000972830               0.999999984              -0.000274776              -0.000986494               0.999999984              -0.000252428              -0.000995801               0.999999984              -0.000223646              -0.001000800               0.999999984              -0.000189381              -0.001001980               0.999999984              -0.000150721              -0.001000484               0.999999984              -0.000108711              -0.000996866               0.999999984              -0.000064515              -0.000992060               0.999999984              -0.000019557              -0.000986595               0.999999984              -0.000390740              -0.001121465               0.999999984              -0.000283655              -0.001036287               0.999999984              -0.000248467              -0.001000271               0.999999984              -0.000239066              -0.000991482               0.999999984              -0.000239205              -0.000998085               0.999999984              -0.000242027              -0.001013086               0.999999984              -0.000243155              -0.001031904               0.999999984              -0.000240837              -0.001051964               0.999999984              -0.000233915              -0.001071469               0.999999984              -0.000221578              -0.001088983               0.999999984              -0.000203377              -0.001103601               0.999999984              -0.000178761              -0.001114921               0.999999984              -0.000147992              -0.001122897               0.999999984              -0.000111904              -0.001128102               0.999999984              -0.000071408              -0.001131306               0.999999984              -0.000027520              -0.001133098               0.999999984               0.000018396              -0.001134162               0.999999984              -0.000331553              -0.001193863               0.999999984              -0.000231063              -0.001133948               0.999999984              -0.000194671              -0.001104326               0.999999984              -0.000183071              -0.001095698               0.999999984              -0.000181431              -0.001100649               0.999999984              -0.000183335              -0.001114110               0.999999984              -0.000184761              -0.001132426               0.999999984              -0.000183466              -0.001153079               0.999999984              -0.000178479              -0.001174556               0.999999984              -0.000169121              -0.001195259               0.999999984              -0.000154646              -0.001214330               0.999999984              -0.000134278              -0.001231203               0.999999984              -0.000107689              -0.001245482               0.999999984              -0.000075125              -0.001257109               0.999999984              -0.000036959              -0.001266592               0.999999984               0.000006132              -0.001274601               0.999999984               0.000053136              -0.001281842               0.999999984              -0.000269263              -0.001254919               0.999999984              -0.000181299              -0.001220870               0.999999984              -0.000146274              -0.001200887               0.999999984              -0.000133383              -0.001195324               0.999999984              -0.000129981              -0.001200851               0.999999984              -0.000130523              -0.001214267               0.999999984              -0.000131558              -0.001232918               0.999999984              -0.000130868              -0.001254700               0.999999984              -0.000127372              -0.001278059               0.999999984              -0.000120488              -0.001301957               0.999999984              -0.000109265              -0.001325295               0.999999984              -0.000093067              -0.001347278               0.999999984              -0.000071027              -0.001367471               0.999999984              -0.000042809              -0.001385558               0.999999984              -0.000008139              -0.001401606               0.999999984               0.000033268              -0.001415968               0.999999984               0.000081053              -0.001429292               0.999999984              -0.000204353              -0.001303626               0.999999984              -0.000133950              -0.001293279               0.999999984              -0.000103537              -0.001284262               0.999999984              -0.000090962              -0.001283734               0.999999984              -0.000086540              -0.001291605               0.999999984              -0.000085835              -0.001306364               0.999999984              -0.000086181              -0.001326202               0.999999984              -0.000085720              -0.001349566               0.999999984              -0.000083253              -0.001375264               0.999999984              -0.000078289              -0.001402405               0.999999984              -0.000070227              -0.001430002               0.999999984              -0.000058061              -0.001457099               0.999999984              -0.000040952              -0.001483109               0.999999984              -0.000018172              -0.001507675               0.999999984               0.000011236              -0.001530536               0.999999984               0.000048330              -0.001551706               0.999999984               0.000094029              -0.001571406               0.999999984              -0.000137399              -0.001338993               0.999999984              -0.000088383              -0.001347681               0.999999984              -0.000065852              -0.001348939               0.999999984              -0.000055644              -0.001353893               0.999999984              -0.000051515              -0.001364838               0.999999984              -0.000050260              -0.001381443               0.999999984              -0.000050166              -0.001402843               0.999999984              -0.000049667              -0.001427996               0.999999984              -0.000048116              -0.001455939               0.999999984              -0.000044842              -0.001485967               0.999999984              -0.000039499              -0.001517364               0.999999984              -0.000031475              -0.001549296               0.999999984              -0.000019845              -0.001580819               0.999999984              -0.000003711              -0.001611570               0.999999984               0.000017999              -0.001641142               0.999999984               0.000046675              -0.001669133               0.999999984               0.000084191              -0.001695281               0.999999984              -0.000069048              -0.001360492               0.999999984              -0.000043915              -0.001381408               0.999999984              -0.000031924              -0.001389953               0.999999984              -0.000026153              -0.001399108               0.999999984              -0.000023654              -0.001412529               0.999999984              -0.000022816              -0.001430734               0.999999984              -0.000022549              -0.001453467               0.999999984              -0.000022178              -0.001480048               0.999999984              -0.000021407              -0.001509738               0.999999984              -0.000019801              -0.001541921               0.999999984              -0.000017080              -0.001575948               0.999999984              -0.000013065              -0.001611216               0.999999984              -0.000007306              -0.001646941               0.999999984               0.000001026              -0.001682593               0.999999984               0.000012581              -0.001717604               0.999999984               0.000028376              -0.001751247               0.999999984               0.000050135              -0.001782662               0.999999984               0.000000000              -0.001367749               0.999999984              -0.000000000              -0.001392876               0.999999984               0.000000000              -0.001404022               0.999999984               0.000000000              -0.001414696               0.999999984              -0.000000000              -0.001429007               0.999999984              -0.000000000              -0.001447845               0.999999984              -0.000000000              -0.001471114               0.999999984              -0.000000000              -0.001498228               0.999999984              -0.000000000              -0.001528556               0.999999984              -0.000000000              -0.001561600               0.999999984              -0.000000000              -0.001596620               0.999999984              -0.000000000              -0.001633122               0.999999984              -0.000000000              -0.001670492               0.999999984               0.000000000              -0.001708135               0.999999984               0.000000000              -0.001745379               0.999999984               0.000000000              -0.001781398               0.999999984              -0.000000000              -0.001815053               0.999999984               0.000727617              -0.000000000               0.999999984               0.000778695              -0.000000000               0.999999984               0.000800824              -0.000000000               0.999999984               0.000812934              -0.000000000               0.999999984               0.000822162               0.000000000               0.999999984               0.000831345              -0.000000000               0.999999984               0.000841470               0.000000000               0.999999984               0.000852792               0.000000000               0.999999984               0.000865290              -0.000000000               0.999999984               0.000878770               0.000000000               0.999999984               0.000892985               0.000000000               0.999999984               0.000907549               0.000000000               0.999999984               0.000922147               0.000000000               0.999999984               0.000936447               0.000000000               0.999999984               0.000950171              -0.000000000               0.999999984               0.000962946               0.000000000               0.999999984               0.000974026              -0.000000000               0.999999984               0.000723659              -0.000132077               0.999999984               0.000770917              -0.000107570               0.999999984               0.000790629              -0.000096783               0.999999984               0.000801214              -0.000092848               0.999999984               0.000809593              -0.000092684               0.999999984               0.000818241              -0.000094443               0.999999984               0.000827890              -0.000097080               0.999999984               0.000838705              -0.000100044               0.999999984               0.000850592              -0.000102850               0.999999984               0.000863340              -0.000105370               0.999999984               0.000876772              -0.000107211               0.999999984               0.000890455              -0.000107794               0.999999984               0.000903956              -0.000106885               0.999999984               0.000917009              -0.000104371               0.999999984               0.000929233              -0.000099621               0.999999984               0.000940182              -0.000091806               0.999999984               0.000949183              -0.000079807               0.999999984               0.000711920              -0.000262696               0.999999984               0.000748019              -0.000214357               0.999999984               0.000760965              -0.000193865               0.999999984               0.000767558              -0.000187010               0.999999984               0.000773452              -0.000187419               0.999999984               0.000780322              -0.000191220               0.999999984               0.000788584              -0.000196716               0.999999984               0.000798038              -0.000202643               0.999999984               0.000808373              -0.000208164               0.999999984               0.000819184              -0.000212987               0.999999984               0.000830132              -0.000216396               0.999999984               0.000840838              -0.000217499               0.999999984               0.000850844              -0.000215733               0.999999984               0.000859711              -0.000210688               0.999999984               0.000867029              -0.000201491               0.999999984               0.000872408              -0.000186730               0.999999984               0.000875538              -0.000164882               0.999999984               0.000692499              -0.000390658               0.999999984               0.000711019              -0.000319856               0.999999984               0.000714053              -0.000291695               0.999999984               0.000715160              -0.000283489               0.999999984               0.000717884              -0.000285389               0.999999984               0.000722720              -0.000291851               0.999999984               0.000729306              -0.000300326               0.999999984               0.000736892              -0.000309150               0.999999984               0.000744840              -0.000317241               0.999999984               0.000752729              -0.000323994               0.999999984               0.000759952              -0.000328671               0.999999984               0.000766003              -0.000330010               0.999999984               0.000770454              -0.000327263               0.999999984               0.000772802              -0.000319759               0.999999984               0.000772725              -0.000306664               0.999999984               0.000770302              -0.000287286               0.999999984               0.000765798              -0.000260609               0.999999984               0.000665586              -0.000514792               0.999999984               0.000661620              -0.000423898               0.999999984               0.000653714              -0.000390506               0.999999984               0.000649548              -0.000382523               0.999999984               0.000649589              -0.000386788               0.999999984               0.000652737              -0.000396472               0.999999984               0.000657658              -0.000408054               0.999999984               0.000663086              -0.000419680               0.999999984               0.000668170              -0.000430007               0.999999984               0.000672270              -0.000438432               0.999999984               0.000674562              -0.000443821               0.999999984               0.000674451              -0.000444927               0.999999984               0.000671603              -0.000440960               0.999999984               0.000665916              -0.000431461               0.999999984               0.000657470              -0.000416285               0.999999984               0.000646677              -0.000395410               0.999999984               0.000634233              -0.000368922               0.999999984               0.000631813              -0.000633756               0.999999984               0.000602490              -0.000526350               0.999999984               0.000584525              -0.000490309               0.999999984               0.000576501              -0.000483951               0.999999984               0.000575084              -0.000491313               0.999999984               0.000577298              -0.000504210               0.999999984               0.000580794              -0.000518750               0.999999984               0.000583963              -0.000532847               0.999999984               0.000585776              -0.000545144               0.999999984               0.000585289              -0.000554562               0.999999984               0.000581623              -0.000559898               0.999999984               0.000574403              -0.000560186               0.999999984               0.000563593              -0.000555051               0.999999984               0.000549526              -0.000544514               0.999999984               0.000532760              -0.000528908               0.999999984               0.000514016              -0.000508991               0.999999984               0.000494128              -0.000485679               0.999999984               0.000591721              -0.000746458               0.999999984               0.000536688              -0.000627209               0.999999984               0.000511134              -0.000590802               0.999999984               0.000501586              -0.000586839               0.999999984               0.000500302              -0.000597312               0.999999984               0.000502243              -0.000613185               0.999999984               0.000504367              -0.000630388               0.999999984               0.000504943              -0.000646652               0.999999984               0.000502849              -0.000660375               0.999999984               0.000496971              -0.000669977               0.999999984               0.000486631              -0.000674485               0.999999984               0.000471790              -0.000673608               0.999999984               0.000452872              -0.000667476               0.999999984               0.000430625              -0.000656570               0.999999984               0.000405847              -0.000641671               0.999999984               0.000379381              -0.000623778               0.999999984               0.000351856              -0.000604037               0.999999984               0.000546176              -0.000851870               0.999999984               0.000467485              -0.000726360               0.999999984               0.000437816              -0.000691141               0.999999984               0.000429302              -0.000689601               0.999999984               0.000429238              -0.000702718               0.999999984               0.000431259              -0.000721142               0.999999984               0.000431921              -0.000740471               0.999999984               0.000429436              -0.000758361               0.999999984               0.000422622              -0.000772653               0.999999984               0.000410364              -0.000781856               0.999999984               0.000392512              -0.000785361               0.999999984               0.000369399              -0.000783449               0.999999984               0.000341891              -0.000776892               0.999999984               0.000310987              -0.000766504               0.999999984               0.000277672              -0.000753145               0.999999984               0.000242691              -0.000737906               0.999999984               0.000206712              -0.000721485               0.999999984               0.000496929              -0.000948162               0.999999984               0.000397319              -0.000823740               0.999999984               0.000368347              -0.000789902               0.999999984               0.000362473              -0.000790327               0.999999984               0.000364350              -0.000805509               0.999999984               0.000366462              -0.000825902               0.999999984               0.000365247              -0.000846875               0.999999984               0.000358986              -0.000865607               0.999999984               0.000346254              -0.000879819               0.999999984               0.000326494              -0.000888372               0.999999984               0.000299909              -0.000891237               0.999999984               0.000267380              -0.000889000               0.999999984               0.000230243              -0.000882931               0.999999984               0.000189707              -0.000873937               0.999999984               0.000146899              -0.000863121               0.999999984               0.000102885              -0.000851313               0.999999984               0.000058597              -0.000839072               0.999999984               0.000446243              -0.001038938               0.999999984               0.000339031              -0.000931898               0.999999984               0.000306854              -0.000893889               0.999999984               0.000299588              -0.000888397               0.999999984               0.000301040              -0.000898632               0.999999984               0.000303861              -0.000916139               0.999999984               0.000304075              -0.000935987               0.999999984               0.000300126              -0.000955600               0.999999984               0.000290640              -0.000972830               0.999999984               0.000274776              -0.000986494               0.999999984               0.000252428              -0.000995801               0.999999984               0.000223646              -0.001000800               0.999999984               0.000189381              -0.001001980               0.999999984               0.000150721              -0.001000484               0.999999984               0.000108711              -0.000996866               0.999999984               0.000064515              -0.000992060               0.999999984               0.000019557              -0.000986595               0.999999984               0.000390740              -0.001121465               0.999999984               0.000283655              -0.001036287               0.999999984               0.000248467              -0.001000271               0.999999984               0.000239066              -0.000991482               0.999999984               0.000239205              -0.000998085               0.999999984               0.000242027              -0.001013086               0.999999984               0.000243155              -0.001031904               0.999999984               0.000240837              -0.001051964               0.999999984               0.000233915              -0.001071469               0.999999984               0.000221578              -0.001088983               0.999999984               0.000203377              -0.001103601               0.999999984               0.000178761              -0.001114921               0.999999984               0.000147992              -0.001122897               0.999999984               0.000111904              -0.001128102               0.999999984               0.000071408              -0.001131306               0.999999984               0.000027520              -0.001133098               0.999999984              -0.000018396              -0.001134162               0.999999984               0.000331553              -0.001193863               0.999999984               0.000231063              -0.001133948               0.999999984               0.000194671              -0.001104326               0.999999984               0.000183071              -0.001095698               0.999999984               0.000181431              -0.001100649               0.999999984               0.000183335              -0.001114110               0.999999984               0.000184761              -0.001132426               0.999999984               0.000183466              -0.001153079               0.999999984               0.000178479              -0.001174556               0.999999984               0.000169121              -0.001195259               0.999999984               0.000154646              -0.001214330               0.999999984               0.000134278              -0.001231203               0.999999984               0.000107689              -0.001245482               0.999999984               0.000075125              -0.001257109               0.999999984               0.000036959              -0.001266592               0.999999984              -0.000006132              -0.001274601               0.999999984              -0.000053136              -0.001281842               0.999999984               0.000269263              -0.001254919               0.999999984               0.000181299              -0.001220870               0.999999984               0.000146274              -0.001200887               0.999999984               0.000133383              -0.001195324               0.999999984               0.000129981              -0.001200851               0.999999984               0.000130523              -0.001214267               0.999999984               0.000131558              -0.001232918               0.999999984               0.000130868              -0.001254700               0.999999984               0.000127372              -0.001278059               0.999999984               0.000120488              -0.001301957               0.999999984               0.000109265              -0.001325295               0.999999984               0.000093067              -0.001347278               0.999999984               0.000071027              -0.001367471               0.999999984               0.000042809              -0.001385558               0.999999984               0.000008139              -0.001401606               0.999999984              -0.000033268              -0.001415968               0.999999984              -0.000081053              -0.001429292               0.999999984               0.000204353              -0.001303626               0.999999984               0.000133950              -0.001293279               0.999999984               0.000103537              -0.001284262               0.999999984               0.000090962              -0.001283734               0.999999984               0.000086540              -0.001291605               0.999999984               0.000085835              -0.001306364               0.999999984               0.000086181              -0.001326202               0.999999984               0.000085720              -0.001349566               0.999999984               0.000083253              -0.001375264               0.999999984               0.000078289              -0.001402405               0.999999984               0.000070227              -0.001430002               0.999999984               0.000058061              -0.001457099               0.999999984               0.000040952              -0.001483109               0.999999984               0.000018172              -0.001507675               0.999999984              -0.000011236              -0.001530536               0.999999984              -0.000048330              -0.001551706               0.999999984              -0.000094029              -0.001571406               0.999999984               0.000137399              -0.001338993               0.999999984               0.000088383              -0.001347681               0.999999984               0.000065852              -0.001348939               0.999999984               0.000055644              -0.001353893               0.999999984               0.000051515              -0.001364838               0.999999984               0.000050260              -0.001381443               0.999999984               0.000050166              -0.001402843               0.999999984               0.000049667              -0.001427996               0.999999984               0.000048116              -0.001455939               0.999999984               0.000044842              -0.001485967               0.999999984               0.000039499              -0.001517364               0.999999984               0.000031475              -0.001549296               0.999999984               0.000019845              -0.001580819               0.999999984               0.000003711              -0.001611570               0.999999984              -0.000017999              -0.001641142               0.999999984              -0.000046675              -0.001669133               0.999999984              -0.000084191              -0.001695281               0.999999984               0.000069048              -0.001360492               0.999999984               0.000043915              -0.001381408               0.999999984               0.000031924              -0.001389953               0.999999984               0.000026153              -0.001399108               0.999999984               0.000023654              -0.001412529               0.999999984               0.000022816              -0.001430734               0.999999984               0.000022549              -0.001453467               0.999999984               0.000022178              -0.001480048               0.999999984               0.000021407              -0.001509738               0.999999984               0.000019801              -0.001541921               0.999999984               0.000017080              -0.001575948               0.999999984               0.000013065              -0.001611216               0.999999984               0.000007306              -0.001646941               0.999999984              -0.000001026              -0.001682593               0.999999984              -0.000012581              -0.001717604               0.999999984              -0.000028376              -0.001751247               0.999999984              -0.000050135              -0.001782662               0.999999984               0.000000000              -0.001367749               0.999999984              -0.000000000              -0.001392876               0.999999984               0.000000000              -0.001404022               0.999999984               0.000000000              -0.001414696               0.999999984              -0.000000000              -0.001429007               0.999999984              -0.000000000              -0.001447845               0.999999984              -0.000000000              -0.001471114               0.999999984              -0.000000000              -0.001498228               0.999999984              -0.000000000              -0.001528556               0.999999984              -0.000000000              -0.001561600               0.999999984              -0.000000000              -0.001596620               0.999999984              -0.000000000              -0.001633122               0.999999984              -0.000000000              -0.001670492               0.999999984               0.000000000              -0.001708135               0.999999984               0.000000000              -0.001745379               0.999999984               0.000000000              -0.001781398               0.999999984              -0.000000000              -0.001815053               0.999999984               0.000727617              -0.000000000               0.999999984               0.000778695              -0.000000000               0.999999984               0.000800824              -0.000000000               0.999999984               0.000812934              -0.000000000               0.999999984               0.000822162               0.000000000               0.999999984               0.000831345              -0.000000000               0.999999984               0.000841470               0.000000000               0.999999984               0.000852792               0.000000000               0.999999984               0.000865290              -0.000000000               0.999999984               0.000878770               0.000000000               0.999999984               0.000892985               0.000000000               0.999999984               0.000907549               0.000000000               0.999999984               0.000922147               0.000000000               0.999999984               0.000936447               0.000000000               0.999999984               0.000950171              -0.000000000               0.999999984               0.000962946               0.000000000               0.999999984               0.000974026              -0.000000000               0.999999984               0.000723659               0.000132077               0.999999984               0.000770917               0.000107570               0.999999984               0.000790629               0.000096783               0.999999984               0.000801214               0.000092848               0.999999984               0.000809593               0.000092684               0.999999984               0.000818241               0.000094443               0.999999984               0.000827890               0.000097080               0.999999984               0.000838705               0.000100044               0.999999984               0.000850592               0.000102850               0.999999984               0.000863340               0.000105370               0.999999984               0.000876772               0.000107211               0.999999984               0.000890455               0.000107794               0.999999984               0.000903956               0.000106885               0.999999984               0.000917009               0.000104371               0.999999984               0.000929233               0.000099621               0.999999984               0.000940182               0.000091806               0.999999984               0.000949183               0.000079807               0.999999984               0.000711920               0.000262696               0.999999984               0.000748019               0.000214357               0.999999984               0.000760965               0.000193865               0.999999984               0.000767558               0.000187010               0.999999984               0.000773452               0.000187419               0.999999984               0.000780322               0.000191220               0.999999984               0.000788584               0.000196716               0.999999984               0.000798038               0.000202643               0.999999984               0.000808373               0.000208164               0.999999984               0.000819184               0.000212987               0.999999984               0.000830132               0.000216396               0.999999984               0.000840838               0.000217499               0.999999984               0.000850844               0.000215733               0.999999984               0.000859711               0.000210688               0.999999984               0.000867029               0.000201491               0.999999984               0.000872408               0.000186730               0.999999984               0.000875538               0.000164882               0.999999984               0.000692499               0.000390658               0.999999984               0.000711019               0.000319856               0.999999984               0.000714053               0.000291695               0.999999984               0.000715160               0.000283489               0.999999984               0.000717884               0.000285389               0.999999984               0.000722720               0.000291851               0.999999984               0.000729306               0.000300326               0.999999984               0.000736892               0.000309150               0.999999984               0.000744840               0.000317241               0.999999984               0.000752729               0.000323994               0.999999984               0.000759952               0.000328671               0.999999984               0.000766003               0.000330010               0.999999984               0.000770454               0.000327263               0.999999984               0.000772802               0.000319759               0.999999984               0.000772725               0.000306664               0.999999984               0.000770302               0.000287286               0.999999984               0.000765798               0.000260609               0.999999984               0.000665586               0.000514792               0.999999984               0.000661620               0.000423898               0.999999984               0.000653714               0.000390506               0.999999984               0.000649548               0.000382523               0.999999984               0.000649589               0.000386788               0.999999984               0.000652737               0.000396472               0.999999984               0.000657658               0.000408054               0.999999984               0.000663086               0.000419680               0.999999984               0.000668170               0.000430007               0.999999984               0.000672270               0.000438432               0.999999984               0.000674562               0.000443821               0.999999984               0.000674451               0.000444927               0.999999984               0.000671603               0.000440960               0.999999984               0.000665916               0.000431461               0.999999984               0.000657470               0.000416285               0.999999984               0.000646677               0.000395410               0.999999984               0.000634233               0.000368922               0.999999984               0.000631813               0.000633756               0.999999984               0.000602490               0.000526350               0.999999984               0.000584525               0.000490309               0.999999984               0.000576501               0.000483951               0.999999984               0.000575084               0.000491313               0.999999984               0.000577298               0.000504210               0.999999984               0.000580794               0.000518750               0.999999984               0.000583963               0.000532847               0.999999984               0.000585776               0.000545144               0.999999984               0.000585289               0.000554562               0.999999984               0.000581623               0.000559898               0.999999984               0.000574403               0.000560186               0.999999984               0.000563593               0.000555051               0.999999984               0.000549526               0.000544514               0.999999984               0.000532760               0.000528908               0.999999984               0.000514016               0.000508991               0.999999984               0.000494128               0.000485679               0.999999984               0.000591721               0.000746458               0.999999984               0.000536688               0.000627209               0.999999984               0.000511134               0.000590802               0.999999984               0.000501586               0.000586839               0.999999984               0.000500302               0.000597312               0.999999984               0.000502243               0.000613185               0.999999984               0.000504367               0.000630388               0.999999984               0.000504943               0.000646652               0.999999984               0.000502849               0.000660375               0.999999984               0.000496971               0.000669977               0.999999984               0.000486631               0.000674485               0.999999984               0.000471790               0.000673608               0.999999984               0.000452872               0.000667476               0.999999984               0.000430625               0.000656570               0.999999984               0.000405847               0.000641671               0.999999984               0.000379381               0.000623778               0.999999984               0.000351856               0.000604037               0.999999984               0.000546176               0.000851870               0.999999984               0.000467485               0.000726360               0.999999984               0.000437816               0.000691141               0.999999984               0.000429302               0.000689601               0.999999984               0.000429238               0.000702718               0.999999984               0.000431259               0.000721142               0.999999984               0.000431921               0.000740471               0.999999984               0.000429436               0.000758361               0.999999984               0.000422622               0.000772653               0.999999984               0.000410364               0.000781856               0.999999984               0.000392512               0.000785361               0.999999984               0.000369399               0.000783449               0.999999984               0.000341891               0.000776892               0.999999984               0.000310987               0.000766504               0.999999984               0.000277672               0.000753145               0.999999984               0.000242691               0.000737906               0.999999984               0.000206712               0.000721485               0.999999984               0.000496929               0.000948162               0.999999984               0.000397319               0.000823740               0.999999984               0.000368347               0.000789902               0.999999984               0.000362473               0.000790327               0.999999984               0.000364350               0.000805509               0.999999984               0.000366462               0.000825902               0.999999984               0.000365247               0.000846875               0.999999984               0.000358986               0.000865607               0.999999984               0.000346254               0.000879819               0.999999984               0.000326494               0.000888372               0.999999984               0.000299909               0.000891237               0.999999984               0.000267380               0.000889000               0.999999984               0.000230243               0.000882931               0.999999984               0.000189707               0.000873937               0.999999984               0.000146899               0.000863121               0.999999984               0.000102885               0.000851313               0.999999984               0.000058597               0.000839072               0.999999984               0.000446243               0.001038938               0.999999984               0.000339031               0.000931898               0.999999984               0.000306854               0.000893889               0.999999984               0.000299588               0.000888397               0.999999984               0.000301040               0.000898632               0.999999984               0.000303861               0.000916139               0.999999984               0.000304075               0.000935987               0.999999984               0.000300126               0.000955600               0.999999984               0.000290640               0.000972830               0.999999984               0.000274776               0.000986494               0.999999984               0.000252428               0.000995801               0.999999984               0.000223646               0.001000800               0.999999984               0.000189381               0.001001980               0.999999984               0.000150721               0.001000484               0.999999984               0.000108711               0.000996866               0.999999984               0.000064515               0.000992060               0.999999984               0.000019557               0.000986595               0.999999984               0.000390740               0.001121465               0.999999984               0.000283655               0.001036287               0.999999984               0.000248467               0.001000271               0.999999984               0.000239066               0.000991482               0.999999984               0.000239205               0.000998085               0.999999984               0.000242027               0.001013086               0.999999984               0.000243155               0.001031904               0.999999984               0.000240837               0.001051964               0.999999984               0.000233915               0.001071469               0.999999984               0.000221578               0.001088983               0.999999984               0.000203377               0.001103601               0.999999984               0.000178761               0.001114921               0.999999984               0.000147992               0.001122897               0.999999984               0.000111904               0.001128102               0.999999984               0.000071408               0.001131306               0.999999984               0.000027520               0.001133098               0.999999984              -0.000018396               0.001134162               0.999999984               0.000331553               0.001193863               0.999999984               0.000231063               0.001133948               0.999999984               0.000194671               0.001104326               0.999999984               0.000183071               0.001095698               0.999999984               0.000181431               0.001100649               0.999999984               0.000183335               0.001114110               0.999999984               0.000184761               0.001132426               0.999999984               0.000183466               0.001153079               0.999999984               0.000178479               0.001174556               0.999999984               0.000169121               0.001195259               0.999999984               0.000154646               0.001214330               0.999999984               0.000134278               0.001231203               0.999999984               0.000107689               0.001245482               0.999999984               0.000075125               0.001257109               0.999999984               0.000036959               0.001266592               0.999999984              -0.000006132               0.001274601               0.999999984              -0.000053136               0.001281842               0.999999984               0.000269263               0.001254919               0.999999984               0.000181299               0.001220870               0.999999984               0.000146274               0.001200887               0.999999984               0.000133383               0.001195324               0.999999984               0.000129981               0.001200851               0.999999984               0.000130523               0.001214267               0.999999984               0.000131558               0.001232918               0.999999984               0.000130868               0.001254700               0.999999984               0.000127372               0.001278059               0.999999984               0.000120488               0.001301957               0.999999984               0.000109265               0.001325295               0.999999984               0.000093067               0.001347278               0.999999984               0.000071027               0.001367471               0.999999984               0.000042809               0.001385558               0.999999984               0.000008139               0.001401606               0.999999984              -0.000033268               0.001415968               0.999999984              -0.000081053               0.001429292               0.999999984               0.000204353               0.001303626               0.999999984               0.000133950               0.001293279               0.999999984               0.000103537               0.001284262               0.999999984               0.000090962               0.001283734               0.999999984               0.000086540               0.001291605               0.999999984               0.000085835               0.001306364               0.999999984               0.000086181               0.001326202               0.999999984               0.000085720               0.001349566               0.999999984               0.000083253               0.001375264               0.999999984               0.000078289               0.001402405               0.999999984               0.000070227               0.001430002               0.999999984               0.000058061               0.001457099               0.999999984               0.000040952               0.001483109               0.999999984               0.000018172               0.001507675               0.999999984              -0.000011236               0.001530536               0.999999984              -0.000048330               0.001551706               0.999999984              -0.000094029               0.001571406               0.999999984               0.000137399               0.001338993               0.999999984               0.000088383               0.001347681               0.999999984               0.000065852               0.001348939               0.999999984               0.000055644               0.001353893               0.999999984               0.000051515               0.001364838               0.999999984               0.000050260               0.001381443               0.999999984               0.000050166               0.001402843               0.999999984               0.000049667               0.001427996               0.999999984               0.000048116               0.001455939               0.999999984               0.000044842               0.001485967               0.999999984               0.000039499               0.001517364               0.999999984               0.000031475               0.001549296               0.999999984               0.000019845               0.001580819               0.999999984               0.000003711               0.001611570               0.999999984              -0.000017999               0.001641142               0.999999984              -0.000046675               0.001669133               0.999999984              -0.000084191               0.001695281               0.999999984               0.000069048               0.001360492               0.999999984               0.000043915               0.001381408               0.999999984               0.000031924               0.001389953               0.999999984               0.000026153               0.001399108               0.999999984               0.000023654               0.001412529               0.999999984               0.000022816               0.001430734               0.999999984               0.000022549               0.001453467               0.999999984               0.000022178               0.001480048               0.999999984               0.000021407               0.001509738               0.999999984               0.000019801               0.001541921               0.999999984               0.000017080               0.001575948               0.999999984               0.000013065               0.001611216               0.999999984               0.000007306               0.001646941               0.999999984              -0.000001026               0.001682593               0.999999984              -0.000012581               0.001717604               0.999999984              -0.000028376               0.001751247               0.999999984              -0.000050135               0.001782662               0.999999984               0.000000000               0.001367749               0.999999984               0.000000000               0.001392876               0.999999984               0.000000000               0.001404022               0.999999984               0.000000000               0.001414696               0.999999984               0.000000000               0.001429007               0.999999984               0.000000000               0.001447845               0.999999984               0.000000000               0.001471114               0.999999984              -0.000000000               0.001498228               0.999999984              -0.000000000               0.001528556               0.999999984               0.000000000               0.001561600               0.999999984              -0.000000000               0.001596620               0.999999984               0.000000000               0.001633122               0.999999984               0.000000000               0.001670492               0.999999984              -0.000000000               0.001708135               0.999999984              -0.000000000               0.001745379               0.999999984               0.000000000               0.001781398               0.999999984               0.000000000               0.001815053               0.999999984 </DataArray>
<DataArray type="Float64"                                    Name="defo"                                                      NumberOfComponents=" 3" format="ascii">
             -0.000727617              -0.000000000               0.999999984              -0.000778695               0.000000000               0.999999984              -0.000800824               0.000000000               0.999999984              -0.000812934              -0.000000000               0.999999984              -0.000822162              -0.000000000               0.999999984              -0.000831345              -0.000000000               0.999999984              -0.000841470               0.000000000               0.999999984              -0.000852792              -0.000000000               0.999999984              -0.000865290               0.000000000               0.999999984              -0.000878770              -0.000000000               0.999999984              -0.000892985               0.000000000               0.999999984              -0.000907549              -0.000000000               0.999999984              -0.000922147               0.000000000               0.999999984              -0.000936447               0.000000000               0.999999984              -0.000950171               0.000000000               0.999999984              -0.000962946               0.000000000               0.999999984              -0.000974026              -0.000000000               0.999999984              -0.000723659               0.000132077               0.999999984              -0.000770917               0.000107570               0.999999984              -0.000790629               0.000096783               0.999999984              -0.000801214               0.000092848               0.999999984              -0.000809593               0.000092684               0.999999984              -0.000818241               0.000094443               0.999999984              -0.000827890               0.000097080               0.999999984              -0.000838705               0.000100044               0.999999984              -0.000850592               0.000102850               0.999999984              -0.000863340               0.000105370               0.999999984              -0.000876772               0.000107211               0.999999984              -0.000890455               0.000107794               0.999999984              -0.000903956               0.000106885               0.999999984              -0.000917009               0.000104371               0.999999984              -0.000929233               0.000099621               0.999999984              -0.000940182               0.000091806               0.999999984              -0.000949183               0.000079807               0.999999984              -0.000711920               0.000262696               0.999999984              -0.000748019               0.000214357               0.999999984              -0.000760965               0.000193865               0.999999984              -0.000767558               0.000187010               0.999999984              -0.000773452               0.000187419               0.999999984              -0.000780322               0.000191220               0.999999984              -0.000788584               0.000196716               0.999999984              -0.000798038               0.000202643               0.999999984              -0.000808373               0.000208164               0.999999984              -0.000819184               0.000212987               0.999999984              -0.000830132               0.000216396               0.999999984              -0.000840838               0.000217499               0.999999984              -0.000850844               0.000215733               0.999999984              -0.000859711               0.000210688               0.999999984              -0.000867029               0.000201491               0.999999984              -0.000872408               0.000186730               0.999999984              -0.000875538               0.000164882               0.999999984              -0.000692499               0.000390658               0.999999984              -0.000711019               0.000319856               0.999999984              -0.000714053               0.000291695               0.999999984              -0.000715160               0.000283489               0.999999984              -0.000717884               0.000285389               0.999999984              -0.000722720               0.000291851               0.999999984              -0.000729306               0.000300326               0.999999984              -0.000736892               0.000309150               0.999999984              -0.000744840               0.000317241               0.999999984              -0.000752729               0.000323994               0.999999984              -0.000759952               0.000328671               0.999999984              -0.000766003               0.000330010               0.999999984              -0.000770454               0.000327263               0.999999984              -0.000772802               0.000319759               0.999999984              -0.000772725               0.000306664               0.999999984              -0.000770302               0.000287286               0.999999984              -0.000765798               0.000260609               0.999999984              -0.000665586               0.000514792               0.999999984              -0.000661620               0.000423898               0.999999984              -0.000653714               0.000390506               0.999999984              -0.000649548               0.000382523               0.999999984              -0.000649589               0.000386788               0.999999984              -0.000652737               0.000396472               0.999999984              -0.000657658               0.000408054               0.999999984              -0.000663086               0.000419680               0.999999984              -0.000668170               0.000430007               0.999999984              -0.000672270               0.000438432               0.999999984              -0.000674562               0.000443821               0.999999984              -0.000674451               0.000444927               0.999999984              -0.000671603               0.000440960               0.999999984              -0.000665916               0.000431461               0.999999984              -0.000657470               0.000416285               0.999999984              -0.000646677               0.000395410               0.999999984              -0.000634233               0.000368922               0.999999984              -0.000631813               0.000633756               0.999999984              -0.000602490               0.000526350               0.999999984              -0.000584525               0.000490309               0.999999984              -0.000576501               0.000483951               0.999999984              -0.000575084               0.000491313               0.999999984              -0.000577298               0.000504210               0.999999984              -0.000580794               0.000518750               0.999999984              -0.000583963               0.000532847               0.999999984              -0.000585776               0.000545144               0.999999984              -0.000585289               0.000554562               0.999999984              -0.000581623               0.000559898               0.999999984              -0.000574403               0.000560186               0.999999984              -0.000563593               0.000555051               0.999999984              -0.000549526               0.000544514               0.999999984              -0.000532760               0.000528908               0.999999984              -0.000514016               0.000508991               0.999999984              -0.000494128               0.000485679               0.999999984              -0.000591721               0.000746458               0.999999984              -0.000536688               0.000627209               0.999999984              -0.000511134               0.000590802               0.999999984              -0.000501586               0.000586839               0.999999984              -0.000500302               0.000597312               0.999999984              -0.000502243               0.000613185               0.999999984              -0.000504367               0.000630388               0.999999984              -0.000504943               0.000646652               0.999999984              -0.000502849               0.000660375               0.999999984              -0.000496971               0.000669977               0.999999984              -0.000486631               0.000674485               0.999999984              -0.000471790               0.000673608               0.999999984              -0.000452872               0.000667476               0.999999984              -0.000430625               0.000656570               0.999999984              -0.000405847               0.000641671               0.999999984              -0.000379381               0.000623778               0.999999984              -0.000351856               0.000604037               0.999999984              -0.000546176               0.000851870               0.999999984              -0.000467485               0.000726360               0.999999984              -0.000437816               0.000691141               0.999999984              -0.000429302               0.000689601               0.999999984              -0.000429238               0.000702718               0.999999984              -0.000431259               0.000721142               0.999999984              -0.000431921               0.000740471               0.999999984              -0.000429436               0.000758361               0.999999984              -0.000422622               0.000772653               0.999999984              -0.000410364               0.000781856               0.999999984              -0.000392512               0.000785361               0.999999984              -0.000369399               0.000783449               0.999999984              -0.000341891               0.000776892               0.999999984              -0.000310987               0.000766504               0.999999984              -0.000277672               0.000753145               0.999999984              -0.000242691               0.000737906               0.999999984              -0.000206712               0.000721485               0.999999984              -0.000496929               0.000948162               0.999999984              -0.000397319               0.000823740               0.999999984              -0.000368347               0.000789902               0.999999984              -0.000362473               0.000790327               0.999999984              -0.000364350               0.000805509               0.999999984              -0.000366462               0.000825902               0.999999984              -0.000365247               0.000846875               0.999999984              -0.000358986               0.000865607               0.999999984              -0.000346254               0.000879819               0.999999984              -0.000326494               0.000888372               0.999999984              -0.000299909               0.000891237               0.999999984              -0.000267380               0.000889000               0.999999984              -0.000230243               0.000882931               0.999999984              -0.000189707               0.000873937               0.999999984              -0.000146899               0.000863121               0.999999984              -0.000102885               0.000851313               0.999999984              -0.000058597               0.000839072               0.999999984              -0.000446243               0.001038938               0.999999984              -0.000339031               0.000931898               0.999999984              -0.000306854               0.000893889               0.999999984              -0.000299588               0.000888397               0.999999984              -0.000301040               0.000898632               0.999999984              -0.000303861               0.000916139               0.999999984              -0.000304075               0.000935987               0.999999984              -0.000300126               0.000955600               0.999999984              -0.000290640               0.000972830               0.999999984              -0.000274776               0.000986494               0.999999984              -0.000252428               0.000995801               0.999999984              -0.000223646               0.001000800               0.999999984              -0.000189381               0.001001980               0.999999984              -0.000150721               0.001000484               0.999999984              -0.000108711               0.000996866               0.999999984              -0.000064515               0.000992060               0.999999984              -0.000019557               0.000986595               0.999999984              -0.000390740               0.001121465               0.999999984              -0.000283655               0.001036287               0.999999984              -0.000248467               0.001000271               0.999999984              -0.000239066               0.000991482               0.999999984              -0.000239205               0.000998085               0.999999984              -0.000242027               0.001013086               0.999999984              -0.000243155               0.001031904               0.999999984              -0.000240837               0.001051964               0.999999984              -0.000233915               0.001071469               0.999999984              -0.000221578               0.001088983               0.999999984              -0.000203377               0.001103601               0.999999984              -0.000178761               0.001114921               0.999999984              -0.000147992               0.001122897               0.999999984              -0.000111904               0.001128102               0.999999984              -0.000071408               0.001131306               0.999999984              -0.000027520               0.001133098               0.999999984               0.000018396               0.001134162               0.999999984              -0.000331553               0.001193863               0.999999984              -0.000231063               0.001133948               0.999999984              -0.000194671               0.001104326               0.999999984              -0.000183071               0.001095698               0.999999984              -0.000181431               0.001100649               0.999999984              -0.000183335               0.001114110               0.999999984              -0.000184761               0.001132426               0.999999984              -0.000183466               0.001153079               0.999999984              -0.000178479               0.001174556               0.999999984              -0.000169121               0.001195259               0.999999984              -0.000154646               0.001214330               0.999999984              -0.000134278               0.001231203               0.999999984              -0.000107689               0.001245482               0.999999984              -0.000075125               0.001257109               0.999999984              -0.000036959               0.001266592               0.999999984               0.000006132               0.001274601               0.999999984               0.000053136               0.001281842               0.999999984              -0.000269263               0.001254919               0.999999984              -0.000181299               0.001220870               0.999999984              -0.000146274               0.001200887               0.999999984              -0.000133383               0.001195324               0.999999984              -0.000129981               0.001200851               0.999999984              -0.000130523               0.001214267               0.999999984              -0.000131558               0.001232918               0.999999984              -0.000130868               0.001254700               0.999999984              -0.000127372               0.001278059               0.999999984              -0.000120488               0.001301957               0.999999984              -0.000109265               0.001325295               0.999999984              -0.000093067               0.001347278               0.999999984              -0.000071027               0.001367471               0.999999984              -0.000042809               0.001385558               0.999999984              -0.000008139               0.001401606               0.999999984               0.000033268               0.001415968               0.999999984               0.000081053               0.001429292               0.999999984              -0.000204353               0.001303626               0.999999984              -0.000133950               0.001293279               0.999999984              -0.000103537               0.001284262               0.999999984              -0.000090962               0.001283734               0.999999984              -0.000086540               0.001291605               0.999999984              -0.000085835               0.001306364               0.999999984              -0.000086181               0.001326202               0.999999984              -0.000085720               0.001349566               0.999999984              -0.000083253               0.001375264               0.999999984              -0.000078289               0.001402405               0.999999984              -0.000070227               0.001430002               0.999999984              -0.000058061               0.001457099               0.999999984              -0.000040952               0.001483109               0.999999984              -0.000018172               0.001507675               0.999999984               0.000011236               0.001530536               0.999999984               0.000048330               0.001551706               0.999999984               0.000094029               0.001571406               0.999999984              -0.000137399               0.001338993               0.999999984              -0.000088383               0.001347681               0.999999984              -0.000065852               0.001348939               0.999999984              -0.000055644               0.001353893               0.999999984              -0.000051515               0.001364838               0.999999984              -0.000050260               0.001381443               0.999999984              -0.000050166               0.001402843               0.999999984              -0.000049667               0.001427996               0.999999984              -0.000048116               0.001455939               0.999999984              -0.000044842               0.001485967               0.999999984              -0.000039499               0.001517364               0.999999984              -0.000031475               0.001549296               0.999999984              -0.000019845               0.001580819               0.999999984              -0.000003711               0.001611570               0.999999984               0.000017999               0.001641142               0.999999984               0.000046675               0.001669133               0.999999984               0.000084191               0.001695281               0.999999984              -0.000069048               0.001360492               0.999999984              -0.000043915               0.001381408               0.999999984              -0.000031924               0.001389953               0.999999984              -0.000026153               0.001399108               0.999999984              -0.000023654               0.001412529               0.999999984              -0.000022816               0.001430734               0.999999984              -0.000022549               0.001453467               0.999999984              -0.000022178               0.001480048               0.999999984              -0.000021407               0.001509738               0.999999984              -0.000019801               0.001541921               0.999999984              -0.000017080               0.001575948               0.999999984              -0.000013065               0.001611216               0.999999984              -0.000007306               0.001646941               0.999999984               0.000001026               0.001682593               0.999999984               0.000012581               0.001717604               0.999999984               0.000028376               0.001751247               0.999999984               0.000050135               0.001782662               0.999999984               0.000000000               0.001367749               0.999999984               0.000000000               0.001392876               0.999999984               0.000000000               0.001404022               0.999999984               0.000000000               0.001414696               0.999999984               0.000000000               0.001429007               0.999999984               0.000000000               0.001447845               0.999999984               0.000000000               0.001471114               0.999999984              -0.000000000               0.001498228               0.999999984              -0.000000000               0.001528556               0.999999984               0.000000000               0.001561600               0.999999984              -0.000000000               0.001596620               0.999999984               0.000000000               0.001633122               0.999999984               0.000000000               0.001670492               0.999999984              -0.000000000               0.001708135               0.999999984              -0.000000000               0.001745379               0.999999984               0.000000000               0.001781398               0.999999984               0.000000000               0.001815053               0.999999984              -0.000727617              -0.000000000               0.999999984              -0.000778695               0.000000000               0.999999984              -0.000800824               0.000000000               0.999999984              -0.000812934              -0.000000000               0.999999984              -0.000822162              -0.000000000               0.999999984              -0.000831345              -0.000000000               0.999999984              -0.000841470               0.000000000               0.999999984              -0.000852792              -0.000000000               0.999999984              -0.000865290               0.000000000               0.999999984              -0.000878770              -0.000000000               0.999999984              -0.000892985               0.000000000               0.999999984              -0.000907549              -0.000000000               0.999999984              -0.000922147               0.000000000               0.999999984              -0.000936447               0.000000000               0.999999984              -0.000950171               0.000000000               0.999999984              -0.000962946               0.000000000               0.999999984              -0.000974026              -0.000000000               0.999999984              -0.000723659              -0.000132077               0.999999984              -0.000770917              -0.000107570               0.999999984              -0.000790629              -0.000096783               0.999999984              -0.000801214              -0.000092848               0.999999984              -0.000809593              -0.000092684               0.999999984              -0.000818241              -0.000094443               0.999999984              -0.000827890              -0.000097080               0.999999984              -0.000838705              -0.000100044               0.999999984              -0.000850592              -0.000102850               0.999999984              -0.000863340              -0.000105370               0.999999984              -0.000876772              -0.000107211               0.999999984              -0.000890455              -0.000107794               0.999999984              -0.000903956              -0.000106885               0.999999984              -0.000917009              -0.000104371               0.999999984              -0.000929233              -0.000099621               0.999999984              -0.000940182              -0.000091806               0.999999984              -0.000949183              -0.000079807               0.999999984              -0.000711920              -0.000262696               0.999999984              -0.000748019              -0.000214357               0.999999984              -0.000760965              -0.000193865               0.999999984              -0.000767558              -0.000187010               0.999999984              -0.000773452              -0.000187419               0.999999984              -0.000780322              -0.000191220               0.999999984              -0.000788584              -0.000196716               0.999999984              -0.000798038              -0.000202643               0.999999984              -0.000808373              -0.000208164               0.999999984              -0.000819184              -0.000212987               0.999999984              -0.000830132              -0.000216396               0.999999984              -0.000840838              -0.000217499               0.999999984              -0.000850844              -0.000215733               0.999999984              -0.000859711              -0.000210688               0.999999984              -0.000867029              -0.000201491               0.999999984              -0.000872408              -0.000186730               0.999999984              -0.000875538              -0.000164882               0.999999984              -0.000692499              -0.000390658               0.999999984              -0.000711019              -0.000319856               0.999999984              -0.000714053              -0.000291695               0.999999984              -0.000715160              -0.000283489               0.999999984              -0.000717884              -0.000285389               0.999999984              -0.000722720              -0.000291851               0.999999984              -0.000729306              -0.000300326               0.999999984              -0.000736892              -0.000309150               0.999999984              -0.000744840              -0.000317241               0.999999984              -0.000752729              -0.000323994               0.999999984              -0.000759952              -0.000328671               0.999999984              -0.000766003              -0.000330010               0.999999984              -0.000770454              -0.000327263               0.999999984              -0.000772802              -0.000319759               0.999999984              -0.000772725              -0.000306664               0.999999984              -0.000770302              -0.000287286               0.999999984              -0.000765798              -0.000260609               0.999999984              -0.000665586              -0.000514792               0.999999984              -0.000661620              -0.000423898               0.999999984              -0.000653714              -0.000390506               0.999999984              -0.000649548              -0.000382523               0.999999984              -0.000649589              -0.000386788               0.999999984              -0.000652737              -0.000396472               0.999999984              -0.000657658              -0.000408054               0.999999984              -0.000663086              -0.000419680               0.999999984              -0.000668170              -0.000430007               0.999999984              -0.000672270              -0.000438432               0.999999984              -0.000674562              -0.000443821               0.999999984              -0.000674451              -0.000444927               0.999999984              -0.000671603              -0.000440960               0.999999984              -0.000665916              -0.000431461               0.999999984              -0.000657470              -0.000416285               0.999999984              -0.000646677              -0.000395410               0.999999984              -0.000634233              -0.000368922               0.999999984              -0.000631813              -0.000633756               0.999999984              -0.000602490              -0.000526350               0.999999984              -0.000584525              -0.000490309               0.999999984              -0.000576501              -0.000483951               0.999999984              -0.000575084              -0.000491313               0.999999984              -0.000577298              -0.000504210               0.999999984              -0.000580794              -0.000518750               0.999999984              -0.000583963              -0.000532847               0.999999984              -0.000585776              -0.000545144               0.999999984              -0.000585289              -0.000554562               0.999999984              -0.000581623              -0.000559898               0.999999984              -0.000574403              -0.000560186               0.999999984              -0.000563593              -0.000555051               0.999999984              -0.000549526              -0.000544514               0.999999984              -0.000532760              -0.000528908               0.999999984              -0.000514016              -0.000508991               0.999999984              -0.000494128              -0.000485679               0.999999984              -0.000591721              -0.000746458               0.999999984              -0.000536688              -0.000627209               0.999999984              -0.000511134              -0.000590802               0.999999984              -0.000501586              -0.000586839               0.999999984              -0.000500302              -0.000597312               0.999999984              -0.000502243              -0.000613185               0.999999984              -0.000504367              -0.000630388               0.999999984              -0.000504943              -0.000646652               0.999999984              -0.000502849              -0.000660375               0.999999984              -0.000496971              -0.000669977               0.999999984              -0.000486631              -0.000674485               0.999999984              -0.000471790              -0.000673608               0.999999984              -0.000452872              -0.000667476               0.999999984              -0.000430625              -0.000656570               0.999999984              -0.000405847              -0.000641671               0.999999984              -0.000379381              -0.000623778               0.999999984              -0.000351856              -0.000604037               0.999999984              -0.000546176              -0.000851870               0.999999984              -0.000467485              -0.000726360               0.999999984              -0.000437816              -0.000691141               0.999999984              -0.000429302              -0.000689601               0.999999984              -0.000429238              -0.000702718               0.999999984              -0.000431259              -0.000721142               0.999999984              -0.000431921              -0.000740471               0.999999984              -0.000429436              -0.000758361               0.999999984              -0.000422622              -0.000772653               0.999999984              -0.000410364              -0.000781856               0.999999984              -0.000392512              -0.000785361               0.999999984              -0.000369399              -0.000783449               0.999999984              -0.000341891              -0.000776892               0.999999984              -0.000310987              -0.000766504               0.999999984              -0.000277672              -0.000753145               0.999999984              -0.000242691              -0.000737906               0.999999984              -0.000206712              -0.000721485               0.999999984              -0.000496929              -0.000948162               0.999999984              -0.000397319              -0.000823740               0.999999984              -0.000368347              -0.000789902               0.999999984              -0.000362473              -0.000790327               0.999999984              -0.000364350              -0.000805509               0.999999984              -0.000366462              -0.000825902               0.999999984              -0.000365247              -0.000846875               0.999999984              -0.000358986              -0.000865607               0.999999984              -0.000346254              -0.000879819               0.999999984              -0.000326494              -0.000888372               0.999999984              -0.000299909              -0.000891237               0.999999984              -0.000267380              -0.000889000               0.999999984              -0.000230243              -0.000882931               0.999999984              -0.000189707              -0.000873937               0.999999984              -0.000146899              -0.000863121               0.999999984              -0.000102885              -0.000851313               0.999999984              -0.000058597              -0.000839072               0.999999984              -0.000446243              -0.001038938               0.999999984              -0.000339031              -0.000931898               0.999999984              -0.000306854              -0.000893889               0.999999984              -0.000299588              -0.000888397               0.999999984              -0.000301040              -0.000898632               0.999999984              -0.000303861              -0.000916139               0.999999984              -0.000304075              -0.000935987               0.999999984              -0.000300126              -0.000955600               0.999999984              -0.000290640              -0.000972830               0.999999984              -0.000274776              -0.000986494               0.999999984              -0.000252428              -0.000995801               0.999999984              -0.000223646              -0.001000800               0.999999984              -0.000189381              -0.001001980               0.999999984              -0.000150721              -0.001000484               0.999999984              -0.000108711              -0.000996866               0.999999984              -0.000064515              -0.000992060               0.999999984              -0.000019557              -0.000986595               0.999999984              -0.000390740              -0.001121465               0.999999984              -0.000283655              -0.001036287               0.999999984              -0.000248467              -0.001000271               0.999999984              -0.000239066              -0.000991482               0.999999984              -0.000239205              -0.000998085               0.999999984              -0.000242027              -0.001013086               0.999999984              -0.000243155              -0.001031904               0.999999984              -0.000240837              -0.001051964               0.999999984              -0.000233915              -0.001071469               0.999999984              -0.000221578              -0.001088983               0.999999984              -0.000203377              -0.001103601               0.999999984              -0.000178761              -0.001114921               0.999999984              -0.000147992              -0.001122897               0.999999984              -0.000111904              -0.001128102               0.999999984              -0.000071408              -0.001131306               0.999999984              -0.000027520              -0.001133098               0.999999984               0.000018396              -0.001134162               0.999999984              -0.000331553              -0.001193863               0.999999984              -0.000231063              -0.001133948               0.999999984              -0.000194671              -0.001104326               0.999999984              -0.000183071              -0.001095698               0.999999984              -0.000181431              -0.001100649               0.999999984              -0.000183335              -0.001114110               0.999999984              -0.000184761              -0.001132426               0.999999984              -0.000183466              -0.001153079               0.999999984              -0.000178479              -0.001174556               0.999999984              -0.000169121              -0.001195259               0.999999984              -0.000154646              -0.001214330               0.999999984              -0.000134278              -0.001231203               0.999999984              -0.000107689              -0.001245482               0.999999984              -0.000075125              -0.001257109               0.999999984              -0.000036959              -0.001266592               0.999999984               0.000006132              -0.001274601               0.999999984               0.000053136              -0.001281842               0.999999984              -0.000269263              -0.001254919               0.999999984              -0.000181299              -0.001220870               0.999999984              -0.000146274              -0.001200887               0.999999984              -0.000133383              -0.001195324               0.999999984              -0.000129981              -0.001200851               0.999999984              -0.000130523              -0.001214267               0.999999984              -0.000131558              -0.001232918               0.999999984              -0.000130868              -0.001254700               0.999999984              -0.000127372              -0.001278059               0.999999984              -0.000120488              -0.001301957               0.999999984              -0.000109265              -0.001325295               0.999999984              -0.000093067              -0.001347278               0.999999984              -0.000071027              -0.001367471               0.999999984              -0.000042809              -0.001385558               0.999999984              -0.000008139              -0.001401606               0.999999984               0.000033268              -0.001415968               0.999999984               0.000081053              -0.001429292               0.999999984              -0.000204353              -0.001303626               0.999999984              -0.000133950              -0.001293279               0.999999984              -0.000103537              -0.001284262               0.999999984              -0.000090962              -0.001283734               0.999999984              -0.000086540              -0.001291605               0.999999984              -0.000085835              -0.001306364               0.999999984              -0.000086181              -0.001326202               0.999999984              -0.000085720              -0.001349566               0.999999984              -0.000083253              -0.001375264               0.999999984              -0.000078289              -0.001402405               0.999999984              -0.000070227              -0.001430002               0.999999984              -0.000058061              -0.001457099               0.999999984              -0.000040952              -0.001483109               0.999999984              -0.000018172              -0.001507675               0.999999984               0.000011236              -0.001530536               0.999999984               0.000048330              -0.001551706               0.999999984               0.000094029              -0.001571406               0.999999984              -0.000137399              -0.001338993               0.999999984              -0.000088383              -0.001347681               0.999999984              -0.000065852              -0.001348939               0.999999984              -0.000055644              -0.001353893               0.999999984              -0.000051515              -0.001364838               0.999999984              -0.000050260              -0.001381443               0.999999984              -0.000050166              -0.001402843               0.999999984              -0.000049667              -0.001427996               0.999999984              -0.000048116              -0.001455939               0.999999984              -0.000044842              -0.001485967               0.999999984              -0.000039499              -0.001517364               0.999999984              -0.000031475              -0.001549296               0.999999984              -0.000019845              -0.001580819               0.999999984              -0.000003711              -0.001611570               0.999999984               0.000017999              -0.001641142               0.999999984               0.000046675              -0.001669133               0.999999984               0.000084191              -0.001695281               0.999999984              -0.000069048              -0.001360492               0.999999984              -0.000043915              -0.001381408               0.999999984              -0.000031924              -0.001389953               0.999999984              -0.000026153              -0.001399108               0.999999984              -0.000023654              -0.001412529               0.999999984              -0.000022816              -0.001430734               0.999999984              -0.000022549              -0.001453467               0.999999984              -0.000022178              -0.001480048               0.999999984              -0.000021407              -0.001509738               0.999999984              -0.000019801              -0.001541921               0.999999984              -0.000017080              -0.001575948               0.999999984              -0.000013065              -0.001611216               0.999999984              -0.000007306              -0.001646941               0.999999984               0.000001026              -0.001682593               0.999999984               0.000012581              -0.001717604               0.999999984               0.000028376              -0.001751247               0.999999984               0.000050135              -0.001782662               0.999999984               0.000000000              -0.001367749               0.999999984              -0.000000000              -0.001392876               0.999999984               0.000000000              -0.001404022               0.999999984               0.000000000              -0.001414696               0.999999984              -0.000000000              -0.001429007               0.999999984              -0.000000000              -0.001447845               0.999999984              -0.000000000              -0.001471114               0.999999984              -0.000000000              -0.001498228               0.999999984              -0.000000000              -0.001528556               0.999999984              -0.000000000              -0.001561600               0.999999984              -0.000000000              -0.001596620               0.999999984              -0.000000000              -0.001633122               0.999999984              -0.000000000              -0.001670492               0.999999984               0.000000000              -0.001708135               0.999999984               0.000000000              -0.001745379               0.999999984               0.000000000              -0.001781398               0.999999984              -0.000000000              -0.001815053               0.999999984               0.000727617              -0.000000000               0.999999984               0.000778695              -0.000000000               0.999999984               0.000800824              -0.000000000               0.999999984               0.000812934              -0.000000000               0.999999984               0.000822162               0.000000000               0.999999984               0.000831345              -0.000000000               0.999999984               0.000841470               0.000000000               0.999999984               0.000852792               0.000000000               0.999999984               0.000865290              -0.000000000               0.999999984               0.000878770               0.000000000               0.999999984               0.000892985               0.000000000               0.999999984               0.000907549               0.000000000               0.999999984               0.000922147               0.000000000               0.999999984               0.000936447               0.000000000               0.999999984               0.000950171              -0.000000000               0.999999984               0.000962946               0.000000000               0.999999984               0.000974026              -0.000000000               0.999999984               0.000723659              -0.000132077               0.999999984               0.000770917              -0.000107570               0.999999984               0.000790629              -0.000096783               0.999999984               0.000801214              -0.000092848               0.999999984               0.000809593              -0.000092684               0.999999984               0.000818241              -0.000094443               0.999999984               0.000827890              -0.000097080               0.999999984               0.000838705              -0.000100044               0.999999984               0.000850592              -0.000102850               0.999999984               0.000863340              -0.000105370               0.999999984               0.000876772              -0.000107211               0.999999984               0.000890455              -0.000107794               0.999999984               0.000903956              -0.000106885               0.999999984               0.000917009              -0.000104371               0.999999984               0.000929233              -0.000099621               0.999999984               0.000940182              -0.000091806               0.999999984               0.000949183              -0.000079807               0.999999984               0.000711920              -0.000262696               0.999999984               0.000748019              -0.000214357               0.999999984               0.000760965              -0.000193865               0.999999984               0.000767558              -0.000187010               0.999999984               0.000773452              -0.000187419               0.999999984               0.000780322              -0.000191220               0.999999984               0.000788584              -0.000196716               0.999999984               0.000798038              -0.000202643               0.999999984               0.000808373              -0.000208164               0.999999984               0.000819184              -0.000212987               0.999999984               0.000830132              -0.000216396               0.999999984               0.000840838              -0.000217499               0.999999984               0.000850844              -0.000215733               0.999999984               0.000859711              -0.000210688               0.999999984               0.000867029              -0.000201491               0.999999984               0.000872408              -0.000186730               0.999999984               0.000875538              -0.000164882               0.999999984               0.000692499              -0.000390658               0.999999984               0.000711019              -0.000319856               0.999999984               0.000714053              -0.000291695               0.999999984               0.000715160              -0.000283489               0.999999984               0.000717884              -0.000285389               0.999999984               0.000722720              -0.000291851               0.999999984               0.000729306              -0.000300326               0.999999984               0.000736892              -0.000309150               0.999999984               0.000744840              -0.000317241               0.999999984               0.000752729              -0.000323994               0.999999984               0.000759952              -0.000328671               0.999999984               0.000766003              -0.000330010               0.999999984               0.000770454              -0.000327263               0.999999984               0.000772802              -0.000319759               0.999999984               0.000772725              -0.000306664               0.999999984               0.000770302              -0.000287286               0.999999984               0.000765798              -0.000260609               0.999999984               0.000665586              -0.000514792               0.999999984               0.000661620              -0.000423898               0.999999984               0.000653714              -0.000390506               0.999999984               0.000649548              -0.000382523               0.999999984               0.000649589              -0.000386788               0.999999984               0.000652737              -0.000396472               0.999999984               0.000657658              -0.000408054               0.999999984               0.000663086              -0.000419680               0.999999984               0.000668170              -0.000430007               0.999999984               0.000672270              -0.000438432               0.999999984               0.000674562              -0.000443821               0.999999984               0.000674451              -0.000444927               0.999999984               0.000671603              -0.000440960               0.999999984               0.000665916              -0.000431461               0.999999984               0.000657470              -0.000416285               0.999999984               0.000646677              -0.000395410               0.999999984               0.000634233              -0.000368922               0.999999984               0.000631813              -0.000633756               0.999999984               0.000602490              -0.000526350               0.999999984               0.000584525              -0.000490309               0.999999984               0.000576501              -0.000483951               0.999999984               0.000575084              -0.000491313               0.999999984               0.000577298              -0.000504210               0.999999984               0.000580794              -0.000518750               0.999999984               0.000583963              -0.000532847               0.999999984               0.000585776              -0.000545144               0.999999984               0.000585289              -0.000554562               0.999999984               0.000581623              -0.000559898               0.999999984               0.000574403              -0.000560186               0.999999984               0.000563593              -0.000555051               0.999999984               0.000549526              -0.000544514               0.999999984               0.000532760              -0.000528908               0.999999984               0.000514016              -0.000508991               0.999999984               0.000494128              -0.000485679               0.999999984               0.000591721              -0.000746458               0.999999984               0.000536688              -0.000627209               0.999999984               0.000511134              -0.000590802               0.999999984               0.000501586              -0.000586839               0.999999984               0.000500302              -0.000597312               0.999999984               0.000502243              -0.000613185               0.999999984               0.000504367              -0.000630388               0.999999984               0.000504943              -0.000646652               0.999999984               0.000502849              -0.000660375               0.999999984               0.000496971              -0.000669977               0.999999984               0.000486631              -0.000674485               0.999999984               0.000471790              -0.000673608               0.999999984               0.000452872              -0.000667476               0.999999984               0.000430625              -0.000656570               0.999999984               0.000405847              -0.000641671               0.999999984               0.000379381              -0.000623778               0.999999984               0.000351856              -0.000604037               0.999999984               0.000546176              -0.000851870               0.999999984               0.000467485              -0.000726360               0.999999984               0.000437816              -0.000691141               0.999999984               0.000429302              -0.000689601               0.999999984               0.000429238              -0.000702718               0.999999984               0.000431259              -0.000721142               0.999999984               0.000431921              -0.000740471               0.999999984               0.000429436              -0.000758361               0.999999984               0.000422622              -0.000772653               0.999999984               0.000410364              -0.000781856               0.999999984               0.000392512              -0.000785361               0.999999984               0.000369399              -0.000783449               0.999999984               0.000341891              -0.000776892               0.999999984               0.000310987              -0.000766504               0.999999984               0.000277672              -0.000753145               0.999999984               0.000242691              -0.000737906               0.999999984               0.000206712              -0.000721485               0.999999984               0.000496929              -0.000948162               0.999999984               0.000397319              -0.000823740               0.999999984               0.000368347              -0.000789902               0.999999984               0.000362473              -0.000790327               0.999999984               0.000364350              -0.000805509               0.999999984               0.000366462              -0.000825902               0.999999984               0.000365247              -0.000846875               0.999999984               0.000358986              -0.000865607               0.999999984               0.000346254              -0.000879819               0.999999984               0.000326494              -0.000888372               0.999999984               0.000299909              -0.000891237               0.999999984               0.000267380              -0.000889000               0.999999984               0.000230243              -0.000882931               0.999999984               0.000189707              -0.000873937               0.999999984               0.000146899              -0.000863121               0.999999984               0.000102885              -0.000851313               0.999999984               0.000058597              -0.000839072               0.999999984               0.000446243              -0.001038938               0.999999984               0.000339031              -0.000931898               0.999999984               0.000306854              -0.000893889               0.999999984               0.000299588              -0.000888397               0.999999984               0.000301040              -0.000898632               0.999999984               0.000303861              -0.000916139               0.999999984               0.000304075              -0.000935987               0.999999984               0.000300126              -0.000955600               0.999999984               0.000290640              -0.000972830               0.999999984               0.000274776              -0.000986494               0.999999984               0.000252428              -0.000995801               0.999999984               0.000223646              -0.001000800               0.999999984               0.000189381              -0.001001980               0.999999984               0.000150721              -0.001000484               0.999999984               0.000108711              -0.000996866               0.999999984               0.000064515              -0.000992060               0.999999984               0.000019557              -0.000986595               0.999999984               0.000390740              -0.001121465               0.999999984               0.000283655              -0.001036287               0.999999984               0.000248467              -0.001000271               0.999999984               0.000239066              -0.000991482               0.999999984               0.000239205              -0.000998085               0.999999984               0.000242027              -0.001013086               0.999999984               0.000243155              -0.001031904               0.999999984               0.000240837              -0.001051964               0.999999984               0.000233915              -0.001071469               0.999999984               0.000221578              -0.001088983               0.999999984               0.000203377              -0.001103601               0.999999984               0.000178761              -0.001114921               0.999999984               0.000147992              -0.001122897               0.999999984               0.000111904              -0.001128102               0.999999984               0.000071408              -0.001131306               0.999999984               0.000027520              -0.001133098               0.999999984              -0.000018396              -0.001134162               0.999999984               0.000331553              -0.001193863               0.999999984               0.000231063              -0.001133948               0.999999984               0.000194671              -0.001104326               0.999999984               0.000183071              -0.001095698               0.999999984               0.000181431              -0.001100649               0.999999984               0.000183335              -0.001114110               0.999999984               0.000184761              -0.001132426               0.999999984               0.000183466              -0.001153079               0.999999984               0.000178479              -0.001174556               0.999999984               0.000169121              -0.001195259               0.999999984               0.000154646              -0.001214330               0.999999984               0.000134278              -0.001231203               0.999999984               0.000107689              -0.001245482               0.999999984               0.000075125              -0.001257109               0.999999984               0.000036959              -0.001266592               0.999999984              -0.000006132              -0.001274601               0.999999984              -0.000053136              -0.001281842               0.999999984               0.000269263              -0.001254919               0.999999984               0.000181299              -0.001220870               0.999999984               0.000146274              -0.001200887               0.999999984               0.000133383              -0.001195324               0.999999984               0.000129981              -0.001200851               0.999999984               0.000130523              -0.001214267               0.999999984               0.000131558              -0.001232918               0.999999984               0.000130868              -0.001254700               0.999999984               0.000127372              -0.001278059               0.999999984               0.000120488              -0.001301957               0.999999984               0.000109265              -0.001325295               0.999999984               0.000093067              -0.001347278               0.999999984               0.000071027              -0.001367471               0.999999984               0.000042809              -0.001385558               0.999999984               0.000008139              -0.001401606               0.999999984              -0.000033268              -0.001415968               0.999999984              -0.000081053              -0.001429292               0.999999984               0.000204353              -0.001303626               0.999999984               0.000133950              -0.001293279               0.999999984               0.000103537              -0.001284262               0.999999984               0.000090962              -0.001283734               0.999999984               0.000086540              -0.001291605               0.999999984               0.000085835              -0.001306364               0.999999984               0.000086181              -0.001326202               0.999999984               0.000085720              -0.001349566               0.999999984               0.000083253              -0.001375264               0.999999984               0.000078289              -0.001402405               0.999999984               0.000070227              -0.001430002               0.999999984               0.000058061              -0.001457099               0.999999984               0.000040952              -0.001483109               0.999999984               0.000018172              -0.001507675               0.999999984              -0.000011236              -0.001530536               0.999999984              -0.000048330              -0.001551706               0.999999984              -0.000094029              -0.001571406               0.999999984               0.000137399              -0.001338993               0.999999984               0.000088383              -0.001347681               0.999999984               0.000065852              -0.001348939               0.999999984               0.000055644              -0.001353893               0.999999984               0.000051515              -0.001364838               0.999999984               0.000050260              -0.001381443               0.999999984               0.000050166              -0.001402843               0.999999984               0.000049667              -0.001427996               0.999999984               0.000048116              -0.001455939               0.999999984               0.000044842              -0.001485967               0.999999984               0.000039499              -0.001517364               0.999999984               0.000031475              -0.001549296               0.999999984               0.000019845              -0.001580819               0.999999984               0.000003711              -0.001611570               0.999999984              -0.000017999              -0.001641142               0.999999984              -0.000046675              -0.001669133               0.999999984              -0.000084191              -0.001695281               0.999999984               0.000069048              -0.001360492               0.999999984               0.000043915              -0.001381408               0.999999984               0.000031924              -0.001389953               0.999999984               0.000026153              -0.001399108               0.999999984               0.000023654              -0.001412529               0.999999984               0.000022816              -0.001430734               0.999999984               0.000022549              -0.001453467               0.999999984               0.000022178              -0.001480048               0.999999984               0.000021407              -0.001509738               0.999999984               0.000019801              -0.001541921               0.999999984               0.000017080              -0.001575948               0.999999984               0.000013065              -0.001611216               0.999999984               0.000007306              -0.001646941               0.999999984              -0.000001026              -0.001682593               0.999999984              -0.000012581              -0.001717604               0.999999984              -0.000028376              -0.001751247               0.999999984              -0.000050135              -0.001782662               0.999999984               0.000000000              -0.001367749               0.999999984              -0.000000000              -0.001392876               0.999999984               0.000000000              -0.001404022               0.999999984               0.000000000              -0.001414696               0.999999984              -0.000000000              -0.001429007               0.999999984              -0.000000000              -0.001447845               0.999999984              -0.000000000              -0.001471114               0.999999984              -0.000000000              -0.001498228               0.999999984              -0.000000000              -0.001528556               0.999999984              -0.000000000              -0.001561600               0.999999984              -0.000000000              -0.001596620               0.999999984              -0.000000000              -0.001633122               0.999999984              -0.000000000              -0.001670492               0.999999984               0.000000000              -0.001708135               0.999999984               0.000000000              -0.001745379               0.999999984               0.000000000              -0.001781398               0.999999984              -0.000000000              -0.001815053               0.999999984               0.000727617              -0.000000000               0.999999984               0.000778695              -0.000000000               0.999999984               0.000800824              -0.000000000               0.999999984               0.000812934              -0.000000000               0.999999984               0.000822162               0.000000000               0.999999984               0.000831345              -0.000000000               0.999999984               0.000841470               0.000000000               0.999999984               0.000852792               0.000000000               0.999999984               0.000865290              -0.000000000               0.999999984               0.000878770               0.000000000               0.999999984               0.000892985               0.000000000               0.999999984               0.000907549               0.000000000               0.999999984               0.000922147               0.000000000               0.999999984               0.000936447               0.000000000               0.999999984               0.000950171              -0.000000000               0.999999984               0.000962946               0.000000000               0.999999984               0.000974026              -0.000000000               0.999999984               0.000723659               0.000132077               0.999999984               0.000770917               0.000107570               0.999999984               0.000790629               0.000096783               0.999999984               0.000801214               0.000092848               0.999999984               0.000809593               0.000092684               0.999999984               0.000818241               0.000094443               0.999999984               0.000827890               0.000097080               0.999999984               0.000838705               0.000100044               0.999999984               0.000850592               0.000102850               0.999999984               0.000863340               0.000105370               0.999999984               0.000876772               0.000107211               0.999999984               0.000890455               0.000107794               0.999999984               0.000903956               0.000106885               0.999999984               0.000917009               0.000104371               0.999999984               0.000929233               0.000099621               0.999999984               0.000940182               0.000091806               0.999999984               0.000949183               0.000079807               0.999999984               0.000711920               0.000262696               0.999999984               0.000748019               0.000214357               0.999999984               0.000760965               0.000193865               0.999999984               0.000767558               0.000187010               0.999999984               0.000773452               0.000187419               0.999999984               0.000780322               0.000191220               0.999999984               0.000788584               0.000196716               0.999999984               0.000798038               0.000202643               0.999999984               0.000808373               0.000208164               0.999999984               0.000819184               0.000212987               0.999999984               0.000830132               0.000216396               0.999999984               0.000840838               0.000217499               0.999999984               0.000850844               0.000215733               0.999999984               0.000859711               0.000210688               0.999999984               0.000867029               0.000201491               0.999999984               0.000872408               0.000186730               0.999999984               0.000875538               0.000164882               0.999999984               0.000692499               0.000390658               0.999999984               0.000711019               0.000319856               0.999999984               0.000714053               0.000291695               0.999999984               0.000715160               0.000283489               0.999999984               0.000717884               0.000285389               0.999999984               0.000722720               0.000291851               0.999999984               0.000729306               0.000300326               0.999999984               0.000736892               0.000309150               0.999999984               0.000744840               0.000317241               0.999999984               0.000752729               0.000323994               0.999999984               0.000759952               0.000328671               0.999999984               0.000766003               0.000330010               0.999999984               0.000770454               0.000327263               0.999999984               0.000772802               0.000319759               0.999999984               0.000772725               0.000306664               0.999999984               0.000770302               0.000287286               0.999999984               0.000765798               0.000260609               0.999999984               0.000665586               0.000514792               0.999999984               0.000661620               0.000423898               0.999999984               0.000653714               0.000390506               0.999999984               0.000649548               0.000382523               0.999999984               0.000649589               0.000386788               0.999999984               0.000652737               0.000396472               0.999999984               0.000657658               0.000408054               0.999999984               0.000663086               0.000419680               0.999999984               0.000668170               0.000430007               0.999999984               0.000672270               0.000438432               0.999999984               0.000674562               0.000443821               0.999999984               0.000674451               0.000444927               0.999999984               0.000671603               0.000440960               0.999999984               0.000665916               0.000431461               0.999999984               0.000657470               0.000416285               0.999999984               0.000646677               0.000395410               0.999999984               0.000634233               0.000368922               0.999999984               0.000631813               0.000633756               0.999999984               0.000602490               0.000526350               0.999999984               0.000584525               0.000490309               0.999999984               0.000576501               0.000483951               0.999999984               0.000575084               0.000491313               0.999999984               0.000577298               0.000504210               0.999999984               0.000580794               0.000518750               0.999999984               0.000583963               0.000532847               0.999999984               0.000585776               0.000545144               0.999999984               0.000585289               0.000554562               0.999999984               0.000581623               0.000559898               0.999999984               0.000574403               0.000560186               0.999999984               0.000563593               0.000555051               0.999999984               0.000549526               0.000544514               0.999999984               0.000532760               0.000528908               0.999999984               0.000514016               0.000508991               0.999999984               0.000494128               0.000485679               0.999999984               0.000591721               0.000746458               0.999999984               0.000536688               0.000627209               0.999999984               0.000511134               0.000590802               0.999999984               0.000501586               0.000586839               0.999999984               0.000500302               0.000597312               0.999999984               0.000502243               0.000613185               0.999999984               0.000504367               0.000630388               0.999999984               0.000504943               0.000646652               0.999999984               0.000502849               0.000660375               0.999999984               0.000496971               0.000669977               0.999999984               0.000486631               0.000674485               0.999999984               0.000471790               0.000673608               0.999999984               0.000452872               0.000667476               0.999999984               0.000430625               0.000656570               0.999999984               0.000405847               0.000641671               0.999999984               0.000379381               0.000623778               0.999999984               0.000351856               0.000604037               0.999999984               0.000546176               0.000851870               0.999999984               0.000467485               0.000726360               0.999999984               0.000437816               0.000691141               0.999999984               0.000429302               0.000689601               0.999999984               0.000429238               0.000702718               0.999999984               0.000431259               0.000721142               0.999999984               0.000431921               0.000740471               0.999999984               0.000429436               0.000758361               0.999999984               0.000422622               0.000772653               0.999999984               0.000410364               0.000781856               0.999999984               0.000392512               0.000785361               0.999999984               0.000369399               0.000783449               0.999999984               0.000341891               0.000776892               0.999999984               0.000310987               0.000766504               0.999999984               0.000277672               0.000753145               0.999999984               0.000242691               0.000737906               0.999999984               0.000206712               0.000721485               0.999999984               0.000496929               0.000948162               0.999999984               0.000397319               0.000823740               0.999999984               0.000368347               0.000789902               0.999999984               0.000362473               0.000790327               0.999999984               0.000364350               0.000805509               0.999999984               0.000366462               0.000825902               0.999999984               0.000365247               0.000846875               0.999999984               0.000358986               0.000865607               0.999999984               0.000346254               0.000879819               0.999999984               0.000326494               0.000888372               0.999999984               0.000299909               0.000891237               0.999999984               0.000267380               0.000889000               0.999999984               0.000230243               0.000882931               0.999999984               0.000189707               0.000873937               0.999999984               0.000146899               0.000863121               0.999999984               0.000102885               0.000851313               0.999999984               0.000058597               0.000839072               0.999999984               0.000446243               0.001038938               0.999999984               0.000339031               0.000931898               0.999999984               0.000306854               0.000893889               0.999999984               0.000299588               0.000888397               0.999999984               0.000301040               0.000898632               0.999999984               0.000303861               0.000916139               0.999999984               0.000304075               0.000935987               0.999999984               0.000300126               0.000955600               0.999999984               0.000290640               0.000972830               0.999999984               0.000274776               0.000986494               0.999999984               0.000252428               0.000995801               0.999999984               0.000223646               0.001000800               0.999999984               0.000189381               0.001001980               0.999999984               0.000150721               0.001000484               0.999999984               0.000108711               0.000996866               0.999999984               0.000064515               0.000992060               0.999999984               0.000019557               0.000986595               0.999999984               0.000390740               0.001121465               0.999999984               0.000283655               0.001036287               0.999999984               0.000248467               0.001000271               0.999999984               0.000239066               0.000991482               0.999999984               0.000239205               0.000998085               0.999999984               0.000242027               0.001013086               0.999999984               0.000243155               0.001031904               0.999999984               0.000240837               0.001051964               0.999999984               0.000233915               0.001071469               0.999999984               0.000221578               0.001088983               0.999999984               0.000203377               0.001103601               0.999999984               0.000178761               0.001114921               0.999999984               0.000147992               0.001122897               0.999999984               0.000111904               0.001128102               0.999999984               0.000071408               0.001131306               0.999999984               0.000027520               0.001133098               0.999999984              -0.000018396               0.001134162               0.999999984               0.000331553               0.001193863               0.999999984               0.000231063               0.001133948               0.999999984               0.000194671               0.001104326               0.999999984               0.000183071               0.001095698               0.999999984               0.000181431               0.001100649               0.999999984               0.000183335               0.001114110               0.999999984               0.000184761               0.001132426               0.999999984               0.000183466               0.001153079               0.999999984               0.000178479               0.001174556               0.999999984               0.000169121               0.001195259               0.999999984               0.000154646               0.001214330               0.999999984               0.000134278               0.001231203               0.999999984               0.000107689               0.001245482               0.999999984               0.000075125               0.001257109               0.999999984               0.000036959               0.001266592               0.999999984              -0.000006132               0.001274601               0.999999984              -0.000053136               0.001281842               0.999999984               0.000269263               0.001254919               0.999999984               0.000181299               0.001220870               0.999999984               0.000146274               0.001200887               0.999999984               0.000133383               0.001195324               0.999999984               0.000129981               0.001200851               0.999999984               0.000130523               0.001214267               0.999999984               0.000131558               0.001232918               0.999999984               0.000130868               0.001254700               0.999999984               0.000127372               0.001278059               0.999999984               0.000120488               0.001301957               0.999999984               0.000109265               0.001325295               0.999999984               0.000093067               0.001347278               0.999999984               0.000071027               0.001367471               0.999999984               0.000042809               0.001385558               0.999999984               0.000008139               0.001401606               0.999999984              -0.000033268               0.001415968               0.999999984              -0.000081053               0.001429292               0.999999984               0.000204353               0.001303626               0.999999984               0.000133950               0.001293279               0.999999984               0.000103537               0.001284262               0.999999984               0.000090962               0.001283734               0.999999984               0.000086540               0.001291605               0.999999984               0.000085835               0.001306364               0.999999984               0.000086181               0.001326202               0.999999984               0.000085720               0.001349566               0.999999984               0.000083253               0.001375264               0.999999984               0.000078289               0.001402405               0.999999984               0.000070227               0.001430002               0.999999984               0.000058061               0.001457099               0.999999984               0.000040952               0.001483109               0.999999984               0.000018172               0.001507675               0.999999984              -0.000011236               0.001530536               0.999999984              -0.000048330               0.001551706               0.999999984              -0.000094029               0.001571406               0.999999984               0.000137399               0.001338993               0.999999984               0.000088383               0.001347681               0.999999984               0.000065852               0.001348939               0.999999984               0.000055644               0.001353893               0.999999984               0.000051515               0.001364838               0.999999984               0.000050260               0.001381443               0.999999984               0.000050166               0.001402843               0.999999984               0.000049667               0.001427996               0.999999984               0.000048116               0.001455939               0.999999984               0.000044842               0.001485967               0.999999984               0.000039499               0.001517364               0.999999984               0.000031475               0.001549296               0.999999984               0.000019845               0.001580819               0.999999984               0.000003711               0.001611570               0.999999984              -0.000017999               0.001641142               0.999999984              -0.000046675               0.001669133               0.999999984              -0.000084191               0.001695281               0.999999984               0.000069048               0.001360492               0.999999984               0.000043915               0.001381408               0.999999984               0.000031924               0.001389953               0.999999984               0.000026153               0.001399108               0.999999984               0.000023654               0.001412529               0.999999984               0.000022816               0.001430734               0.999999984               0.000022549               0.001453467               0.999999984               0.000022178               0.001480048               0.999999984               0.000021407               0.001509738               0.999999984               0.000019801               0.001541921               0.999999984               0.000017080               0.001575948               0.999999984               0.000013065               0.001611216               0.999999984               0.000007306               0.001646941               0.999999984              -0.000001026               0.001682593               0.999999984              -0.000012581               0.001717604               0.999999984              -0.000028376               0.001751247               0.999999984              -0.000050135               0.001782662               0.999999984               0.000000000               0.001367749               0.999999984               0.000000000               0.001392876               0.999999984               0.000000000               0.001404022               0.999999984               0.000000000               0.001414696               0.999999984               0.000000000               0.001429007               0.999999984               0.000000000               0.001447845               0.999999984               0.000000000               0.001471114               0.999999984              -0.000000000               0.001498228               0.999999984              -0.000000000               0.001528556               0.999999984               0.000000000               0.001561600               0.999999984              -0.000000000               0.001596620               0.999999984               0.000000000               0.001633122               0.999999984               0.000000000               0.001670492               0.999999984              -0.000000000               0.001708135               0.999999984              -0.000000000               0.001745379               0.999999984               0.000000000               0.001781398               0.999999984               0.000000000               0.001815053               0.999999984 </DataArray>
<DataArray type="Float64"                                    Name="stress"                                                      NumberOfComponents="10" format="ascii">
              0.002227984               0.024143175               0.000000000              -0.002182398               0.008775110               0.006592713               0.000000000               0.000000000               0.000000000               0.000000000               0.002205591               0.018843856               0.000000000              -0.001528381               0.006790683               0.005262302               0.000000000               0.000000000               0.000000000               0.000000000               0.002900055               0.014527776               0.000000000              -0.000728449               0.005085360               0.004356911               0.000000000               0.000000000               0.000000000               0.000000000               0.002781253               0.012086295              -0.000000000              -0.000467816               0.004184663               0.003716847               0.000000000               0.000000000               0.000000000               0.000000000               0.002419825               0.010562396               0.000000000              -0.000412864               0.003658385               0.003245521               0.000000000               0.000000000               0.000000000               0.000000000               0.002014704               0.009519252               0.000000000              -0.000434391               0.003317849               0.002883458               0.000000000               0.000000000               0.000000000               0.000000000               0.001634151               0.008742352               0.000000000              -0.000479986               0.003074084               0.002594097               0.000000000               0.000000000               0.000000000               0.000000000               0.001294704               0.008120666              -0.000000000              -0.000529568               0.002883384               0.002353816               0.000000000               0.000000000               0.000000000               0.000000000               0.000999116               0.007589693               0.000000000              -0.000574042               0.002721220               0.002147178               0.000000000               0.000000000               0.000000000               0.000000000               0.000746937               0.007116994               0.000000000              -0.000609521               0.002575481               0.001965960               0.000000000               0.000000000               0.000000000               0.000000000               0.000539656               0.006670754               0.000000000              -0.000631472               0.002434053               0.001802581               0.000000000               0.000000000               0.000000000               0.000000000               0.000374208               0.006219929               0.000000000              -0.000637161               0.002285676               0.001648515               0.000000000               0.000000000               0.000000000               0.000000000               0.000240458               0.005750235               0.000000000              -0.000628606               0.002126261               0.001497655               0.000000000               0.000000000               0.000000000               0.000000000               0.000133597               0.005254184              -0.000000000              -0.000606673               0.001953601               0.001346929               0.000000000               0.000000000               0.000000000               0.000000000               0.000051337               0.004709477              -0.000000000              -0.000569432               0.001759621               0.001190189               0.000000000               0.000000000               0.000000000               0.000000000               0.000009837               0.004092532              -0.000000000              -0.000507877               0.001533456               0.001025579               0.000000000               0.000000000               0.000000000               0.000000000              -0.000047216               0.003619844              -0.000000000              -0.000470185               0.001363331               0.000893145               0.000000000               0.000000000               0.000000000               0.000000000               0.002304870               0.023628843              -0.001653568              -0.002089274               0.008572627               0.006483352               0.000000000               0.000000000               0.000000000               0.000000000               0.002158287               0.018505551              -0.000825190              -0.001503833               0.006669733               0.005165900               0.000000000               0.000000000               0.000000000               0.000000000               0.002718499               0.014372188              -0.000004099              -0.000777084               0.005049709               0.004272625               0.000000000               0.000000000               0.000000000               0.000000000               0.002544169               0.012028615               0.000342281              -0.000549512               0.004192669               0.003643157               0.000000000               0.000000000               0.000000000               0.000000000               0.002166652               0.010554044               0.000481245              -0.000506760               0.003686899               0.003180140               0.000000000               0.000000000               0.000000000               0.000000000               0.001767715               0.009530250               0.000525035              -0.000528387               0.003352847               0.002824460               0.000000000               0.000000000               0.000000000               0.000000000               0.001405495               0.008762926               0.000527108              -0.000568304               0.003110381               0.002542077               0.000000000               0.000000000               0.000000000               0.000000000               0.001088809               0.008142932               0.000509876              -0.000609562               0.002917471               0.002307909               0.000000000               0.000000000               0.000000000               0.000000000               0.000817280               0.007609989               0.000487827              -0.000644767               0.002751560               0.002106793               0.000000000               0.000000000               0.000000000               0.000000000               0.000585528               0.007131591               0.000463770              -0.000671874               0.002601132               0.001929257               0.000000000               0.000000000               0.000000000               0.000000000               0.000394779               0.006678918               0.000429142              -0.000686821               0.002455224               0.001768403               0.000000000               0.000000000               0.000000000               0.000000000               0.000249425               0.006228558               0.000386594              -0.000685034               0.002304510               0.001619476               0.000000000               0.000000000               0.000000000               0.000000000               0.000137725               0.005763646               0.000344662              -0.000668807               0.002144132               0.001475325               0.000000000               0.000000000               0.000000000               0.000000000               0.000053680               0.005273860               0.000296337              -0.000639101               0.001970969               0.001331869               0.000000000               0.000000000               0.000000000               0.000000000              -0.000000421               0.004744696               0.000228063              -0.000593244               0.001779297               0.001186054               0.000000000               0.000000000               0.000000000               0.000000000              -0.000015116               0.004157221               0.000129895              -0.000525320               0.001560833               0.001035513               0.000000000               0.000000000               0.000000000               0.000000000              -0.000058409               0.003714244               0.000083497              -0.000486183               0.001400130               0.000913947               0.000000000               0.000000000               0.000000000               0.000000000               0.002495212               0.022175091              -0.003067669              -0.001836179               0.008003682               0.006167503               0.000000000               0.000000000               0.000000000               0.000000000               0.002004789               0.017556383              -0.001528023              -0.001442749               0.006332985               0.004890236               0.000000000               0.000000000               0.000000000               0.000000000               0.002191366               0.013941256              -0.000013164              -0.000920893               0.004954003               0.004033110               0.000000000               0.000000000               0.000000000               0.000000000               0.001878276               0.011861155               0.000606395              -0.000778289               0.004213109               0.003434819               0.000000000               0.000000000               0.000000000               0.000000000               0.001476402               0.010514901               0.000845847              -0.000760710               0.003758502               0.002997792               0.000000000               0.000000000               0.000000000               0.000000000               0.001102197               0.009547303               0.000916630              -0.000780087               0.003442431               0.002662344               0.000000000               0.000000000               0.000000000               0.000000000               0.000787600               0.008799976               0.000915868              -0.000804645               0.003201511               0.002396866               0.000000000               0.000000000               0.000000000               0.000000000               0.000532564               0.008183173               0.000882081              -0.000823183               0.003002091               0.002178908               0.000000000               0.000000000               0.000000000               0.000000000               0.000327355               0.007646928               0.000841162              -0.000833106               0.002826653               0.001993546               0.000000000               0.000000000               0.000000000               0.000000000               0.000164726               0.007160184               0.000797032              -0.000833249               0.002664454               0.001831205               0.000000000               0.000000000               0.000000000               0.000000000               0.000040181               0.006701211               0.000738142              -0.000822582               0.002507909               0.001685327               0.000000000               0.000000000               0.000000000               0.000000000              -0.000045124               0.006251578               0.000666519              -0.000798367               0.002349961               0.001551594               0.000000000               0.000000000               0.000000000               0.000000000              -0.000092727               0.005798051               0.000591058              -0.000759527               0.002185840               0.001426313               0.000000000               0.000000000               0.000000000               0.000000000              -0.000108551               0.005329600               0.000504824              -0.000706905               0.002012151               0.001305246               0.000000000               0.000000000               0.000000000               0.000000000              -0.000096395               0.004844674               0.000387476              -0.000641731               0.001828785               0.001187055               0.000000000               0.000000000               0.000000000               0.000000000              -0.000055881               0.004349933               0.000220192              -0.000564696               0.001638195               0.001073499               0.000000000               0.000000000               0.000000000               0.000000000              -0.000066895               0.004003308               0.000138440              -0.000525498               0.001509589               0.000984091               0.000000000               0.000000000               0.000000000               0.000000000               0.002679002               0.019987921              -0.004060570              -0.001493863               0.007160527               0.005666664               0.000000000               0.000000000               0.000000000               0.000000000               0.001712184               0.016151484              -0.002024911              -0.001376864               0.005842728               0.004465864               0.000000000               0.000000000               0.000000000               0.000000000               0.001385118               0.013308438              -0.000049393              -0.001144133               0.004817479               0.003673347               0.000000000               0.000000000               0.000000000               0.000000000               0.000908432               0.011587867               0.000717698              -0.001107819               0.004231857               0.003124038               0.000000000               0.000000000               0.000000000               0.000000000               0.000497767               0.010409412               0.000997640              -0.001114511               0.003841273               0.002726762               0.000000000               0.000000000               0.000000000               0.000000000               0.000184407               0.009525258               0.001069198              -0.001121502               0.003548888               0.002427386               0.000000000               0.000000000               0.000000000               0.000000000              -0.000039460               0.008811077               0.001060668              -0.001116180               0.003309056               0.002192876               0.000000000               0.000000000               0.000000000               0.000000000              -0.000189966               0.008205947               0.001019099              -0.001096978               0.003100947               0.002003969               0.000000000               0.000000000               0.000000000               0.000000000              -0.000294361               0.007669676               0.000969853              -0.001069092               0.002912897               0.001843805               0.000000000               0.000000000               0.000000000               0.000000000              -0.000356348               0.007179977               0.000917440              -0.001031125               0.002737010               0.001705885               0.000000000               0.000000000               0.000000000               0.000000000              -0.000377557               0.006718032               0.000848596              -0.000981336               0.002566433               0.001585098               0.000000000               0.000000000               0.000000000               0.000000000              -0.000368731               0.006269621               0.000763042              -0.000921975               0.002397178               0.001475203               0.000000000               0.000000000               0.000000000               0.000000000              -0.000328836               0.005830907               0.000668269              -0.000852175               0.002227674               0.001375500               0.000000000               0.000000000               0.000000000               0.000000000              -0.000258354               0.005404231               0.000557043              -0.000772410               0.002058862               0.001286452               0.000000000               0.000000000               0.000000000               0.000000000              -0.000173460               0.005001560               0.000417493              -0.000690241               0.001897250               0.001207010               0.000000000               0.000000000               0.000000000               0.000000000              -0.000087482               0.004645971               0.000233761              -0.000613550               0.001753158               0.001139608               0.000000000               0.000000000               0.000000000               0.000000000              -0.000067636               0.004432386               0.000141072              -0.000579410               0.001670584               0.001091174               0.000000000               0.000000000               0.000000000               0.000000000               0.002710000               0.017310202              -0.004553600              -0.001147526               0.006152517               0.005004991               0.000000000               0.000000000               0.000000000               0.000000000               0.001246243               0.014464737              -0.002303159              -0.001340749               0.005268447               0.003927698               0.000000000               0.000000000               0.000000000               0.000000000               0.000387866               0.012546752              -0.000154844              -0.001422891               0.004656506               0.003233615               0.000000000               0.000000000               0.000000000               0.000000000              -0.000197319               0.011229192               0.000629219              -0.001477640               0.004235573               0.002757933               0.000000000               0.000000000               0.000000000               0.000000000              -0.000557416               0.010237268               0.000901582              -0.001488686               0.003908617               0.002419931               0.000000000               0.000000000               0.000000000               0.000000000              -0.000761058               0.009437456               0.000965950              -0.001465075               0.003634146               0.002169070               0.000000000               0.000000000               0.000000000               0.000000000              -0.000855097               0.008762529               0.000956247              -0.001415974               0.003392805               0.001976831               0.000000000               0.000000000               0.000000000               0.000000000              -0.000876619               0.008174909               0.000919016              -0.001350593               0.003175140               0.001824547               0.000000000               0.000000000               0.000000000               0.000000000              -0.000856366               0.007646837               0.000875062              -0.001276989               0.002974583               0.001697594               0.000000000               0.000000000               0.000000000               0.000000000              -0.000797028               0.007156823               0.000827949              -0.001193486               0.002783412               0.001589927               0.000000000               0.000000000               0.000000000               0.000000000              -0.000701991               0.006689425               0.000763669              -0.001099422               0.002596260               0.001496838               0.000000000               0.000000000               0.000000000               0.000000000              -0.000586669               0.006245811               0.000680483              -0.001000725               0.002415491               0.001414766               0.000000000               0.000000000               0.000000000               0.000000000              -0.000460524               0.005833866               0.000583489              -0.000901928               0.002245245               0.001343317               0.000000000               0.000000000               0.000000000               0.000000000              -0.000326889               0.005467362               0.000470860              -0.000806002               0.002091103               0.001285101               0.000000000               0.000000000               0.000000000               0.000000000              -0.000196894               0.005163311               0.000338845              -0.000719247               0.001960835               0.001241588               0.000000000               0.000000000               0.000000000               0.000000000              -0.000088663               0.004939533               0.000182272              -0.000650689               0.001863391               0.001212702               0.000000000               0.000000000               0.000000000               0.000000000              -0.000050919               0.004833747               0.000103197              -0.000623312               0.001819003               0.001195692               0.000000000               0.000000000               0.000000000               0.000000000               0.002465938               0.014417983              -0.004559127              -0.000877523               0.005098453               0.004220930               0.000000000               0.000000000               0.000000000               0.000000000               0.000613240               0.012678869              -0.002394807              -0.001354892               0.004677878               0.003322986               0.000000000               0.000000000               0.000000000               0.000000000              -0.000673881               0.011730751              -0.000353729              -0.001719045               0.004483226               0.002764181               0.000000000               0.000000000               0.000000000               0.000000000              -0.001262862               0.010803581               0.000351754              -0.001824016               0.004209163               0.002385147               0.000000000               0.000000000               0.000000000               0.000000000              -0.001502105               0.009982378               0.000592502              -0.001811082               0.003931120               0.002120038               0.000000000               0.000000000               0.000000000               0.000000000              -0.001554115               0.009257325               0.000657391              -0.001739955               0.003665729               0.001925774               0.000000000               0.000000000               0.000000000               0.000000000              -0.001499027               0.008623375               0.000664113              -0.001640053               0.003421114               0.001781061               0.000000000               0.000000000               0.000000000               0.000000000              -0.001387199               0.008058993               0.000648873              -0.001527570               0.003195494               0.001667924               0.000000000               0.000000000               0.000000000               0.000000000              -0.001239138               0.007542189               0.000623416              -0.001407447               0.002983187               0.001575740               0.000000000               0.000000000               0.000000000               0.000000000              -0.001059258               0.007047600               0.000590545              -0.001278169               0.002775233               0.001497064               0.000000000               0.000000000               0.000000000               0.000000000              -0.000859926               0.006575700               0.000541934              -0.001144432               0.002573355               0.001428923               0.000000000               0.000000000               0.000000000               0.000000000              -0.000658903               0.006144910               0.000475654              -0.001015200               0.002386683               0.001371483               0.000000000               0.000000000               0.000000000               0.000000000              -0.000469513               0.005771346               0.000394621              -0.000897483               0.002222924               0.001325441               0.000000000               0.000000000               0.000000000               0.000000000              -0.000301927               0.005465988               0.000300834              -0.000796469               0.002087468               0.001290998               0.000000000               0.000000000               0.000000000               0.000000000              -0.000164003               0.005236759               0.000199724              -0.000716094               0.001984267               0.001268173               0.000000000               0.000000000               0.000000000               0.000000000              -0.000065207               0.005089469               0.000097587              -0.000660635               0.001916684               0.001256050               0.000000000               0.000000000               0.000000000               0.000000000              -0.000031484               0.005031178               0.000050109              -0.000640702               0.001890610               0.001249908               0.000000000               0.000000000               0.000000000               0.000000000               0.001877933               0.011571318              -0.004165402              -0.000742192               0.004104463               0.003362271               0.000000000               0.000000000               0.000000000               0.000000000              -0.000149586               0.010948037              -0.002357885              -0.001424597               0.004124174               0.002699577               0.000000000               0.000000000               0.000000000               0.000000000              -0.001679401               0.010896344              -0.000652790              -0.001991814               0.004296016               0.002304203               0.000000000               0.000000000               0.000000000               0.000000000              -0.002158104               0.010295979              -0.000073388              -0.002096281               0.004130719               0.002034438               0.000000000               0.000000000               0.000000000               0.000000000              -0.002221009               0.009613798               0.000147864              -0.002034598               0.003882767               0.001848169               0.000000000               0.000000000               0.000000000               0.000000000              -0.002096968               0.008963623               0.000235841              -0.001906811               0.003623448               0.001716637               0.000000000               0.000000000               0.000000000               0.000000000              -0.001892618               0.008373701               0.000279541              -0.001756440               0.003376686               0.001620246               0.000000000               0.000000000               0.000000000               0.000000000              -0.001659417               0.007832734               0.000300584              -0.001601369               0.003144675               0.001543306               0.000000000               0.000000000               0.000000000               0.000000000              -0.001404717               0.007319173               0.000303876              -0.001441662               0.002920254               0.001478592               0.000000000               0.000000000               0.000000000               0.000000000              -0.001131768               0.006826575               0.000292692              -0.001277732               0.002701413               0.001423681               0.000000000               0.000000000               0.000000000               0.000000000              -0.000859438               0.006369489               0.000268706              -0.001118473               0.002495966               0.001377493               0.000000000               0.000000000               0.000000000               0.000000000              -0.000609914               0.005969995               0.000232651              -0.000974965               0.002314967               0.001340002               0.000000000               0.000000000               0.000000000               0.000000000              -0.000398459               0.005642562               0.000184393              -0.000854740               0.002165749               0.001311008               0.000000000               0.000000000               0.000000000               0.000000000              -0.000232013               0.005391182               0.000128020              -0.000760901               0.002050676               0.001289775               0.000000000               0.000000000               0.000000000               0.000000000              -0.000112373               0.005212874               0.000072977              -0.000693747               0.001968857               0.001275109               0.000000000               0.000000000               0.000000000               0.000000000              -0.000038704               0.005099207               0.000029642              -0.000651913               0.001917023               0.001265110               0.000000000               0.000000000               0.000000000               0.000000000              -0.000021642               0.005046601               0.000017009              -0.000638939               0.001895163               0.001256224               0.000000000               0.000000000               0.000000000               0.000000000               0.000990656               0.008948512              -0.003488369              -0.000747069               0.003231830               0.002484760               0.000000000               0.000000000               0.000000000               0.000000000              -0.000992663               0.009366916              -0.002248236              -0.001543111               0.003636644               0.002093533               0.000000000               0.000000000               0.000000000               0.000000000              -0.002533439               0.010042696              -0.001036556              -0.002205371               0.004082655               0.001877284               0.000000000               0.000000000               0.000000000               0.000000000              -0.002806937               0.009698685              -0.000573122              -0.002264931               0.003987840               0.001722908               0.000000000               0.000000000               0.000000000               0.000000000              -0.002668376               0.009139740              -0.000340978              -0.002143103               0.003760917               0.001617814               0.000000000               0.000000000               0.000000000               0.000000000              -0.002377277               0.008561943              -0.000207448              -0.001961717               0.003507858               0.001546141               0.000000000               0.000000000               0.000000000               0.000000000              -0.002042374               0.008014742              -0.000113416              -0.001767728               0.003260797               0.001493068               0.000000000               0.000000000               0.000000000               0.000000000              -0.001706870               0.007490576              -0.000047248              -0.001576394               0.003022298               0.001445904               0.000000000               0.000000000               0.000000000               0.000000000              -0.001370788               0.006983722              -0.000005007              -0.001387007               0.002790220               0.001403212               0.000000000               0.000000000               0.000000000               0.000000000              -0.001037790               0.006513949               0.000017435              -0.001203412               0.002572432               0.001369020               0.000000000               0.000000000               0.000000000               0.000000000              -0.000732304               0.006100749               0.000026566              -0.001037205               0.002379298               0.001342093               0.000000000               0.000000000               0.000000000               0.000000000              -0.000475701               0.005755585               0.000029614              -0.000897834               0.002217787               0.001319953               0.000000000               0.000000000               0.000000000               0.000000000              -0.000279109               0.005485834               0.000025292              -0.000790393               0.002092057               0.001301664               0.000000000               0.000000000               0.000000000               0.000000000              -0.000143108               0.005287192               0.000015088              -0.000714563               0.002000567               0.001286005               0.000000000               0.000000000               0.000000000               0.000000000              -0.000059291               0.005152731               0.000006968              -0.000666324               0.001939668               0.001273344               0.000000000               0.000000000               0.000000000               0.000000000              -0.000018086               0.005067898               0.000004171              -0.000640268               0.001902705               0.001262437               0.000000000               0.000000000               0.000000000               0.000000000              -0.000015527               0.005026358               0.000007863              -0.000634116               0.001886808               0.001252692               0.000000000               0.000000000               0.000000000               0.000000000              -0.000064680               0.006733084              -0.002645286              -0.000865890               0.002532968               0.001667078               0.000000000               0.000000000               0.000000000               0.000000000              -0.001807859               0.007957112              -0.002112024              -0.001672583               0.003209871               0.001537288               0.000000000               0.000000000               0.000000000               0.000000000              -0.003189314               0.009205588              -0.001482969              -0.002346685               0.003850727               0.001504041               0.000000000               0.000000000               0.000000000               0.000000000              -0.003241251               0.009124167              -0.001096763              -0.002355984               0.003826687               0.001470702               0.000000000               0.000000000               0.000000000               0.000000000              -0.002937125               0.008714666              -0.000835896              -0.002190750               0.003635110               0.001444360               0.000000000               0.000000000               0.000000000               0.000000000              -0.002515025               0.008230798              -0.000646834              -0.001971979               0.003400898               0.001428919               0.000000000               0.000000000               0.000000000               0.000000000              -0.002082663               0.007738621              -0.000498979              -0.001748322               0.003162289               0.001413967               0.000000000               0.000000000               0.000000000               0.000000000              -0.001666695               0.007244055              -0.000383784              -0.001530514               0.002924832               0.001394318               0.000000000               0.000000000               0.000000000               0.000000000              -0.001270577               0.006760765              -0.000293847              -0.001321559               0.002694085               0.001372527               0.000000000               0.000000000               0.000000000               0.000000000              -0.000901460               0.006323261              -0.000225778              -0.001128453               0.002483884               0.001355431               0.000000000               0.000000000               0.000000000               0.000000000              -0.000580812               0.005946794              -0.000171849              -0.000961151               0.002302629               0.001341477               0.000000000               0.000000000               0.000000000               0.000000000              -0.000331824               0.005639392              -0.000124227              -0.000829356               0.002156231               0.001326875               0.000000000               0.000000000               0.000000000               0.000000000              -0.000158383               0.005401542              -0.000082341              -0.000734585               0.002045358               0.001310773               0.000000000               0.000000000               0.000000000               0.000000000              -0.000051060               0.005230446              -0.000047471              -0.000672951               0.001967782               0.001294830               0.000000000               0.000000000               0.000000000               0.000000000              -0.000001198               0.005116447              -0.000017672              -0.000640003               0.001918800               0.001278796               0.000000000               0.000000000               0.000000000               0.000000000               0.000005323               0.005046028               0.000001385              -0.000628756               0.001891578               0.001262822               0.000000000               0.000000000               0.000000000               0.000000000              -0.000002330               0.005017156               0.000008244              -0.000628017               0.001881708               0.001253691               0.000000000               0.000000000               0.000000000               0.000000000              -0.001313684               0.004681581              -0.001744841              -0.001077828               0.001919787               0.000841959               0.000000000               0.000000000               0.000000000               0.000000000              -0.002481978               0.006350142              -0.001949993              -0.001724506               0.002691527               0.000967022               0.000000000               0.000000000               0.000000000               0.000000000              -0.003557979               0.008007089              -0.001947708              -0.002335123               0.003447377               0.001112254               0.000000000               0.000000000               0.000000000               0.000000000              -0.003487259               0.008295391              -0.001656048              -0.002344641               0.003546649               0.001202009               0.000000000               0.000000000               0.000000000               0.000000000              -0.003123689               0.008146894              -0.001374333              -0.002189740               0.003445517               0.001255777               0.000000000               0.000000000               0.000000000               0.000000000              -0.002662991               0.007848550              -0.001135443              -0.001979686               0.003276052               0.001296366               0.000000000               0.000000000               0.000000000               0.000000000              -0.002201147               0.007492548              -0.000934065              -0.001761994               0.003084822               0.001322828               0.000000000               0.000000000               0.000000000               0.000000000              -0.001766522               0.007111664              -0.000766608              -0.001551400               0.002887664               0.001336264               0.000000000               0.000000000               0.000000000               0.000000000              -0.001354716               0.006726290              -0.000625257              -0.001348801               0.002691675               0.001342873               0.000000000               0.000000000               0.000000000               0.000000000              -0.000972224               0.006355598              -0.000507432              -0.001159031               0.002504855               0.001345824               0.000000000               0.000000000               0.000000000               0.000000000              -0.000634625               0.006011429              -0.000402420              -0.000989411               0.002333593               0.001344182               0.000000000               0.000000000               0.000000000               0.000000000              -0.000364671               0.005708652              -0.000303815              -0.000850331               0.002186308               0.001335978               0.000000000               0.000000000               0.000000000               0.000000000              -0.000170483               0.005463639              -0.000213230              -0.000746884               0.002070156               0.001323272               0.000000000               0.000000000               0.000000000               0.000000000              -0.000045531               0.005277166              -0.000131665              -0.000676718               0.001984610               0.001307892               0.000000000               0.000000000               0.000000000               0.000000000               0.000018766               0.005141384              -0.000062847              -0.000635634               0.001925656               0.001290021               0.000000000               0.000000000               0.000000000               0.000000000               0.000035446               0.005053556              -0.000017343              -0.000618401               0.001890635               0.001272235               0.000000000               0.000000000               0.000000000               0.000000000               0.000029789               0.005016763              -0.000001179              -0.000615923               0.001877545               0.001261622               0.000000000               0.000000000               0.000000000               0.000000000              -0.002933076               0.002829879              -0.000852953              -0.001453635               0.001427828              -0.000025808               0.000000000               0.000000000               0.000000000               0.000000000              -0.003248339               0.004747626              -0.001715163              -0.001811576               0.002186384               0.000374808               0.000000000               0.000000000               0.000000000               0.000000000              -0.003827638               0.006625161              -0.002312244              -0.002263505               0.002962866               0.000699361               0.000000000               0.000000000               0.000000000               0.000000000              -0.003638129               0.007264690              -0.002186125              -0.002272380               0.003178999               0.000906619               0.000000000               0.000000000               0.000000000               0.000000000              -0.003244449               0.007409897              -0.001925204              -0.002142901               0.003184241               0.001041340               0.000000000               0.000000000               0.000000000               0.000000000              -0.002783695               0.007333179              -0.001659337              -0.001960529               0.003097878               0.001137349               0.000000000               0.000000000               0.000000000               0.000000000              -0.002314044               0.007153295              -0.001416493              -0.001761924               0.002971716               0.001209791               0.000000000               0.000000000               0.000000000               0.000000000              -0.001874411               0.006922036              -0.001204315              -0.001568155               0.002830041               0.001261886               0.000000000               0.000000000               0.000000000               0.000000000              -0.001460161               0.006658459              -0.001021348              -0.001379864               0.002679419               0.001299554               0.000000000               0.000000000               0.000000000               0.000000000              -0.001069770               0.006371087              -0.000861256              -0.001197547               0.002522856               0.001325310               0.000000000               0.000000000               0.000000000               0.000000000              -0.000711228               0.006083780              -0.000710244              -0.001027180               0.002370300               0.001343119               0.000000000               0.000000000               0.000000000               0.000000000              -0.000402364               0.005807903              -0.000562831              -0.000876872               0.002228239               0.001351367               0.000000000               0.000000000               0.000000000               0.000000000              -0.000160983               0.005559880              -0.000424578              -0.000755352               0.002105059               0.001349707               0.000000000               0.000000000               0.000000000               0.000000000               0.000009037               0.005354975              -0.000293932              -0.000665981               0.002006968               0.001340986               0.000000000               0.000000000               0.000000000               0.000000000               0.000107674               0.005195026              -0.000173370              -0.000608999               0.001934658               0.001325659               0.000000000               0.000000000               0.000000000               0.000000000               0.000137853               0.005078737              -0.000073388              -0.000583146               0.001887277               0.001304132               0.000000000               0.000000000               0.000000000               0.000000000               0.000127430               0.005027175              -0.000027758              -0.000580609               0.001869245               0.001288635               0.000000000               0.000000000               0.000000000               0.000000000              -0.004802881               0.001318235              -0.000048197              -0.001965857               0.001094690              -0.000871167               0.000000000               0.000000000               0.000000000               0.000000000              -0.004154660               0.003240496              -0.001390893              -0.001963056               0.001734505              -0.000228551               0.000000000               0.000000000               0.000000000               0.000000000              -0.004044498               0.005071333              -0.002462709              -0.002150599               0.002407293               0.000256694               0.000000000               0.000000000               0.000000000               0.000000000              -0.003656610               0.005952584              -0.002536606              -0.002115298               0.002689273               0.000573975               0.000000000               0.000000000               0.000000000               0.000000000              -0.003211897               0.006362712              -0.002346219              -0.001999796               0.002787481               0.000787684               0.000000000               0.000000000               0.000000000               0.000000000              -0.002757724               0.006521758              -0.002094443              -0.001849362               0.002790351               0.000940989               0.000000000               0.000000000               0.000000000               0.000000000              -0.002298302               0.006542102              -0.001840221              -0.001679622               0.002740552               0.001060930               0.000000000               0.000000000               0.000000000               0.000000000              -0.001858695               0.006483301              -0.001607280              -0.001507420               0.002663552               0.001156132               0.000000000               0.000000000               0.000000000               0.000000000              -0.001446292               0.006361740              -0.001403216              -0.001337574               0.002566417               0.001228842               0.000000000               0.000000000               0.000000000               0.000000000              -0.001055722               0.006192938              -0.001220706              -0.001170010               0.002454295               0.001284285               0.000000000               0.000000000               0.000000000               0.000000000              -0.000688763               0.006001588              -0.001042597              -0.001008483               0.002336670               0.001328187               0.000000000               0.000000000               0.000000000               0.000000000              -0.000351805               0.005795587              -0.000863282              -0.000856373               0.002217301               0.001360927               0.000000000               0.000000000               0.000000000               0.000000000              -0.000066169               0.005582521              -0.000686943              -0.000722627               0.002101697               0.001379070               0.000000000               0.000000000               0.000000000               0.000000000               0.000153846               0.005385026              -0.000511728              -0.000615435               0.002000135               0.001384701               0.000000000               0.000000000               0.000000000               0.000000000               0.000297447               0.005220983              -0.000333785              -0.000541079               0.001920670               0.001379591               0.000000000               0.000000000               0.000000000               0.000000000               0.000352586               0.005095453              -0.000160829              -0.000504711               0.001866704               0.001361994               0.000000000               0.000000000               0.000000000               0.000000000               0.000344285               0.005035907              -0.000073961              -0.000500380               0.001845412               0.001345032               0.000000000               0.000000000               0.000000000               0.000000000              -0.006792915               0.000215930               0.000556223              -0.002574332               0.000930081              -0.001644251               0.000000000               0.000000000               0.000000000               0.000000000              -0.005141300               0.001907142              -0.001023386              -0.002166377               0.001357830              -0.000808547               0.000000000               0.000000000               0.000000000               0.000000000              -0.004225260               0.003473590              -0.002371471              -0.002018667               0.001830739              -0.000187929               0.000000000               0.000000000               0.000000000               0.000000000              -0.003564117               0.004466120              -0.002620338              -0.001894805               0.002120292               0.000225487               0.000000000               0.000000000               0.000000000               0.000000000              -0.003031674               0.005082616              -0.002524765              -0.001772201               0.002284921               0.000512720               0.000000000               0.000000000               0.000000000               0.000000000              -0.002567193               0.005458528              -0.002324341              -0.001645010               0.002367827               0.000722817               0.000000000               0.000000000               0.000000000               0.000000000              -0.002126547               0.005676128              -0.002094372              -0.001506968               0.002394346               0.000887378               0.000000000               0.000000000               0.000000000               0.000000000              -0.001701548               0.005788541              -0.001870605              -0.001361646               0.002383376               0.001021730               0.000000000               0.000000000               0.000000000               0.000000000              -0.001297900               0.005829137              -0.001669500              -0.001215352               0.002348143               0.001132791               0.000000000               0.000000000               0.000000000               0.000000000              -0.000910426               0.005813088              -0.001487280              -0.001068044               0.002293691               0.001225647               0.000000000               0.000000000               0.000000000               0.000000000              -0.000537574               0.005742756              -0.001309759              -0.000919433               0.002220710               0.001301277               0.000000000               0.000000000               0.000000000               0.000000000              -0.000182772               0.005633652              -0.001125512              -0.000772745               0.002135446               0.001362702               0.000000000               0.000000000               0.000000000               0.000000000               0.000143063               0.005499593              -0.000932621              -0.000633799               0.002044446               0.001410646               0.000000000               0.000000000               0.000000000               0.000000000               0.000423029               0.005355629              -0.000730076              -0.000510817               0.001955464               0.001444647               0.000000000               0.000000000               0.000000000               0.000000000               0.000637587               0.005219332              -0.000505972              -0.000413321               0.001877533               0.001464213               0.000000000               0.000000000               0.000000000               0.000000000               0.000762366               0.005102741              -0.000260339              -0.000351954               0.001818215               0.001466260               0.000000000               0.000000000               0.000000000               0.000000000               0.000794118               0.005047061              -0.000132857              -0.000333088               0.001793366               0.001460279               0.000000000               0.000000000               0.000000000               0.000000000              -0.008717906              -0.000496874               0.000865045              -0.003207103               0.000903403              -0.002303700               0.000000000               0.000000000               0.000000000               0.000000000              -0.006126828               0.000821372              -0.000670381              -0.002400229               0.001073860              -0.001326370               0.000000000               0.000000000               0.000000000               0.000000000              -0.004382561               0.001991115              -0.002038157              -0.001892347               0.001294478              -0.000597869               0.000000000               0.000000000               0.000000000               0.000000000              -0.003400045               0.002979772              -0.002385536              -0.001647485               0.001542407              -0.000105078               0.000000000               0.000000000               0.000000000               0.000000000              -0.002742140               0.003724729              -0.002375871              -0.001493891               0.001739526               0.000245635               0.000000000               0.000000000               0.000000000               0.000000000              -0.002243434               0.004264318              -0.002240637              -0.001374325               0.001879532               0.000505207               0.000000000               0.000000000               0.000000000               0.000000000              -0.001813088               0.004648647              -0.002060615              -0.001260987               0.001969862               0.000708875               0.000000000               0.000000000               0.000000000               0.000000000              -0.001412357               0.004922901              -0.001871894              -0.001144995               0.002022615               0.000877620               0.000000000               0.000000000               0.000000000               0.000000000              -0.001024216               0.005124324              -0.001696978              -0.001024620               0.002049631               0.001025011               0.000000000               0.000000000               0.000000000               0.000000000              -0.000648100               0.005259552              -0.001538732              -0.000900480               0.002053326               0.001152846               0.000000000               0.000000000               0.000000000               0.000000000              -0.000276308               0.005323791              -0.001385722              -0.000769088               0.002030942               0.001261853               0.000000000               0.000000000               0.000000000               0.000000000               0.000093346               0.005328628              -0.001224528              -0.000631073               0.001986549               0.001355476               0.000000000               0.000000000               0.000000000               0.000000000               0.000460056               0.005296198              -0.001049015              -0.000489503               0.001928549               0.001439046               0.000000000               0.000000000               0.000000000               0.000000000               0.000812243               0.005239089              -0.000851298              -0.000350294               0.001863110               0.001512816               0.000000000               0.000000000               0.000000000               0.000000000               0.001133436               0.005165283              -0.000615921              -0.000220621               0.001795284               0.001574663               0.000000000               0.000000000               0.000000000               0.000000000               0.001401938               0.005085177              -0.000331792              -0.000109920               0.001731682               0.001621762               0.000000000               0.000000000               0.000000000               0.000000000               0.001547597               0.005054370              -0.000182627              -0.000051448               0.001701922               0.001650475               0.000000000               0.000000000               0.000000000               0.000000000              -0.010339204              -0.000888766               0.000836002              -0.003766103               0.000959106              -0.002806998               0.000000000               0.000000000               0.000000000               0.000000000              -0.006984503               0.000035920              -0.000376806              -0.002623677               0.000886526              -0.001737151               0.000000000               0.000000000               0.000000000               0.000000000              -0.004518534               0.000786824              -0.001489351              -0.001792801               0.000859868              -0.000932933               0.000000000               0.000000000               0.000000000               0.000000000              -0.003218920               0.001692138              -0.001822449              -0.001418610               0.001036908              -0.000381702               0.000000000               0.000000000               0.000000000               0.000000000              -0.002424362               0.002486700              -0.001860891              -0.001219971               0.001235547               0.000015576               0.000000000               0.000000000               0.000000000               0.000000000              -0.001873259               0.003131739              -0.001785461              -0.001093938               0.001408548               0.000314610               0.000000000               0.000000000               0.000000000               0.000000000              -0.001441197               0.003645881              -0.001664240              -0.000996182               0.001547342               0.000551159               0.000000000               0.000000000               0.000000000               0.000000000              -0.001059853               0.004052891              -0.001531080              -0.000904055               0.001652301               0.000748246               0.000000000               0.000000000               0.000000000               0.000000000              -0.000690357               0.004383506              -0.001404078              -0.000806821               0.001730094               0.000923273               0.000000000               0.000000000               0.000000000               0.000000000              -0.000325616               0.004648900              -0.001286071              -0.000703218               0.001784023               0.001080806               0.000000000               0.000000000               0.000000000               0.000000000               0.000039232               0.004843422              -0.001174974              -0.000590715               0.001811363               0.001220648               0.000000000               0.000000000               0.000000000               0.000000000               0.000416978               0.004962941              -0.001059768              -0.000464000               0.001808964               0.001344963               0.000000000               0.000000000               0.000000000               0.000000000               0.000818122               0.005031465              -0.000929393              -0.000322137               0.001784517               0.001462380               0.000000000               0.000000000               0.000000000               0.000000000               0.001243338               0.005070797              -0.000774529              -0.000167598               0.001746115               0.001578517               0.000000000               0.000000000               0.000000000               0.000000000               0.001689351               0.005076214              -0.000580555              -0.000001021               0.001692395               0.001691374               0.000000000               0.000000000               0.000000000               0.000000000               0.002148864               0.005047461              -0.000323871               0.000174890               0.001624174               0.001799063               0.000000000               0.000000000               0.000000000               0.000000000               0.002466993               0.005056406              -0.000188116               0.000293069               0.001587762               0.001880831               0.000000000               0.000000000               0.000000000               0.000000000              -0.011424031              -0.001063337               0.000504273              -0.004151092               0.001029245              -0.003121847               0.000000000               0.000000000               0.000000000               0.000000000              -0.007571548              -0.000432445              -0.000162532              -0.002785273               0.000784271              -0.002001002               0.000000000               0.000000000               0.000000000               0.000000000              -0.004614568              -0.000001424              -0.000784169              -0.001730284               0.000576282              -0.001154001               0.000000000               0.000000000               0.000000000               0.000000000              -0.003075432               0.000807545              -0.000986215              -0.001254229               0.000687253              -0.000566976               0.000000000               0.000000000               0.000000000               0.000000000              -0.002174240               0.001608532              -0.001023141              -0.001016405               0.000874973              -0.000141432               0.000000000               0.000000000               0.000000000               0.000000000              -0.001580721               0.002312031              -0.000991417              -0.000881773               0.001064593               0.000182820               0.000000000               0.000000000               0.000000000               0.000000000              -0.001138828               0.002909078              -0.000930603              -0.000790693               0.001233247               0.000442554               0.000000000               0.000000000               0.000000000               0.000000000              -0.000762131               0.003406016              -0.000863683              -0.000711550               0.001372510               0.000660961               0.000000000               0.000000000               0.000000000               0.000000000              -0.000408449               0.003823551              -0.000798714              -0.000631111               0.001484875               0.000853763               0.000000000               0.000000000               0.000000000               0.000000000              -0.000055265               0.004172670              -0.000736199              -0.000542307               0.001571645               0.001029338               0.000000000               0.000000000               0.000000000               0.000000000               0.000306357               0.004454919              -0.000677869              -0.000441980               0.001632285               0.001190305               0.000000000               0.000000000               0.000000000               0.000000000               0.000686903               0.004667364              -0.000620002              -0.000325831               0.001664383               0.001338551               0.000000000               0.000000000               0.000000000               0.000000000               0.001106032               0.004823207              -0.000552652              -0.000188139               0.001670432               0.001482294               0.000000000               0.000000000               0.000000000               0.000000000               0.001582581               0.004939753              -0.000469238              -0.000024002               0.001654568               0.001630567               0.000000000               0.000000000               0.000000000               0.000000000               0.002127827               0.005008787              -0.000361551               0.000171835               0.001612300               0.001784136               0.000000000               0.000000000               0.000000000               0.000000000               0.002756211               0.005018799              -0.000206865               0.000406225               0.001537508               0.001943733               0.000000000               0.000000000               0.000000000               0.000000000               0.003242622               0.005060710              -0.000124215               0.000583389               0.001492424               0.002075812               0.000000000               0.000000000               0.000000000               0.000000000              -0.011805282              -0.001110638               0.000000000              -0.004288148               0.001059163              -0.003228985               0.000000000               0.000000000               0.000000000               0.000000000              -0.007779642              -0.000587941               0.000000000              -0.002843871               0.000751972              -0.002091900               0.000000000               0.000000000               0.000000000               0.000000000              -0.004649639              -0.000277465               0.000000000              -0.001708930               0.000477152              -0.001231778               0.000000000               0.000000000               0.000000000               0.000000000              -0.003020680               0.000489788               0.000000000              -0.001193977               0.000561251              -0.000632726               0.000000000               0.000000000               0.000000000               0.000000000              -0.002078845               0.001290006              -0.000000000              -0.000940816               0.000743602              -0.000197214               0.000000000               0.000000000               0.000000000               0.000000000              -0.001471532               0.002012597               0.000000000              -0.000803397               0.000938658               0.000135261               0.000000000               0.000000000               0.000000000               0.000000000              -0.001021650               0.002638276               0.000000000              -0.000712902               0.001117050               0.000404149               0.000000000               0.000000000               0.000000000               0.000000000              -0.000643821               0.003166570               0.000000000              -0.000637253               0.001267930               0.000630678               0.000000000               0.000000000               0.000000000               0.000000000              -0.000295085               0.003616799               0.000000000              -0.000562755               0.001393173               0.000830417               0.000000000               0.000000000               0.000000000               0.000000000               0.000052508               0.003995193              -0.000000000              -0.000479708               0.001491620               0.001011913               0.000000000               0.000000000               0.000000000               0.000000000               0.000413459               0.004307121              -0.000000000              -0.000383342               0.001563473               0.001180131               0.000000000               0.000000000               0.000000000               0.000000000               0.000795898               0.004557230               0.000000000              -0.000271191               0.001609459               0.001338267               0.000000000               0.000000000               0.000000000               0.000000000               0.001218319               0.004749585              -0.000000000              -0.000136828               0.001628789               0.001491960               0.000000000               0.000000000               0.000000000               0.000000000               0.001711084               0.004895751               0.000000000               0.000029687               0.001622005               0.001651692               0.000000000               0.000000000               0.000000000               0.000000000               0.002292790               0.004988734               0.000000000               0.000236202               0.001584161               0.001820363               0.000000000               0.000000000               0.000000000               0.000000000               0.002989837               0.005013245               0.000000000               0.000494528               0.001506222               0.002000751               0.000000000               0.000000000               0.000000000               0.000000000               0.003550043               0.005068664               0.000000000               0.000697676               0.001456979               0.002154655               0.000000000               0.000000000               0.000000000               0.000000000               0.000000000               0.000000000               0.000000000               0.000000000               0.000000000               0.000000000               0.000000000               0.000000000               0.000000000               0.000000000               0.000000000               0.000000000               0.000000000               0.000000000               0.000000000               0.000000000               0.000000000               0.000000000               0.000000000               0.000000000               0.000000000               0.000000000               0.000000000               0.000000000               0.000000000               0.000000000               0.000000000               0.000000000               0.000000000               0.000000000               0.000000000               0.000000000               0.000000000               0.000000000               0.000000000               0.000000000               0.000000000               0.000000000               0.000000000               0.000000000               0.000000000               0.000000000               0.000000000               0.000000000               0.000000000               0.000000000               0.000000000               0.000000000               0.000000000               0.000000000               0.000000000               0.000000000               0.000000000               0.000000000               0.000000000               0.000000000               0.000000000               0.000000000               0.000000000               0.000000000               0.000000000               0.000000000               0.000000000               0.000000000               0.000000000               0.000000000               0.000000000               0.000000000               0.000000000               0.000000000               0.000000000               0.000000000               0.000000000               0.000000000               0.000000000               0.000000000               0.000000000               0.000000000               0.000000000               0.000000000               0.000000000               0.000000000               0.000000000               0.000000000               0.000000000               0.000000000               0.000000000               0.000000000               0.000000000               0.000000000               0.000000000               0.000000000               0.000000000               0.000000000               0.000000000               0.000000000               0.000000000               0.000000000               0.000000000               0.000000000               0.000000000               0.000000000               0.000000000               0.000000000               0.000000000               0.000000000               0.000000000               0.000000000               0.000000000               0.000000000               0.000000000               0.000000000               0.000000000               0.000000000               0.000000000               0.000000000               0.000000000               0.000000000               0.000000000               0.000000000               0.000000000               0.000000000               0.000000000               0.000000000               0.000000000               0.000000000               0.000000000               0.000000000               0.000000000               0.000000000               0.000000000               0.000000000               0.000000000               0.000000000               0.000000000               0.000000000               0.000000000               0.000000000               0.000000000               0.000000000               0.000000000               0.000000000               0.000000000               0.000000000               0.000000000               0.000000000               0.000000000               0.000000000               0.000000000               0.000000000               0.000000000               0.000000000               0.000000000               0.000000000               0.000000000               0.000000000               0.000000000               0.000000000               0.000000000               0.000000000               0.000000000               0.000000000               0.000000000               0.000000000               0.000000000               0.000000000               0.000000000               0.000000000               0.000000000               0.000000000               0.002304870               0.023628843               0.001653568              -0.002089274               0.008572627               0.006483352               0.000000000               0.000000000               0.000000000               0.000000000               0.002158287               0.018505551               0.000825190              -0.001503833               0.006669733               0.005165900               0.000000000               0.000000000               0.000000000               0.000000000               0.002718499               0.014372188               0.000004099              -0.000777084               0.005049709               0.004272625               0.000000000               0.000000000               0.000000000               0.000000000               0.002544169               0.012028615              -0.000342281              -0.000549512               0.004192669               0.003643157               0.000000000               0.000000000               0.000000000               0.000000000               0.002166652               0.010554044              -0.000481245              -0.000506760               0.003686899               0.003180140               0.000000000               0.000000000               0.000000000               0.000000000               0.001767715               0.009530250              -0.000525035              -0.000528387               0.003352847               0.002824460               0.000000000               0.000000000               0.000000000               0.000000000               0.001405495               0.008762926              -0.000527108              -0.000568304               0.003110381               0.002542077               0.000000000               0.000000000               0.000000000               0.000000000               0.001088809               0.008142932              -0.000509876              -0.000609562               0.002917471               0.002307909               0.000000000               0.000000000               0.000000000               0.000000000               0.000817280               0.007609989              -0.000487827              -0.000644767               0.002751560               0.002106793               0.000000000               0.000000000               0.000000000               0.000000000               0.000585528               0.007131591              -0.000463770              -0.000671874               0.002601132               0.001929257               0.000000000               0.000000000               0.000000000               0.000000000               0.000394779               0.006678918              -0.000429142              -0.000686821               0.002455224               0.001768403               0.000000000               0.000000000               0.000000000               0.000000000               0.000249425               0.006228558              -0.000386594              -0.000685034               0.002304510               0.001619476               0.000000000               0.000000000               0.000000000               0.000000000               0.000137725               0.005763646              -0.000344662              -0.000668807               0.002144132               0.001475325               0.000000000               0.000000000               0.000000000               0.000000000               0.000053680               0.005273860              -0.000296337              -0.000639101               0.001970969               0.001331869               0.000000000               0.000000000               0.000000000               0.000000000              -0.000000421               0.004744696              -0.000228063              -0.000593244               0.001779297               0.001186054               0.000000000               0.000000000               0.000000000               0.000000000              -0.000015116               0.004157221              -0.000129895              -0.000525320               0.001560833               0.001035513               0.000000000               0.000000000               0.000000000               0.000000000              -0.000058409               0.003714244              -0.000083497              -0.000486183               0.001400130               0.000913947               0.000000000               0.000000000               0.000000000               0.000000000               0.002495212               0.022175091               0.003067669              -0.001836179               0.008003682               0.006167503               0.000000000               0.000000000               0.000000000               0.000000000               0.002004789               0.017556383               0.001528023              -0.001442749               0.006332985               0.004890236               0.000000000               0.000000000               0.000000000               0.000000000               0.002191366               0.013941256               0.000013164              -0.000920893               0.004954003               0.004033110               0.000000000               0.000000000               0.000000000               0.000000000               0.001878276               0.011861155              -0.000606395              -0.000778289               0.004213109               0.003434819               0.000000000               0.000000000               0.000000000               0.000000000               0.001476402               0.010514901              -0.000845847              -0.000760710               0.003758502               0.002997792               0.000000000               0.000000000               0.000000000               0.000000000               0.001102197               0.009547303              -0.000916630              -0.000780087               0.003442431               0.002662344               0.000000000               0.000000000               0.000000000               0.000000000               0.000787600               0.008799976              -0.000915868              -0.000804645               0.003201511               0.002396866               0.000000000               0.000000000               0.000000000               0.000000000               0.000532564               0.008183173              -0.000882081              -0.000823183               0.003002091               0.002178908               0.000000000               0.000000000               0.000000000               0.000000000               0.000327355               0.007646928              -0.000841162              -0.000833106               0.002826653               0.001993546               0.000000000               0.000000000               0.000000000               0.000000000               0.000164726               0.007160184              -0.000797032              -0.000833249               0.002664454               0.001831205               0.000000000               0.000000000               0.000000000               0.000000000               0.000040181               0.006701211              -0.000738142              -0.000822582               0.002507909               0.001685327               0.000000000               0.000000000               0.000000000               0.000000000              -0.000045124               0.006251578              -0.000666519              -0.000798367               0.002349961               0.001551594               0.000000000               0.000000000               0.000000000               0.000000000              -0.000092727               0.005798051              -0.000591058              -0.000759527               0.002185840               0.001426313               0.000000000               0.000000000               0.000000000               0.000000000              -0.000108551               0.005329600              -0.000504824              -0.000706905               0.002012151               0.001305246               0.000000000               0.000000000               0.000000000               0.000000000              -0.000096395               0.004844674              -0.000387476              -0.000641731               0.001828785               0.001187055               0.000000000               0.000000000               0.000000000               0.000000000              -0.000055881               0.004349933              -0.000220192              -0.000564696               0.001638195               0.001073499               0.000000000               0.000000000               0.000000000               0.000000000              -0.000066895               0.004003308              -0.000138440              -0.000525498               0.001509589               0.000984091               0.000000000               0.000000000               0.000000000               0.000000000               0.002679002               0.019987921               0.004060570              -0.001493863               0.007160527               0.005666664               0.000000000               0.000000000               0.000000000               0.000000000               0.001712184               0.016151484               0.002024911              -0.001376864               0.005842728               0.004465864               0.000000000               0.000000000               0.000000000               0.000000000               0.001385118               0.013308438               0.000049393              -0.001144133               0.004817479               0.003673347               0.000000000               0.000000000               0.000000000               0.000000000               0.000908432               0.011587867              -0.000717698              -0.001107819               0.004231857               0.003124038               0.000000000               0.000000000               0.000000000               0.000000000               0.000497767               0.010409412              -0.000997640              -0.001114511               0.003841273               0.002726762               0.000000000               0.000000000               0.000000000               0.000000000               0.000184407               0.009525258              -0.001069198              -0.001121502               0.003548888               0.002427386               0.000000000               0.000000000               0.000000000               0.000000000              -0.000039460               0.008811077              -0.001060668              -0.001116180               0.003309056               0.002192876               0.000000000               0.000000000               0.000000000               0.000000000              -0.000189966               0.008205947              -0.001019099              -0.001096978               0.003100947               0.002003969               0.000000000               0.000000000               0.000000000               0.000000000              -0.000294361               0.007669676              -0.000969853              -0.001069092               0.002912897               0.001843805               0.000000000               0.000000000               0.000000000               0.000000000              -0.000356348               0.007179977              -0.000917440              -0.001031125               0.002737010               0.001705885               0.000000000               0.000000000               0.000000000               0.000000000              -0.000377557               0.006718032              -0.000848596              -0.000981336               0.002566433               0.001585098               0.000000000               0.000000000               0.000000000               0.000000000              -0.000368731               0.006269621              -0.000763042              -0.000921975               0.002397178               0.001475203               0.000000000               0.000000000               0.000000000               0.000000000              -0.000328836               0.005830907              -0.000668269              -0.000852175               0.002227674               0.001375500               0.000000000               0.000000000               0.000000000               0.000000000              -0.000258354               0.005404231              -0.000557043              -0.000772410               0.002058862               0.001286452               0.000000000               0.000000000               0.000000000               0.000000000              -0.000173460               0.005001560              -0.000417493              -0.000690241               0.001897250               0.001207010               0.000000000               0.000000000               0.000000000               0.000000000              -0.000087482               0.004645971              -0.000233761              -0.000613550               0.001753158               0.001139608               0.000000000               0.000000000               0.000000000               0.000000000              -0.000067636               0.004432386              -0.000141072              -0.000579410               0.001670584               0.001091174               0.000000000               0.000000000               0.000000000               0.000000000               0.002710000               0.017310202               0.004553600              -0.001147526               0.006152517               0.005004991               0.000000000               0.000000000               0.000000000               0.000000000               0.001246243               0.014464737               0.002303159              -0.001340749               0.005268447               0.003927698               0.000000000               0.000000000               0.000000000               0.000000000               0.000387866               0.012546752               0.000154844              -0.001422891               0.004656506               0.003233615               0.000000000               0.000000000               0.000000000               0.000000000              -0.000197319               0.011229192              -0.000629219              -0.001477640               0.004235573               0.002757933               0.000000000               0.000000000               0.000000000               0.000000000              -0.000557416               0.010237268              -0.000901582              -0.001488686               0.003908617               0.002419931               0.000000000               0.000000000               0.000000000               0.000000000              -0.000761058               0.009437456              -0.000965950              -0.001465075               0.003634146               0.002169070               0.000000000               0.000000000               0.000000000               0.000000000              -0.000855097               0.008762529              -0.000956247              -0.001415974               0.003392805               0.001976831               0.000000000               0.000000000               0.000000000               0.000000000              -0.000876619               0.008174909              -0.000919016              -0.001350593               0.003175140               0.001824547               0.000000000               0.000000000               0.000000000               0.000000000              -0.000856366               0.007646837              -0.000875062              -0.001276989               0.002974583               0.001697594               0.000000000               0.000000000               0.000000000               0.000000000              -0.000797028               0.007156823              -0.000827949              -0.001193486               0.002783412               0.001589927               0.000000000               0.000000000               0.000000000               0.000000000              -0.000701991               0.006689425              -0.000763669              -0.001099422               0.002596260               0.001496838               0.000000000               0.000000000               0.000000000               0.000000000              -0.000586669               0.006245811              -0.000680483              -0.001000725               0.002415491               0.001414766               0.000000000               0.000000000               0.000000000               0.000000000              -0.000460524               0.005833866              -0.000583489              -0.000901928               0.002245245               0.001343317               0.000000000               0.000000000               0.000000000               0.000000000              -0.000326889               0.005467362              -0.000470860              -0.000806002               0.002091103               0.001285101               0.000000000               0.000000000               0.000000000               0.000000000              -0.000196894               0.005163311              -0.000338845              -0.000719247               0.001960835               0.001241588               0.000000000               0.000000000               0.000000000               0.000000000              -0.000088663               0.004939533              -0.000182272              -0.000650689               0.001863391               0.001212702               0.000000000               0.000000000               0.000000000               0.000000000              -0.000050919               0.004833747              -0.000103197              -0.000623312               0.001819003               0.001195692               0.000000000               0.000000000               0.000000000               0.000000000               0.002465938               0.014417983               0.004559127              -0.000877523               0.005098453               0.004220930               0.000000000               0.000000000               0.000000000               0.000000000               0.000613240               0.012678869               0.002394807              -0.001354892               0.004677878               0.003322986               0.000000000               0.000000000               0.000000000               0.000000000              -0.000673881               0.011730751               0.000353729              -0.001719045               0.004483226               0.002764181               0.000000000               0.000000000               0.000000000               0.000000000              -0.001262862               0.010803581              -0.000351754              -0.001824016               0.004209163               0.002385147               0.000000000               0.000000000               0.000000000               0.000000000              -0.001502105               0.009982378              -0.000592502              -0.001811082               0.003931120               0.002120038               0.000000000               0.000000000               0.000000000               0.000000000              -0.001554115               0.009257325              -0.000657391              -0.001739955               0.003665729               0.001925774               0.000000000               0.000000000               0.000000000               0.000000000              -0.001499027               0.008623375              -0.000664113              -0.001640053               0.003421114               0.001781061               0.000000000               0.000000000               0.000000000               0.000000000              -0.001387199               0.008058993              -0.000648873              -0.001527570               0.003195494               0.001667924               0.000000000               0.000000000               0.000000000               0.000000000              -0.001239138               0.007542189              -0.000623416              -0.001407447               0.002983187               0.001575740               0.000000000               0.000000000               0.000000000               0.000000000              -0.001059258               0.007047600              -0.000590545              -0.001278169               0.002775233               0.001497064               0.000000000               0.000000000               0.000000000               0.000000000              -0.000859926               0.006575700              -0.000541934              -0.001144432               0.002573355               0.001428923               0.000000000               0.000000000               0.000000000               0.000000000              -0.000658903               0.006144910              -0.000475654              -0.001015200               0.002386683               0.001371483               0.000000000               0.000000000               0.000000000               0.000000000              -0.000469513               0.005771346              -0.000394621              -0.000897483               0.002222924               0.001325441               0.000000000               0.000000000               0.000000000               0.000000000              -0.000301927               0.005465988              -0.000300834              -0.000796469               0.002087468               0.001290998               0.000000000               0.000000000               0.000000000               0.000000000              -0.000164003               0.005236759              -0.000199724              -0.000716094               0.001984267               0.001268173               0.000000000               0.000000000               0.000000000               0.000000000              -0.000065207               0.005089469              -0.000097587              -0.000660635               0.001916684               0.001256050               0.000000000               0.000000000               0.000000000               0.000000000              -0.000031484               0.005031178              -0.000050109              -0.000640702               0.001890610               0.001249908               0.000000000               0.000000000               0.000000000               0.000000000               0.001877933               0.011571318               0.004165402              -0.000742192               0.004104463               0.003362271               0.000000000               0.000000000               0.000000000               0.000000000              -0.000149586               0.010948037               0.002357885              -0.001424597               0.004124174               0.002699577               0.000000000               0.000000000               0.000000000               0.000000000              -0.001679401               0.010896344               0.000652790              -0.001991814               0.004296016               0.002304203               0.000000000               0.000000000               0.000000000               0.000000000              -0.002158104               0.010295979               0.000073388              -0.002096281               0.004130719               0.002034438               0.000000000               0.000000000               0.000000000               0.000000000              -0.002221009               0.009613798              -0.000147864              -0.002034598               0.003882767               0.001848169               0.000000000               0.000000000               0.000000000               0.000000000              -0.002096968               0.008963623              -0.000235841              -0.001906811               0.003623448               0.001716637               0.000000000               0.000000000               0.000000000               0.000000000              -0.001892618               0.008373701              -0.000279541              -0.001756440               0.003376686               0.001620246               0.000000000               0.000000000               0.000000000               0.000000000              -0.001659417               0.007832734              -0.000300584              -0.001601369               0.003144675               0.001543306               0.000000000               0.000000000               0.000000000               0.000000000              -0.001404717               0.007319173              -0.000303876              -0.001441662               0.002920254               0.001478592               0.000000000               0.000000000               0.000000000               0.000000000              -0.001131768               0.006826575              -0.000292692              -0.001277732               0.002701413               0.001423681               0.000000000               0.000000000               0.000000000               0.000000000              -0.000859438               0.006369489              -0.000268706              -0.001118473               0.002495966               0.001377493               0.000000000               0.000000000               0.000000000               0.000000000              -0.000609914               0.005969995              -0.000232651              -0.000974965               0.002314967               0.001340002               0.000000000               0.000000000               0.000000000               0.000000000              -0.000398459               0.005642562              -0.000184393              -0.000854740               0.002165749               0.001311008               0.000000000               0.000000000               0.000000000               0.000000000              -0.000232013               0.005391182              -0.000128020              -0.000760901               0.002050676               0.001289775               0.000000000               0.000000000               0.000000000               0.000000000              -0.000112373               0.005212874              -0.000072977              -0.000693747               0.001968857               0.001275109               0.000000000               0.000000000               0.000000000               0.000000000              -0.000038704               0.005099207              -0.000029642              -0.000651913               0.001917023               0.001265110               0.000000000               0.000000000               0.000000000               0.000000000              -0.000021642               0.005046601              -0.000017009              -0.000638939               0.001895163               0.001256224               0.000000000               0.000000000               0.000000000               0.000000000               0.000990656               0.008948512               0.003488369              -0.000747069               0.003231830               0.002484760               0.000000000               0.000000000               0.000000000               0.000000000              -0.000992663               0.009366916               0.002248236              -0.001543111               0.003636644               0.002093533               0.000000000               0.000000000               0.000000000               0.000000000              -0.002533439               0.010042696               0.001036556              -0.002205371               0.004082655               0.001877284               0.000000000               0.000000000               0.000000000               0.000000000              -0.002806937               0.009698685               0.000573122              -0.002264931               0.003987840               0.001722908               0.000000000               0.000000000               0.000000000               0.000000000              -0.002668376               0.009139740               0.000340978              -0.002143103               0.003760917               0.001617814               0.000000000               0.000000000               0.000000000               0.000000000              -0.002377277               0.008561943               0.000207448              -0.001961717               0.003507858               0.001546141               0.000000000               0.000000000               0.000000000               0.000000000              -0.002042374               0.008014742               0.000113416              -0.001767728               0.003260797               0.001493068               0.000000000               0.000000000               0.000000000               0.000000000              -0.001706870               0.007490576               0.000047248              -0.001576394               0.003022298               0.001445904               0.000000000               0.000000000               0.000000000               0.000000000              -0.001370788               0.006983722               0.000005007              -0.001387007               0.002790220               0.001403212               0.000000000               0.000000000               0.000000000               0.000000000              -0.001037790               0.006513949              -0.000017435              -0.001203412               0.002572432               0.001369020               0.000000000               0.000000000               0.000000000               0.000000000              -0.000732304               0.006100749              -0.000026566              -0.001037205               0.002379298               0.001342093               0.000000000               0.000000000               0.000000000               0.000000000              -0.000475701               0.005755585              -0.000029614              -0.000897834               0.002217787               0.001319953               0.000000000               0.000000000               0.000000000               0.000000000              -0.000279109               0.005485834              -0.000025292              -0.000790393               0.002092057               0.001301664               0.000000000               0.000000000               0.000000000               0.000000000              -0.000143108               0.005287192              -0.000015088              -0.000714563               0.002000567               0.001286005               0.000000000               0.000000000               0.000000000               0.000000000              -0.000059291               0.005152731              -0.000006968              -0.000666324               0.001939668               0.001273344               0.000000000               0.000000000               0.000000000               0.000000000              -0.000018086               0.005067898              -0.000004171              -0.000640268               0.001902705               0.001262437               0.000000000               0.000000000               0.000000000               0.000000000              -0.000015527               0.005026358              -0.000007863              -0.000634116               0.001886808               0.001252692               0.000000000               0.000000000               0.000000000               0.000000000              -0.000064680               0.006733084               0.002645286              -0.000865890               0.002532968               0.001667078               0.000000000               0.000000000               0.000000000               0.000000000              -0.001807859               0.007957112               0.002112024              -0.001672583               0.003209871               0.001537288               0.000000000               0.000000000               0.000000000               0.000000000              -0.003189314               0.009205588               0.001482969              -0.002346685               0.003850727               0.001504041               0.000000000               0.000000000               0.000000000               0.000000000              -0.003241251               0.009124167               0.001096763              -0.002355984               0.003826687               0.001470702               0.000000000               0.000000000               0.000000000               0.000000000              -0.002937125               0.008714666               0.000835896              -0.002190750               0.003635110               0.001444360               0.000000000               0.000000000               0.000000000               0.000000000              -0.002515025               0.008230798               0.000646834              -0.001971979               0.003400898               0.001428919               0.000000000               0.000000000               0.000000000               0.000000000              -0.002082663               0.007738621               0.000498979              -0.001748322               0.003162289               0.001413967               0.000000000               0.000000000               0.000000000               0.000000000              -0.001666695               0.007244055               0.000383784              -0.001530514               0.002924832               0.001394318               0.000000000               0.000000000               0.000000000               0.000000000              -0.001270577               0.006760765               0.000293847              -0.001321559               0.002694085               0.001372527               0.000000000               0.000000000               0.000000000               0.000000000              -0.000901460               0.006323261               0.000225778              -0.001128453               0.002483884               0.001355431               0.000000000               0.000000000               0.000000000               0.000000000              -0.000580812               0.005946794               0.000171849              -0.000961151               0.002302629               0.001341477               0.000000000               0.000000000               0.000000000               0.000000000              -0.000331824               0.005639392               0.000124227              -0.000829356               0.002156231               0.001326875               0.000000000               0.000000000               0.000000000               0.000000000              -0.000158383               0.005401542               0.000082341              -0.000734585               0.002045358               0.001310773               0.000000000               0.000000000               0.000000000               0.000000000              -0.000051060               0.005230446               0.000047471              -0.000672951               0.001967782               0.001294830               0.000000000               0.000000000               0.000000000               0.000000000              -0.000001198               0.005116447               0.000017672              -0.000640003               0.001918800               0.001278796               0.000000000               0.000000000               0.000000000               0.000000000               0.000005323               0.005046028              -0.000001385              -0.000628756               0.001891578               0.001262822               0.000000000               0.000000000               0.000000000               0.000000000              -0.000002330               0.005017156              -0.000008244              -0.000628017               0.001881708               0.001253691               0.000000000               0.000000000               0.000000000               0.000000000              -0.001313684               0.004681581               0.001744841              -0.001077828               0.001919787               0.000841959               0.000000000               0.000000000               0.000000000               0.000000000              -0.002481978               0.006350142               0.001949993              -0.001724506               0.002691527               0.000967022               0.000000000               0.000000000               0.000000000               0.000000000              -0.003557979               0.008007089               0.001947708              -0.002335123               0.003447377               0.001112254               0.000000000               0.000000000               0.000000000               0.000000000              -0.003487259               0.008295391               0.001656048              -0.002344641               0.003546649               0.001202009               0.000000000               0.000000000               0.000000000               0.000000000              -0.003123689               0.008146894               0.001374333              -0.002189740               0.003445517               0.001255777               0.000000000               0.000000000               0.000000000               0.000000000              -0.002662991               0.007848550               0.001135443              -0.001979686               0.003276052               0.001296366               0.000000000               0.000000000               0.000000000               0.000000000              -0.002201147               0.007492548               0.000934065              -0.001761994               0.003084822               0.001322828               0.000000000               0.000000000               0.000000000               0.000000000              -0.001766522               0.007111664               0.000766608              -0.001551400               0.002887664               0.001336264               0.000000000               0.000000000               0.000000000               0.000000000              -0.001354716               0.006726290               0.000625257              -0.001348801               0.002691675               0.001342873               0.000000000               0.000000000               0.000000000               0.000000000              -0.000972224               0.006355598               0.000507432              -0.001159031               0.002504855               0.001345824               0.000000000               0.000000000               0.000000000               0.000000000              -0.000634625               0.006011429               0.000402420              -0.000989411               0.002333593               0.001344182               0.000000000               0.000000000               0.000000000               0.000000000              -0.000364671               0.005708652               0.000303815              -0.000850331               0.002186308               0.001335978               0.000000000               0.000000000               0.000000000               0.000000000              -0.000170483               0.005463639               0.000213230              -0.000746884               0.002070156               0.001323272               0.000000000               0.000000000               0.000000000               0.000000000              -0.000045531               0.005277166               0.000131665              -0.000676718               0.001984610               0.001307892               0.000000000               0.000000000               0.000000000               0.000000000               0.000018766               0.005141384               0.000062847              -0.000635634               0.001925656               0.001290021               0.000000000               0.000000000               0.000000000               0.000000000               0.000035446               0.005053556               0.000017343              -0.000618401               0.001890635               0.001272235               0.000000000               0.000000000               0.000000000               0.000000000               0.000029789               0.005016763               0.000001179              -0.000615923               0.001877545               0.001261622               0.000000000               0.000000000               0.000000000               0.000000000              -0.002933076               0.002829879               0.000852953              -0.001453635               0.001427828              -0.000025808               0.000000000               0.000000000               0.000000000               0.000000000              -0.003248339               0.004747626               0.001715163              -0.001811576               0.002186384               0.000374808               0.000000000               0.000000000               0.000000000               0.000000000              -0.003827638               0.006625161               0.002312244              -0.002263505               0.002962866               0.000699361               0.000000000               0.000000000               0.000000000               0.000000000              -0.003638129               0.007264690               0.002186125              -0.002272380               0.003178999               0.000906619               0.000000000               0.000000000               0.000000000               0.000000000              -0.003244449               0.007409897               0.001925204              -0.002142901               0.003184241               0.001041340               0.000000000               0.000000000               0.000000000               0.000000000              -0.002783695               0.007333179               0.001659337              -0.001960529               0.003097878               0.001137349               0.000000000               0.000000000               0.000000000               0.000000000              -0.002314044               0.007153295               0.001416493              -0.001761924               0.002971716               0.001209791               0.000000000               0.000000000               0.000000000               0.000000000              -0.001874411               0.006922036               0.001204315              -0.001568155               0.002830041               0.001261886               0.000000000               0.000000000               0.000000000               0.000000000              -0.001460161               0.006658459               0.001021348              -0.001379864               0.002679419               0.001299554               0.000000000               0.000000000               0.000000000               0.000000000              -0.001069770               0.006371087               0.000861256              -0.001197547               0.002522856               0.001325310               0.000000000               0.000000000               0.000000000               0.000000000              -0.000711228               0.006083780               0.000710244              -0.001027180               0.002370300               0.001343119               0.000000000               0.000000000               0.000000000               0.000000000              -0.000402364               0.005807903               0.000562831              -0.000876872               0.002228239               0.001351367               0.000000000               0.000000000               0.000000000               0.000000000              -0.000160983               0.005559880               0.000424578              -0.000755352               0.002105059               0.001349707               0.000000000               0.000000000               0.000000000               0.000000000               0.000009037               0.005354975               0.000293932              -0.000665981               0.002006968               0.001340986               0.000000000               0.000000000               0.000000000               0.000000000               0.000107674               0.005195026               0.000173370              -0.000608999               0.001934658               0.001325659               0.000000000               0.000000000               0.000000000               0.000000000               0.000137853               0.005078737               0.000073388              -0.000583146               0.001887277               0.001304132               0.000000000               0.000000000               0.000000000               0.000000000               0.000127430               0.005027175               0.000027758              -0.000580609               0.001869245               0.001288635               0.000000000               0.000000000               0.000000000               0.000000000              -0.004802881               0.001318235               0.000048197              -0.001965857               0.001094690              -0.000871167               0.000000000               0.000000000               0.000000000               0.000000000              -0.004154660               0.003240496               0.001390893              -0.001963056               0.001734505              -0.000228551               0.000000000               0.000000000               0.000000000               0.000000000              -0.004044498               0.005071333               0.002462709              -0.002150599               0.002407293               0.000256694               0.000000000               0.000000000               0.000000000               0.000000000              -0.003656610               0.005952584               0.002536606              -0.002115298               0.002689273               0.000573975               0.000000000               0.000000000               0.000000000               0.000000000              -0.003211897               0.006362712               0.002346219              -0.001999796               0.002787481               0.000787684               0.000000000               0.000000000               0.000000000               0.000000000              -0.002757724               0.006521758               0.002094443              -0.001849362               0.002790351               0.000940989               0.000000000               0.000000000               0.000000000               0.000000000              -0.002298302               0.006542102               0.001840221              -0.001679622               0.002740552               0.001060930               0.000000000               0.000000000               0.000000000               0.000000000              -0.001858695               0.006483301               0.001607280              -0.001507420               0.002663552               0.001156132               0.000000000               0.000000000               0.000000000               0.000000000              -0.001446292               0.006361740               0.001403216              -0.001337574               0.002566417               0.001228842               0.000000000               0.000000000               0.000000000               0.000000000              -0.001055722               0.006192938               0.001220706              -0.001170010               0.002454295               0.001284285               0.000000000               0.000000000               0.000000000               0.000000000              -0.000688763               0.006001588               0.001042597              -0.001008483               0.002336670               0.001328187               0.000000000               0.000000000               0.000000000               0.000000000              -0.000351805               0.005795587               0.000863282              -0.000856373               0.002217301               0.001360927               0.000000000               0.000000000               0.000000000               0.000000000              -0.000066169               0.005582521               0.000686943              -0.000722627               0.002101697               0.001379070               0.000000000               0.000000000               0.000000000               0.000000000               0.000153846               0.005385026               0.000511728              -0.000615435               0.002000135               0.001384701               0.000000000               0.000000000               0.000000000               0.000000000               0.000297447               0.005220983               0.000333785              -0.000541079               0.001920670               0.001379591               0.000000000               0.000000000               0.000000000               0.000000000               0.000352586               0.005095453               0.000160829              -0.000504711               0.001866704               0.001361994               0.000000000               0.000000000               0.000000000               0.000000000               0.000344285               0.005035907               0.000073961              -0.000500380               0.001845412               0.001345032               0.000000000               0.000000000               0.000000000               0.000000000              -0.006792915               0.000215930              -0.000556223              -0.002574332               0.000930081              -0.001644251               0.000000000               0.000000000               0.000000000               0.000000000              -0.005141300               0.001907142               0.001023386              -0.002166377               0.001357830              -0.000808547               0.000000000               0.000000000               0.000000000               0.000000000              -0.004225260               0.003473590               0.002371471              -0.002018667               0.001830739              -0.000187929               0.000000000               0.000000000               0.000000000               0.000000000              -0.003564117               0.004466120               0.002620338              -0.001894805               0.002120292               0.000225487               0.000000000               0.000000000               0.000000000               0.000000000              -0.003031674               0.005082616               0.002524765              -0.001772201               0.002284921               0.000512720               0.000000000               0.000000000               0.000000000               0.000000000              -0.002567193               0.005458528               0.002324341              -0.001645010               0.002367827               0.000722817               0.000000000               0.000000000               0.000000000               0.000000000              -0.002126547               0.005676128               0.002094372              -0.001506968               0.002394346               0.000887378               0.000000000               0.000000000               0.000000000               0.000000000              -0.001701548               0.005788541               0.001870605              -0.001361646               0.002383376               0.001021730               0.000000000               0.000000000               0.000000000               0.000000000              -0.001297900               0.005829137               0.001669500              -0.001215352               0.002348143               0.001132791               0.000000000               0.000000000               0.000000000               0.000000000              -0.000910426               0.005813088               0.001487280              -0.001068044               0.002293691               0.001225647               0.000000000               0.000000000               0.000000000               0.000000000              -0.000537574               0.005742756               0.001309759              -0.000919433               0.002220710               0.001301277               0.000000000               0.000000000               0.000000000               0.000000000              -0.000182772               0.005633652               0.001125512              -0.000772745               0.002135446               0.001362702               0.000000000               0.000000000               0.000000000               0.000000000               0.000143063               0.005499593               0.000932621              -0.000633799               0.002044446               0.001410646               0.000000000               0.000000000               0.000000000               0.000000000               0.000423029               0.005355629               0.000730076              -0.000510817               0.001955464               0.001444647               0.000000000               0.000000000               0.000000000               0.000000000               0.000637587               0.005219332               0.000505972              -0.000413321               0.001877533               0.001464213               0.000000000               0.000000000               0.000000000               0.000000000               0.000762366               0.005102741               0.000260339              -0.000351954               0.001818215               0.001466260               0.000000000               0.000000000               0.000000000               0.000000000               0.000794118               0.005047061               0.000132857              -0.000333088               0.001793366               0.001460279               0.000000000               0.000000000               0.000000000               0.000000000              -0.008717906              -0.000496874              -0.000865045              -0.003207103               0.000903403              -0.002303700               0.000000000               0.000000000               0.000000000               0.000000000              -0.006126828               0.000821372               0.000670381              -0.002400229               0.001073860              -0.001326370               0.000000000               0.000000000               0.000000000               0.000000000              -0.004382561               0.001991115               0.002038157              -0.001892347               0.001294478              -0.000597869               0.000000000               0.000000000               0.000000000               0.000000000              -0.003400045               0.002979772               0.002385536              -0.001647485               0.001542407              -0.000105078               0.000000000               0.000000000               0.000000000               0.000000000              -0.002742140               0.003724729               0.002375871              -0.001493891               0.001739526               0.000245635               0.000000000               0.000000000               0.000000000               0.000000000              -0.002243434               0.004264318               0.002240637              -0.001374325               0.001879532               0.000505207               0.000000000               0.000000000               0.000000000               0.000000000              -0.001813088               0.004648647               0.002060615              -0.001260987               0.001969862               0.000708875               0.000000000               0.000000000               0.000000000               0.000000000              -0.001412357               0.004922901               0.001871894              -0.001144995               0.002022615               0.000877620               0.000000000               0.000000000               0.000000000               0.000000000              -0.001024216               0.005124324               0.001696978              -0.001024620               0.002049631               0.001025011               0.000000000               0.000000000               0.000000000               0.000000000              -0.000648100               0.005259552               0.001538732              -0.000900480               0.002053326               0.001152846               0.000000000               0.000000000               0.000000000               0.000000000              -0.000276308               0.005323791               0.001385722              -0.000769088               0.002030942               0.001261853               0.000000000               0.000000000               0.000000000               0.000000000               0.000093346               0.005328628               0.001224528              -0.000631073               0.001986549               0.001355476               0.000000000               0.000000000               0.000000000               0.000000000               0.000460056               0.005296198               0.001049015              -0.000489503               0.001928549               0.001439046               0.000000000               0.000000000               0.000000000               0.000000000               0.000812243               0.005239089               0.000851298              -0.000350294               0.001863110               0.001512816               0.000000000               0.000000000               0.000000000               0.000000000               0.001133436               0.005165283               0.000615921              -0.000220621               0.001795284               0.001574663               0.000000000               0.000000000               0.000000000               0.000000000               0.001401938               0.005085177               0.000331792              -0.000109920               0.001731682               0.001621762               0.000000000               0.000000000               0.000000000               0.000000000               0.001547597               0.005054370               0.000182627              -0.000051448               0.001701922               0.001650475               0.000000000               0.000000000               0.000000000               0.000000000              -0.010339204              -0.000888766              -0.000836002              -0.003766103               0.000959106              -0.002806998               0.000000000               0.000000000               0.000000000               0.000000000              -0.006984503               0.000035920               0.000376806              -0.002623677               0.000886526              -0.001737151               0.000000000               0.000000000               0.000000000               0.000000000              -0.004518534               0.000786824               0.001489351              -0.001792801               0.000859868              -0.000932933               0.000000000               0.000000000               0.000000000               0.000000000              -0.003218920               0.001692138               0.001822449              -0.001418610               0.001036908              -0.000381702               0.000000000               0.000000000               0.000000000               0.000000000              -0.002424362               0.002486700               0.001860891              -0.001219971               0.001235547               0.000015576               0.000000000               0.000000000               0.000000000               0.000000000              -0.001873259               0.003131739               0.001785461              -0.001093938               0.001408548               0.000314610               0.000000000               0.000000000               0.000000000               0.000000000              -0.001441197               0.003645881               0.001664240              -0.000996182               0.001547342               0.000551159               0.000000000               0.000000000               0.000000000               0.000000000              -0.001059853               0.004052891               0.001531080              -0.000904055               0.001652301               0.000748246               0.000000000               0.000000000               0.000000000               0.000000000              -0.000690357               0.004383506               0.001404078              -0.000806821               0.001730094               0.000923273               0.000000000               0.000000000               0.000000000               0.000000000              -0.000325616               0.004648900               0.001286071              -0.000703218               0.001784023               0.001080806               0.000000000               0.000000000               0.000000000               0.000000000               0.000039232               0.004843422               0.001174974              -0.000590715               0.001811363               0.001220648               0.000000000               0.000000000               0.000000000               0.000000000               0.000416978               0.004962941               0.001059768              -0.000464000               0.001808964               0.001344963               0.000000000               0.000000000               0.000000000               0.000000000               0.000818122               0.005031465               0.000929393              -0.000322137               0.001784517               0.001462380               0.000000000               0.000000000               0.000000000               0.000000000               0.001243338               0.005070797               0.000774529              -0.000167598               0.001746115               0.001578517               0.000000000               0.000000000               0.000000000               0.000000000               0.001689351               0.005076214               0.000580555              -0.000001021               0.001692395               0.001691374               0.000000000               0.000000000               0.000000000               0.000000000               0.002148864               0.005047461               0.000323871               0.000174890               0.001624174               0.001799063               0.000000000               0.000000000               0.000000000               0.000000000               0.002466993               0.005056406               0.000188116               0.000293069               0.001587762               0.001880831               0.000000000               0.000000000               0.000000000               0.000000000              -0.011424031              -0.001063337              -0.000504273              -0.004151092               0.001029245              -0.003121847               0.000000000               0.000000000               0.000000000               0.000000000              -0.007571548              -0.000432445               0.000162532              -0.002785273               0.000784271              -0.002001002               0.000000000               0.000000000               0.000000000               0.000000000              -0.004614568              -0.000001424               0.000784169              -0.001730284               0.000576282              -0.001154001               0.000000000               0.000000000               0.000000000               0.000000000              -0.003075432               0.000807545               0.000986215              -0.001254229               0.000687253              -0.000566976               0.000000000               0.000000000               0.000000000               0.000000000              -0.002174240               0.001608532               0.001023141              -0.001016405               0.000874973              -0.000141432               0.000000000               0.000000000               0.000000000               0.000000000              -0.001580721               0.002312031               0.000991417              -0.000881773               0.001064593               0.000182820               0.000000000               0.000000000               0.000000000               0.000000000              -0.001138828               0.002909078               0.000930603              -0.000790693               0.001233247               0.000442554               0.000000000               0.000000000               0.000000000               0.000000000              -0.000762131               0.003406016               0.000863683              -0.000711550               0.001372510               0.000660961               0.000000000               0.000000000               0.000000000               0.000000000              -0.000408449               0.003823551               0.000798714              -0.000631111               0.001484875               0.000853763               0.000000000               0.000000000               0.000000000               0.000000000              -0.000055265               0.004172670               0.000736199              -0.000542307               0.001571645               0.001029338               0.000000000               0.000000000               0.000000000               0.000000000               0.000306357               0.004454919               0.000677869              -0.000441980               0.001632285               0.001190305               0.000000000               0.000000000               0.000000000               0.000000000               0.000686903               0.004667364               0.000620002              -0.000325831               0.001664383               0.001338551               0.000000000               0.000000000               0.000000000               0.000000000               0.001106032               0.004823207               0.000552652              -0.000188139               0.001670432               0.001482294               0.000000000               0.000000000               0.000000000               0.000000000               0.001582581               0.004939753               0.000469238              -0.000024002               0.001654568               0.001630567               0.000000000               0.000000000               0.000000000               0.000000000               0.002127827               0.005008787               0.000361551               0.000171835               0.001612300               0.001784136               0.000000000               0.000000000               0.000000000               0.000000000               0.002756211               0.005018799               0.000206865               0.000406225               0.001537508               0.001943733               0.000000000               0.000000000               0.000000000               0.000000000               0.003242622               0.005060710               0.000124215               0.000583389               0.001492424               0.002075812               0.000000000               0.000000000               0.000000000               0.000000000              -0.011805282              -0.001110638               0.000000000              -0.004288148               0.001059163              -0.003228985               0.000000000               0.000000000               0.000000000               0.000000000              -0.007779642              -0.000587941               0.000000000              -0.002843871               0.000751972              -0.002091900               0.000000000               0.000000000               0.000000000               0.000000000              -0.004649639              -0.000277465              -0.000000000              -0.001708930               0.000477152              -0.001231778               0.000000000               0.000000000               0.000000000               0.000000000              -0.003020680               0.000489788               0.000000000              -0.001193977               0.000561251              -0.000632726               0.000000000               0.000000000               0.000000000               0.000000000              -0.002078845               0.001290006              -0.000000000              -0.000940816               0.000743602              -0.000197214               0.000000000               0.000000000               0.000000000               0.000000000              -0.001471532               0.002012597              -0.000000000              -0.000803397               0.000938658               0.000135261               0.000000000               0.000000000               0.000000000               0.000000000              -0.001021650               0.002638276              -0.000000000              -0.000712902               0.001117050               0.000404149               0.000000000               0.000000000               0.000000000               0.000000000              -0.000643821               0.003166570               0.000000000              -0.000637253               0.001267930               0.000630678               0.000000000               0.000000000               0.000000000               0.000000000              -0.000295085               0.003616799              -0.000000000              -0.000562755               0.001393173               0.000830417               0.000000000               0.000000000               0.000000000               0.000000000               0.000052508               0.003995193              -0.000000000              -0.000479708               0.001491620               0.001011913               0.000000000               0.000000000               0.000000000               0.000000000               0.000413459               0.004307121              -0.000000000              -0.000383342               0.001563473               0.001180131               0.000000000               0.000000000               0.000000000               0.000000000               0.000795898               0.004557230               0.000000000              -0.000271191               0.001609459               0.001338267               0.000000000               0.000000000               0.000000000               0.000000000               0.001218319               0.004749585               0.000000000              -0.000136828               0.001628789               0.001491960               0.000000000               0.000000000               0.000000000               0.000000000               0.001711084               0.004895751              -0.000000000               0.000029687               0.001622005               0.001651692               0.000000000               0.000000000               0.000000000               0.000000000               0.002292790               0.004988734               0.000000000               0.000236202               0.001584161               0.001820363               0.000000000               0.000000000               0.000000000               0.000000000               0.002989837               0.005013245               0.000000000               0.000494528               0.001506222               0.002000751               0.000000000               0.000000000               0.000000000               0.000000000               0.003550043               0.005068664               0.000000000               0.000697676               0.001456979               0.002154655               0.000000000               0.000000000               0.000000000               0.000000000               0.002227984               0.024143175               0.000000000              -0.002182398               0.008775110               0.006592713               0.000000000               0.000000000               0.000000000               0.000000000               0.002205591               0.018843856               0.000000000              -0.001528381               0.006790683               0.005262302               0.000000000               0.000000000               0.000000000               0.000000000               0.002900055               0.014527776              -0.000000000              -0.000728449               0.005085360               0.004356911               0.000000000               0.000000000               0.000000000               0.000000000               0.002781253               0.012086295              -0.000000000              -0.000467816               0.004184663               0.003716847               0.000000000               0.000000000               0.000000000               0.000000000               0.002419825               0.010562396               0.000000000              -0.000412864               0.003658385               0.003245521               0.000000000               0.000000000               0.000000000               0.000000000               0.002014704               0.009519252               0.000000000              -0.000434391               0.003317849               0.002883458               0.000000000               0.000000000               0.000000000               0.000000000               0.001634151               0.008742352               0.000000000              -0.000479986               0.003074084               0.002594097               0.000000000               0.000000000               0.000000000               0.000000000               0.001294704               0.008120666               0.000000000              -0.000529568               0.002883384               0.002353816               0.000000000               0.000000000               0.000000000               0.000000000               0.000999116               0.007589693              -0.000000000              -0.000574042               0.002721220               0.002147178               0.000000000               0.000000000               0.000000000               0.000000000               0.000746937               0.007116994              -0.000000000              -0.000609521               0.002575481               0.001965960               0.000000000               0.000000000               0.000000000               0.000000000               0.000539656               0.006670754               0.000000000              -0.000631472               0.002434053               0.001802581               0.000000000               0.000000000               0.000000000               0.000000000               0.000374208               0.006219929               0.000000000              -0.000637161               0.002285676               0.001648515               0.000000000               0.000000000               0.000000000               0.000000000               0.000240458               0.005750235              -0.000000000              -0.000628606               0.002126261               0.001497655               0.000000000               0.000000000               0.000000000               0.000000000               0.000133597               0.005254184               0.000000000              -0.000606673               0.001953601               0.001346929               0.000000000               0.000000000               0.000000000               0.000000000               0.000051337               0.004709477               0.000000000              -0.000569432               0.001759621               0.001190189               0.000000000               0.000000000               0.000000000               0.000000000               0.000009837               0.004092532               0.000000000              -0.000507877               0.001533456               0.001025579               0.000000000               0.000000000               0.000000000               0.000000000              -0.000047216               0.003619844               0.000000000              -0.000470185               0.001363331               0.000893145               0.000000000               0.000000000               0.000000000               0.000000000               0.002304870               0.023628843              -0.001653568              -0.002089274               0.008572627               0.006483352               0.000000000               0.000000000               0.000000000               0.000000000               0.002158287               0.018505551              -0.000825190              -0.001503833               0.006669733               0.005165900               0.000000000               0.000000000               0.000000000               0.000000000               0.002718499               0.014372188              -0.000004099              -0.000777084               0.005049709               0.004272625               0.000000000               0.000000000               0.000000000               0.000000000               0.002544169               0.012028615               0.000342281              -0.000549512               0.004192669               0.003643157               0.000000000               0.000000000               0.000000000               0.000000000               0.002166652               0.010554044               0.000481245              -0.000506760               0.003686899               0.003180140               0.000000000               0.000000000               0.000000000               0.000000000               0.001767715               0.009530250               0.000525035              -0.000528387               0.003352847               0.002824460               0.000000000               0.000000000               0.000000000               0.000000000               0.001405495               0.008762926               0.000527108              -0.000568304               0.003110381               0.002542077               0.000000000               0.000000000               0.000000000               0.000000000               0.001088809               0.008142932               0.000509876              -0.000609562               0.002917471               0.002307909               0.000000000               0.000000000               0.000000000               0.000000000               0.000817280               0.007609989               0.000487827              -0.000644767               0.002751560               0.002106793               0.000000000               0.000000000               0.000000000               0.000000000               0.000585528               0.007131591               0.000463770              -0.000671874               0.002601132               0.001929257               0.000000000               0.000000000               0.000000000               0.000000000               0.000394779               0.006678918               0.000429142              -0.000686821               0.002455224               0.001768403               0.000000000               0.000000000               0.000000000               0.000000000               0.000249425               0.006228558               0.000386594              -0.000685034               0.002304510               0.001619476               0.000000000               0.000000000               0.000000000               0.000000000               0.000137725               0.005763646               0.000344662              -0.000668807               0.002144132               0.001475325               0.000000000               0.000000000               0.000000000               0.000000000               0.000053680               0.005273860               0.000296337              -0.000639101               0.001970969               0.001331869               0.000000000               0.000000000               0.000000000               0.000000000              -0.000000421               0.004744696               0.000228063              -0.000593244               0.001779297               0.001186054               0.000000000               0.000000000               0.000000000               0.000000000              -0.000015116               0.004157221               0.000129895              -0.000525320               0.001560833               0.001035513               0.000000000               0.000000000               0.000000000               0.000000000              -0.000058409               0.003714244               0.000083497              -0.000486183               0.001400130               0.000913947               0.000000000               0.000000000               0.000000000               0.000000000               0.002495212               0.022175091              -0.003067669              -0.001836179               0.008003682               0.006167503               0.000000000               0.000000000               0.000000000               0.000000000               0.002004789               0.017556383              -0.001528023              -0.001442749               0.006332985               0.004890236               0.000000000               0.000000000               0.000000000               0.000000000               0.002191366               0.013941256              -0.000013164              -0.000920893               0.004954003               0.004033110               0.000000000               0.000000000               0.000000000               0.000000000               0.001878276               0.011861155               0.000606395              -0.000778289               0.004213109               0.003434819               0.000000000               0.000000000               0.000000000               0.000000000               0.001476402               0.010514901               0.000845847              -0.000760710               0.003758502               0.002997792               0.000000000               0.000000000               0.000000000               0.000000000               0.001102197               0.009547303               0.000916630              -0.000780087               0.003442431               0.002662344               0.000000000               0.000000000               0.000000000               0.000000000               0.000787600               0.008799976               0.000915868              -0.000804645               0.003201511               0.002396866               0.000000000               0.000000000               0.000000000               0.000000000               0.000532564               0.008183173               0.000882081              -0.000823183               0.003002091               0.002178908               0.000000000               0.000000000               0.000000000               0.000000000               0.000327355               0.007646928               0.000841162              -0.000833106               0.002826653               0.001993546               0.000000000               0.000000000               0.000000000               0.000000000               0.000164726               0.007160184               0.000797032              -0.000833249               0.002664454               0.001831205               0.000000000               0.000000000               0.000000000               0.000000000               0.000040181               0.006701211               0.000738142              -0.000822582               0.002507909               0.001685327               0.000000000               0.000000000               0.000000000               0.000000000              -0.000045124               0.006251578               0.000666519              -0.000798367               0.002349961               0.001551594               0.000000000               0.000000000               0.000000000               0.000000000              -0.000092727               0.005798051               0.000591058              -0.000759527               0.002185840               0.001426313               0.000000000               0.000000000               0.000000000               0.000000000              -0.000108551               0.005329600               0.000504824              -0.000706905               0.002012151               0.001305246               0.000000000               0.000000000               0.000000000               0.000000000              -0.000096395               0.004844674               0.000387476              -0.000641731               0.001828785               0.001187055               0.000000000               0.000000000               0.000000000               0.000000000              -0.000055881               0.004349933               0.000220192              -0.000564696               0.001638195               0.001073499               0.000000000               0.000000000               0.000000000               0.000000000              -0.000066895               0.004003308               0.000138440              -0.000525498               0.001509589               0.000984091               0.000000000               0.000000000               0.000000000               0.000000000               0.002679002               0.019987921              -0.004060570              -0.001493863               0.007160527               0.005666664               0.000000000               0.000000000               0.000000000               0.000000000               0.001712184               0.016151484              -0.002024911              -0.001376864               0.005842728               0.004465864               0.000000000               0.000000000               0.000000000               0.000000000               0.001385118               0.013308438              -0.000049393              -0.001144133               0.004817479               0.003673347               0.000000000               0.000000000               0.000000000               0.000000000               0.000908432               0.011587867               0.000717698              -0.001107819               0.004231857               0.003124038               0.000000000               0.000000000               0.000000000               0.000000000               0.000497767               0.010409412               0.000997640              -0.001114511               0.003841273               0.002726762               0.000000000               0.000000000               0.000000000               0.000000000               0.000184407               0.009525258               0.001069198              -0.001121502               0.003548888               0.002427386               0.000000000               0.000000000               0.000000000               0.000000000              -0.000039460               0.008811077               0.001060668              -0.001116180               0.003309056               0.002192876               0.000000000               0.000000000               0.000000000               0.000000000              -0.000189966               0.008205947               0.001019099              -0.001096978               0.003100947               0.002003969               0.000000000               0.000000000               0.000000000               0.000000000              -0.000294361               0.007669676               0.000969853              -0.001069092               0.002912897               0.001843805               0.000000000               0.000000000               0.000000000               0.000000000              -0.000356348               0.007179977               0.000917440              -0.001031125               0.002737010               0.001705885               0.000000000               0.000000000               0.000000000               0.000000000              -0.000377557               0.006718032               0.000848596              -0.000981336               0.002566433               0.001585098               0.000000000               0.000000000               0.000000000               0.000000000              -0.000368731               0.006269621               0.000763042              -0.000921975               0.002397178               0.001475203               0.000000000               0.000000000               0.000000000               0.000000000              -0.000328836               0.005830907               0.000668269              -0.000852175               0.002227674               0.001375500               0.000000000               0.000000000               0.000000000               0.000000000              -0.000258354               0.005404231               0.000557043              -0.000772410               0.002058862               0.001286452               0.000000000               0.000000000               0.000000000               0.000000000              -0.000173460               0.005001560               0.000417493              -0.000690241               0.001897250               0.001207010               0.000000000               0.000000000               0.000000000               0.000000000              -0.000087482               0.004645971               0.000233761              -0.000613550               0.001753158               0.001139608               0.000000000               0.000000000               0.000000000               0.000000000              -0.000067636               0.004432386               0.000141072              -0.000579410               0.001670584               0.001091174               0.000000000               0.000000000               0.000000000               0.000000000               0.002710000               0.017310202              -0.004553600              -0.001147526               0.006152517               0.005004991               0.000000000               0.000000000               0.000000000               0.000000000               0.001246243               0.014464737              -0.002303159              -0.001340749               0.005268447               0.003927698               0.000000000               0.000000000               0.000000000               0.000000000               0.000387866               0.012546752              -0.000154844              -0.001422891               0.004656506               0.003233615               0.000000000               0.000000000               0.000000000               0.000000000              -0.000197319               0.011229192               0.000629219              -0.001477640               0.004235573               0.002757933               0.000000000               0.000000000               0.000000000               0.000000000              -0.000557416               0.010237268               0.000901582              -0.001488686               0.003908617               0.002419931               0.000000000               0.000000000               0.000000000               0.000000000              -0.000761058               0.009437456               0.000965950              -0.001465075               0.003634146               0.002169070               0.000000000               0.000000000               0.000000000               0.000000000              -0.000855097               0.008762529               0.000956247              -0.001415974               0.003392805               0.001976831               0.000000000               0.000000000               0.000000000               0.000000000              -0.000876619               0.008174909               0.000919016              -0.001350593               0.003175140               0.001824547               0.000000000               0.000000000               0.000000000               0.000000000              -0.000856366               0.007646837               0.000875062              -0.001276989               0.002974583               0.001697594               0.000000000               0.000000000               0.000000000               0.000000000              -0.000797028               0.007156823               0.000827949              -0.001193486               0.002783412               0.001589927               0.000000000               0.000000000               0.000000000               0.000000000              -0.000701991               0.006689425               0.000763669              -0.001099422               0.002596260               0.001496838               0.000000000               0.000000000               0.000000000               0.000000000              -0.000586669               0.006245811               0.000680483              -0.001000725               0.002415491               0.001414766               0.000000000               0.000000000               0.000000000               0.000000000              -0.000460524               0.005833866               0.000583489              -0.000901928               0.002245245               0.001343317               0.000000000               0.000000000               0.000000000               0.000000000              -0.000326889               0.005467362               0.000470860              -0.000806002               0.002091103               0.001285101               0.000000000               0.000000000               0.000000000               0.000000000              -0.000196894               0.005163311               0.000338845              -0.000719247               0.001960835               0.001241588               0.000000000               0.000000000               0.000000000               0.000000000              -0.000088663               0.004939533               0.000182272              -0.000650689               0.001863391               0.001212702               0.000000000               0.000000000               0.000000000               0.000000000              -0.000050919               0.004833747               0.000103197              -0.000623312               0.001819003               0.001195692               0.000000000               0.000000000               0.000000000               0.000000000               0.002465938               0.014417983              -0.004559127              -0.000877523               0.005098453               0.004220930               0.000000000               0.000000000               0.000000000               0.000000000               0.000613240               0.012678869              -0.002394807              -0.001354892               0.004677878               0.003322986               0.000000000               0.000000000               0.000000000               0.000000000              -0.000673881               0.011730751              -0.000353729              -0.001719045               0.004483226               0.002764181               0.000000000               0.000000000               0.000000000               0.000000000              -0.001262862               0.010803581               0.000351754              -0.001824016               0.004209163               0.002385147               0.000000000               0.000000000               0.000000000               0.000000000              -0.001502105               0.009982378               0.000592502              -0.001811082               0.003931120               0.002120038               0.000000000               0.000000000               0.000000000               0.000000000              -0.001554115               0.009257325               0.000657391              -0.001739955               0.003665729               0.001925774               0.000000000               0.000000000               0.000000000               0.000000000              -0.001499027               0.008623375               0.000664113              -0.001640053               0.003421114               0.001781061               0.000000000               0.000000000               0.000000000               0.000000000              -0.001387199               0.008058993               0.000648873              -0.001527570               0.003195494               0.001667924               0.000000000               0.000000000               0.000000000               0.000000000              -0.001239138               0.007542189               0.000623416              -0.001407447               0.002983187               0.001575740               0.000000000               0.000000000               0.000000000               0.000000000              -0.001059258               0.007047600               0.000590545              -0.001278169               0.002775233               0.001497064               0.000000000               0.000000000               0.000000000               0.000000000              -0.000859926               0.006575700               0.000541934              -0.001144432               0.002573355               0.001428923               0.000000000               0.000000000               0.000000000               0.000000000              -0.000658903               0.006144910               0.000475654              -0.001015200               0.002386683               0.001371483               0.000000000               0.000000000               0.000000000               0.000000000              -0.000469513               0.005771346               0.000394621              -0.000897483               0.002222924               0.001325441               0.000000000               0.000000000               0.000000000               0.000000000              -0.000301927               0.005465988               0.000300834              -0.000796469               0.002087468               0.001290998               0.000000000               0.000000000               0.000000000               0.000000000              -0.000164003               0.005236759               0.000199724              -0.000716094               0.001984267               0.001268173               0.000000000               0.000000000               0.000000000               0.000000000              -0.000065207               0.005089469               0.000097587              -0.000660635               0.001916684               0.001256050               0.000000000               0.000000000               0.000000000               0.000000000              -0.000031484               0.005031178               0.000050109              -0.000640702               0.001890610               0.001249908               0.000000000               0.000000000               0.000000000               0.000000000               0.001877933               0.011571318              -0.004165402              -0.000742192               0.004104463               0.003362271               0.000000000               0.000000000               0.000000000               0.000000000              -0.000149586               0.010948037              -0.002357885              -0.001424597               0.004124174               0.002699577               0.000000000               0.000000000               0.000000000               0.000000000              -0.001679401               0.010896344              -0.000652790              -0.001991814               0.004296016               0.002304203               0.000000000               0.000000000               0.000000000               0.000000000              -0.002158104               0.010295979              -0.000073388              -0.002096281               0.004130719               0.002034438               0.000000000               0.000000000               0.000000000               0.000000000              -0.002221009               0.009613798               0.000147864              -0.002034598               0.003882767               0.001848169               0.000000000               0.000000000               0.000000000               0.000000000              -0.002096968               0.008963623               0.000235841              -0.001906811               0.003623448               0.001716637               0.000000000               0.000000000               0.000000000               0.000000000              -0.001892618               0.008373701               0.000279541              -0.001756440               0.003376686               0.001620246               0.000000000               0.000000000               0.000000000               0.000000000              -0.001659417               0.007832734               0.000300584              -0.001601369               0.003144675               0.001543306               0.000000000               0.000000000               0.000000000               0.000000000              -0.001404717               0.007319173               0.000303876              -0.001441662               0.002920254               0.001478592               0.000000000               0.000000000               0.000000000               0.000000000              -0.001131768               0.006826575               0.000292692              -0.001277732               0.002701413               0.001423681               0.000000000               0.000000000               0.000000000               0.000000000              -0.000859438               0.006369489               0.000268706              -0.001118473               0.002495966               0.001377493               0.000000000               0.000000000               0.000000000               0.000000000              -0.000609914               0.005969995               0.000232651              -0.000974965               0.002314967               0.001340002               0.000000000               0.000000000               0.000000000               0.000000000              -0.000398459               0.005642562               0.000184393              -0.000854740               0.002165749               0.001311008               0.000000000               0.000000000               0.000000000               0.000000000              -0.000232013               0.005391182               0.000128020              -0.000760901               0.002050676               0.001289775               0.000000000               0.000000000               0.000000000               0.000000000              -0.000112373               0.005212874               0.000072977              -0.000693747               0.001968857               0.001275109               0.000000000               0.000000000               0.000000000               0.000000000              -0.000038704               0.005099207               0.000029642              -0.000651913               0.001917023               0.001265110               0.000000000               0.000000000               0.000000000               0.000000000              -0.000021642               0.005046601               0.000017009              -0.000638939               0.001895163               0.001256224               0.000000000               0.000000000               0.000000000               0.000000000               0.000990656               0.008948512              -0.003488369              -0.000747069               0.003231830               0.002484760               0.000000000               0.000000000               0.000000000               0.000000000              -0.000992663               0.009366916              -0.002248236              -0.001543111               0.003636644               0.002093533               0.000000000               0.000000000               0.000000000               0.000000000              -0.002533439               0.010042696              -0.001036556              -0.002205371               0.004082655               0.001877284               0.000000000               0.000000000               0.000000000               0.000000000              -0.002806937               0.009698685              -0.000573122              -0.002264931               0.003987840               0.001722908               0.000000000               0.000000000               0.000000000               0.000000000              -0.002668376               0.009139740              -0.000340978              -0.002143103               0.003760917               0.001617814               0.000000000               0.000000000               0.000000000               0.000000000              -0.002377277               0.008561943              -0.000207448              -0.001961717               0.003507858               0.001546141               0.000000000               0.000000000               0.000000000               0.000000000              -0.002042374               0.008014742              -0.000113416              -0.001767728               0.003260797               0.001493068               0.000000000               0.000000000               0.000000000               0.000000000              -0.001706870               0.007490576              -0.000047248              -0.001576394               0.003022298               0.001445904               0.000000000               0.000000000               0.000000000               0.000000000              -0.001370788               0.006983722              -0.000005007              -0.001387007               0.002790220               0.001403212               0.000000000               0.000000000               0.000000000               0.000000000              -0.001037790               0.006513949               0.000017435              -0.001203412               0.002572432               0.001369020               0.000000000               0.000000000               0.000000000               0.000000000              -0.000732304               0.006100749               0.000026566              -0.001037205               0.002379298               0.001342093               0.000000000               0.000000000               0.000000000               0.000000000              -0.000475701               0.005755585               0.000029614              -0.000897834               0.002217787               0.001319953               0.000000000               0.000000000               0.000000000               0.000000000              -0.000279109               0.005485834               0.000025292              -0.000790393               0.002092057               0.001301664               0.000000000               0.000000000               0.000000000               0.000000000              -0.000143108               0.005287192               0.000015088              -0.000714563               0.002000567               0.001286005               0.000000000               0.000000000               0.000000000               0.000000000              -0.000059291               0.005152731               0.000006968              -0.000666324               0.001939668               0.001273344               0.000000000               0.000000000               0.000000000               0.000000000              -0.000018086               0.005067898               0.000004171              -0.000640268               0.001902705               0.001262437               0.000000000               0.000000000               0.000000000               0.000000000              -0.000015527               0.005026358               0.000007863              -0.000634116               0.001886808               0.001252692               0.000000000               0.000000000               0.000000000               0.000000000              -0.000064680               0.006733084              -0.002645286              -0.000865890               0.002532968               0.001667078               0.000000000               0.000000000               0.000000000               0.000000000              -0.001807859               0.007957112              -0.002112024              -0.001672583               0.003209871               0.001537288               0.000000000               0.000000000               0.000000000               0.000000000              -0.003189314               0.009205588              -0.001482969              -0.002346685               0.003850727               0.001504041               0.000000000               0.000000000               0.000000000               0.000000000              -0.003241251               0.009124167              -0.001096763              -0.002355984               0.003826687               0.001470702               0.000000000               0.000000000               0.000000000               0.000000000              -0.002937125               0.008714666              -0.000835896              -0.002190750               0.003635110               0.001444360               0.000000000               0.000000000               0.000000000               0.000000000              -0.002515025               0.008230798              -0.000646834              -0.001971979               0.003400898               0.001428919               0.000000000               0.000000000               0.000000000               0.000000000              -0.002082663               0.007738621              -0.000498979              -0.001748322               0.003162289               0.001413967               0.000000000               0.000000000               0.000000000               0.000000000              -0.001666695               0.007244055              -0.000383784              -0.001530514               0.002924832               0.001394318               0.000000000               0.000000000               0.000000000               0.000000000              -0.001270577               0.006760765              -0.000293847              -0.001321559               0.002694085               0.001372527               0.000000000               0.000000000               0.000000000               0.000000000              -0.000901460               0.006323261              -0.000225778              -0.001128453               0.002483884               0.001355431               0.000000000               0.000000000               0.000000000               0.000000000              -0.000580812               0.005946794              -0.000171849              -0.000961151               0.002302629               0.001341477               0.000000000               0.000000000               0.000000000               0.000000000              -0.000331824               0.005639392              -0.000124227              -0.000829356               0.002156231               0.001326875               0.000000000               0.000000000               0.000000000               0.000000000              -0.000158383               0.005401542              -0.000082341              -0.000734585               0.002045358               0.001310773               0.000000000               0.000000000               0.000000000               0.000000000              -0.000051060               0.005230446              -0.000047471              -0.000672951               0.001967782               0.001294830               0.000000000               0.000000000               0.000000000               0.000000000              -0.000001198               0.005116447              -0.000017672              -0.000640003               0.001918800               0.001278796               0.000000000               0.000000000               0.000000000               0.000000000               0.000005323               0.005046028               0.000001385              -0.000628756               0.001891578               0.001262822               0.000000000               0.000000000               0.000000000               0.000000000              -0.000002330               0.005017156               0.000008244              -0.000628017               0.001881708               0.001253691               0.000000000               0.000000000               0.000000000               0.000000000              -0.001313684               0.004681581              -0.001744841              -0.001077828               0.001919787               0.000841959               0.000000000               0.000000000               0.000000000               0.000000000              -0.002481978               0.006350142              -0.001949993              -0.001724506               0.002691527               0.000967022               0.000000000               0.000000000               0.000000000               0.000000000              -0.003557979               0.008007089              -0.001947708              -0.002335123               0.003447377               0.001112254               0.000000000               0.000000000               0.000000000               0.000000000              -0.003487259               0.008295391              -0.001656048              -0.002344641               0.003546649               0.001202009               0.000000000               0.000000000               0.000000000               0.000000000              -0.003123689               0.008146894              -0.001374333              -0.002189740               0.003445517               0.001255777               0.000000000               0.000000000               0.000000000               0.000000000              -0.002662991               0.007848550              -0.001135443              -0.001979686               0.003276052               0.001296366               0.000000000               0.000000000               0.000000000               0.000000000              -0.002201147               0.007492548              -0.000934065              -0.001761994               0.003084822               0.001322828               0.000000000               0.000000000               0.000000000               0.000000000              -0.001766522               0.007111664              -0.000766608              -0.001551400               0.002887664               0.001336264               0.000000000               0.000000000               0.000000000               0.000000000              -0.001354716               0.006726290              -0.000625257              -0.001348801               0.002691675               0.001342873               0.000000000               0.000000000               0.000000000               0.000000000              -0.000972224               0.006355598              -0.000507432              -0.001159031               0.002504855               0.001345824               0.000000000               0.000000000               0.000000000               0.000000000              -0.000634625               0.006011429              -0.000402420              -0.000989411               0.002333593               0.001344182               0.000000000               0.000000000               0.000000000               0.000000000              -0.000364671               0.005708652              -0.000303815              -0.000850331               0.002186308               0.001335978               0.000000000               0.000000000               0.000000000               0.000000000              -0.000170483               0.005463639              -0.000213230              -0.000746884               0.002070156               0.001323272               0.000000000               0.000000000               0.000000000               0.000000000              -0.000045531               0.005277166              -0.000131665              -0.000676718               0.001984610               0.001307892               0.000000000               0.000000000               0.000000000               0.000000000               0.000018766               0.005141384              -0.000062847              -0.000635634               0.001925656               0.001290021               0.000000000               0.000000000               0.000000000               0.000000000               0.000035446               0.005053556              -0.000017343              -0.000618401               0.001890635               0.001272235               0.000000000               0.000000000               0.000000000               0.000000000               0.000029789               0.005016763              -0.000001179              -0.000615923               0.001877545               0.001261622               0.000000000               0.000000000               0.000000000               0.000000000              -0.002933076               0.002829879              -0.000852953              -0.001453635               0.001427828              -0.000025808               0.000000000               0.000000000               0.000000000               0.000000000              -0.003248339               0.004747626              -0.001715163              -0.001811576               0.002186384               0.000374808               0.000000000               0.000000000               0.000000000               0.000000000              -0.003827638               0.006625161              -0.002312244              -0.002263505               0.002962866               0.000699361               0.000000000               0.000000000               0.000000000               0.000000000              -0.003638129               0.007264690              -0.002186125              -0.002272380               0.003178999               0.000906619               0.000000000               0.000000000               0.000000000               0.000000000              -0.003244449               0.007409897              -0.001925204              -0.002142901               0.003184241               0.001041340               0.000000000               0.000000000               0.000000000               0.000000000              -0.002783695               0.007333179              -0.001659337              -0.001960529               0.003097878               0.001137349               0.000000000               0.000000000               0.000000000               0.000000000              -0.002314044               0.007153295              -0.001416493              -0.001761924               0.002971716               0.001209791               0.000000000               0.000000000               0.000000000               0.000000000              -0.001874411               0.006922036              -0.001204315              -0.001568155               0.002830041               0.001261886               0.000000000               0.000000000               0.000000000               0.000000000              -0.001460161               0.006658459              -0.001021348              -0.001379864               0.002679419               0.001299554               0.000000000               0.000000000               0.000000000               0.000000000              -0.001069770               0.006371087              -0.000861256              -0.001197547               0.002522856               0.001325310               0.000000000               0.000000000               0.000000000               0.000000000              -0.000711228               0.006083780              -0.000710244              -0.001027180               0.002370300               0.001343119               0.000000000               0.000000000               0.000000000               0.000000000              -0.000402364               0.005807903              -0.000562831              -0.000876872               0.002228239               0.001351367               0.000000000               0.000000000               0.000000000               0.000000000              -0.000160983               0.005559880              -0.000424578              -0.000755352               0.002105059               0.001349707               0.000000000               0.000000000               0.000000000               0.000000000               0.000009037               0.005354975              -0.000293932              -0.000665981               0.002006968               0.001340986               0.000000000               0.000000000               0.000000000               0.000000000               0.000107674               0.005195026              -0.000173370              -0.000608999               0.001934658               0.001325659               0.000000000               0.000000000               0.000000000               0.000000000               0.000137853               0.005078737              -0.000073388              -0.000583146               0.001887277               0.001304132               0.000000000               0.000000000               0.000000000               0.000000000               0.000127430               0.005027175              -0.000027758              -0.000580609               0.001869245               0.001288635               0.000000000               0.000000000               0.000000000               0.000000000              -0.004802881               0.001318235              -0.000048197              -0.001965857               0.001094690              -0.000871167               0.000000000               0.000000000               0.000000000               0.000000000              -0.004154660               0.003240496              -0.001390893              -0.001963056               0.001734505              -0.000228551               0.000000000               0.000000000               0.000000000               0.000000000              -0.004044498               0.005071333              -0.002462709              -0.002150599               0.002407293               0.000256694               0.000000000               0.000000000               0.000000000               0.000000000              -0.003656610               0.005952584              -0.002536606              -0.002115298               0.002689273               0.000573975               0.000000000               0.000000000               0.000000000               0.000000000              -0.003211897               0.006362712              -0.002346219              -0.001999796               0.002787481               0.000787684               0.000000000               0.000000000               0.000000000               0.000000000              -0.002757724               0.006521758              -0.002094443              -0.001849362               0.002790351               0.000940989               0.000000000               0.000000000               0.000000000               0.000000000              -0.002298302               0.006542102              -0.001840221              -0.001679622               0.002740552               0.001060930               0.000000000               0.000000000               0.000000000               0.000000000              -0.001858695               0.006483301              -0.001607280              -0.001507420               0.002663552               0.001156132               0.000000000               0.000000000               0.000000000               0.000000000              -0.001446292               0.006361740              -0.001403216              -0.001337574               0.002566417               0.001228842               0.000000000               0.000000000               0.000000000               0.000000000              -0.001055722               0.006192938              -0.001220706              -0.001170010               0.002454295               0.001284285               0.000000000               0.000000000               0.000000000               0.000000000              -0.000688763               0.006001588              -0.001042597              -0.001008483               0.002336670               0.001328187               0.000000000               0.000000000               0.000000000               0.000000000              -0.000351805               0.005795587              -0.000863282              -0.000856373               0.002217301               0.001360927               0.000000000               0.000000000               0.000000000               0.000000000              -0.000066169               0.005582521              -0.000686943              -0.000722627               0.002101697               0.001379070               0.000000000               0.000000000               0.000000000               0.000000000               0.000153846               0.005385026              -0.000511728              -0.000615435               0.002000135               0.001384701               0.000000000               0.000000000               0.000000000               0.000000000               0.000297447               0.005220983              -0.000333785              -0.000541079               0.001920670               0.001379591               0.000000000               0.000000000               0.000000000               0.000000000               0.000352586               0.005095453              -0.000160829              -0.000504711               0.001866704               0.001361994               0.000000000               0.000000000               0.000000000               0.000000000               0.000344285               0.005035907              -0.000073961              -0.000500380               0.001845412               0.001345032               0.000000000               0.000000000               0.000000000               0.000000000              -0.006792915               0.000215930               0.000556223              -0.002574332               0.000930081              -0.001644251               0.000000000               0.000000000               0.000000000               0.000000000              -0.005141300               0.001907142              -0.001023386              -0.002166377               0.001357830              -0.000808547               0.000000000               0.000000000               0.000000000               0.000000000              -0.004225260               0.003473590              -0.002371471              -0.002018667               0.001830739              -0.000187929               0.000000000               0.000000000               0.000000000               0.000000000              -0.003564117               0.004466120              -0.002620338              -0.001894805               0.002120292               0.000225487               0.000000000               0.000000000               0.000000000               0.000000000              -0.003031674               0.005082616              -0.002524765              -0.001772201               0.002284921               0.000512720               0.000000000               0.000000000               0.000000000               0.000000000              -0.002567193               0.005458528              -0.002324341              -0.001645010               0.002367827               0.000722817               0.000000000               0.000000000               0.000000000               0.000000000              -0.002126547               0.005676128              -0.002094372              -0.001506968               0.002394346               0.000887378               0.000000000               0.000000000               0.000000000               0.000000000              -0.001701548               0.005788541              -0.001870605              -0.001361646               0.002383376               0.001021730               0.000000000               0.000000000               0.000000000               0.000000000              -0.001297900               0.005829137              -0.001669500              -0.001215352               0.002348143               0.001132791               0.000000000               0.000000000               0.000000000               0.000000000              -0.000910426               0.005813088              -0.001487280              -0.001068044               0.002293691               0.001225647               0.000000000               0.000000000               0.000000000               0.000000000              -0.000537574               0.005742756              -0.001309759              -0.000919433               0.002220710               0.001301277               0.000000000               0.000000000               0.000000000               0.000000000              -0.000182772               0.005633652              -0.001125512              -0.000772745               0.002135446               0.001362702               0.000000000               0.000000000               0.000000000               0.000000000               0.000143063               0.005499593              -0.000932621              -0.000633799               0.002044446               0.001410646               0.000000000               0.000000000               0.000000000               0.000000000               0.000423029               0.005355629              -0.000730076              -0.000510817               0.001955464               0.001444647               0.000000000               0.000000000               0.000000000               0.000000000               0.000637587               0.005219332              -0.000505972              -0.000413321               0.001877533               0.001464213               0.000000000               0.000000000               0.000000000               0.000000000               0.000762366               0.005102741              -0.000260339              -0.000351954               0.001818215               0.001466260               0.000000000               0.000000000               0.000000000               0.000000000               0.000794118               0.005047061              -0.000132857              -0.000333088               0.001793366               0.001460279               0.000000000               0.000000000               0.000000000               0.000000000              -0.008717906              -0.000496874               0.000865045              -0.003207103               0.000903403              -0.002303700               0.000000000               0.000000000               0.000000000               0.000000000              -0.006126828               0.000821372              -0.000670381              -0.002400229               0.001073860              -0.001326370               0.000000000               0.000000000               0.000000000               0.000000000              -0.004382561               0.001991115              -0.002038157              -0.001892347               0.001294478              -0.000597869               0.000000000               0.000000000               0.000000000               0.000000000              -0.003400045               0.002979772              -0.002385536              -0.001647485               0.001542407              -0.000105078               0.000000000               0.000000000               0.000000000               0.000000000              -0.002742140               0.003724729              -0.002375871              -0.001493891               0.001739526               0.000245635               0.000000000               0.000000000               0.000000000               0.000000000              -0.002243434               0.004264318              -0.002240637              -0.001374325               0.001879532               0.000505207               0.000000000               0.000000000               0.000000000               0.000000000              -0.001813088               0.004648647              -0.002060615              -0.001260987               0.001969862               0.000708875               0.000000000               0.000000000               0.000000000               0.000000000              -0.001412357               0.004922901              -0.001871894              -0.001144995               0.002022615               0.000877620               0.000000000               0.000000000               0.000000000               0.000000000              -0.001024216               0.005124324              -0.001696978              -0.001024620               0.002049631               0.001025011               0.000000000               0.000000000               0.000000000               0.000000000              -0.000648100               0.005259552              -0.001538732              -0.000900480               0.002053326               0.001152846               0.000000000               0.000000000               0.000000000               0.000000000              -0.000276308               0.005323791              -0.001385722              -0.000769088               0.002030942               0.001261853               0.000000000               0.000000000               0.000000000               0.000000000               0.000093346               0.005328628              -0.001224528              -0.000631073               0.001986549               0.001355476               0.000000000               0.000000000               0.000000000               0.000000000               0.000460056               0.005296198              -0.001049015              -0.000489503               0.001928549               0.001439046               0.000000000               0.000000000               0.000000000               0.000000000               0.000812243               0.005239089              -0.000851298              -0.000350294               0.001863110               0.001512816               0.000000000               0.000000000               0.000000000               0.000000000               0.001133436               0.005165283              -0.000615921              -0.000220621               0.001795284               0.001574663               0.000000000               0.000000000               0.000000000               0.000000000               0.001401938               0.005085177              -0.000331792              -0.000109920               0.001731682               0.001621762               0.000000000               0.000000000               0.000000000               0.000000000               0.001547597               0.005054370              -0.000182627              -0.000051448               0.001701922               0.001650475               0.000000000               0.000000000               0.000000000               0.000000000              -0.010339204              -0.000888766               0.000836002              -0.003766103               0.000959106              -0.002806998               0.000000000               0.000000000               0.000000000               0.000000000              -0.006984503               0.000035920              -0.000376806              -0.002623677               0.000886526              -0.001737151               0.000000000               0.000000000               0.000000000               0.000000000              -0.004518534               0.000786824              -0.001489351              -0.001792801               0.000859868              -0.000932933               0.000000000               0.000000000               0.000000000               0.000000000              -0.003218920               0.001692138              -0.001822449              -0.001418610               0.001036908              -0.000381702               0.000000000               0.000000000               0.000000000               0.000000000              -0.002424362               0.002486700              -0.001860891              -0.001219971               0.001235547               0.000015576               0.000000000               0.000000000               0.000000000               0.000000000              -0.001873259               0.003131739              -0.001785461              -0.001093938               0.001408548               0.000314610               0.000000000               0.000000000               0.000000000               0.000000000              -0.001441197               0.003645881              -0.001664240              -0.000996182               0.001547342               0.000551159               0.000000000               0.000000000               0.000000000               0.000000000              -0.001059853               0.004052891              -0.001531080              -0.000904055               0.001652301               0.000748246               0.000000000               0.000000000               0.000000000               0.000000000              -0.000690357               0.004383506              -0.001404078              -0.000806821               0.001730094               0.000923273               0.000000000               0.000000000               0.000000000               0.000000000              -0.000325616               0.004648900              -0.001286071              -0.000703218               0.001784023               0.001080806               0.000000000               0.000000000               0.000000000               0.000000000               0.000039232               0.004843422              -0.001174974              -0.000590715               0.001811363               0.001220648               0.000000000               0.000000000               0.000000000               0.000000000               0.000416978               0.004962941              -0.001059768              -0.000464000               0.001808964               0.001344963               0.000000000               0.000000000               0.000000000               0.000000000               0.000818122               0.005031465              -0.000929393              -0.000322137               0.001784517               0.001462380               0.000000000               0.000000000               0.000000000               0.000000000               0.001243338               0.005070797              -0.000774529              -0.000167598               0.001746115               0.001578517               0.000000000               0.000000000               0.000000000               0.000000000               0.001689351               0.005076214              -0.000580555              -0.000001021               0.001692395               0.001691374               0.000000000               0.000000000               0.000000000               0.000000000               0.002148864               0.005047461              -0.000323871               0.000174890               0.001624174               0.001799063               0.000000000               0.000000000               0.000000000               0.000000000               0.002466993               0.005056406              -0.000188116               0.000293069               0.001587762               0.001880831               0.000000000               0.000000000               0.000000000               0.000000000              -0.011424031              -0.001063337               0.000504273              -0.004151092               0.001029245              -0.003121847               0.000000000               0.000000000               0.000000000               0.000000000              -0.007571548              -0.000432445              -0.000162532              -0.002785273               0.000784271              -0.002001002               0.000000000               0.000000000               0.000000000               0.000000000              -0.004614568              -0.000001424              -0.000784169              -0.001730284               0.000576282              -0.001154001               0.000000000               0.000000000               0.000000000               0.000000000              -0.003075432               0.000807545              -0.000986215              -0.001254229               0.000687253              -0.000566976               0.000000000               0.000000000               0.000000000               0.000000000              -0.002174240               0.001608532              -0.001023141              -0.001016405               0.000874973              -0.000141432               0.000000000               0.000000000               0.000000000               0.000000000              -0.001580721               0.002312031              -0.000991417              -0.000881773               0.001064593               0.000182820               0.000000000               0.000000000               0.000000000               0.000000000              -0.001138828               0.002909078              -0.000930603              -0.000790693               0.001233247               0.000442554               0.000000000               0.000000000               0.000000000               0.000000000              -0.000762131               0.003406016              -0.000863683              -0.000711550               0.001372510               0.000660961               0.000000000               0.000000000               0.000000000               0.000000000              -0.000408449               0.003823551              -0.000798714              -0.000631111               0.001484875               0.000853763               0.000000000               0.000000000               0.000000000               0.000000000              -0.000055265               0.004172670              -0.000736199              -0.000542307               0.001571645               0.001029338               0.000000000               0.000000000               0.000000000               0.000000000               0.000306357               0.004454919              -0.000677869              -0.000441980               0.001632285               0.001190305               0.000000000               0.000000000               0.000000000               0.000000000               0.000686903               0.004667364              -0.000620002              -0.000325831               0.001664383               0.001338551               0.000000000               0.000000000               0.000000000               0.000000000               0.001106032               0.004823207              -0.000552652              -0.000188139               0.001670432               0.001482294               0.000000000               0.000000000               0.000000000               0.000000000               0.001582581               0.004939753              -0.000469238              -0.000024002               0.001654568               0.001630567               0.000000000               0.000000000               0.000000000               0.000000000               0.002127827               0.005008787              -0.000361551               0.000171835               0.001612300               0.001784136               0.000000000               0.000000000               0.000000000               0.000000000               0.002756211               0.005018799              -0.000206865               0.000406225               0.001537508               0.001943733               0.000000000               0.000000000               0.000000000               0.000000000               0.003242622               0.005060710              -0.000124215               0.000583389               0.001492424               0.002075812               0.000000000               0.000000000               0.000000000               0.000000000               0.000000000               0.000000000               0.000000000               0.000000000               0.000000000               0.000000000               0.000000000               0.000000000               0.000000000               0.000000000               0.000000000               0.000000000               0.000000000               0.000000000               0.000000000               0.000000000               0.000000000               0.000000000               0.000000000               0.000000000               0.000000000               0.000000000               0.000000000               0.000000000               0.000000000               0.000000000               0.000000000               0.000000000               0.000000000               0.000000000               0.000000000               0.000000000               0.000000000               0.000000000               0.000000000               0.000000000               0.000000000               0.000000000               0.000000000               0.000000000               0.000000000               0.000000000               0.000000000               0.000000000               0.000000000               0.000000000               0.000000000               0.000000000               0.000000000               0.000000000               0.000000000               0.000000000               0.000000000               0.000000000               0.000000000               0.000000000               0.000000000               0.000000000               0.000000000               0.000000000               0.000000000               0.000000000               0.000000000               0.000000000               0.000000000               0.000000000               0.000000000               0.000000000               0.000000000               0.000000000               0.000000000               0.000000000               0.000000000               0.000000000               0.000000000               0.000000000               0.000000000               0.000000000               0.000000000               0.000000000               0.000000000               0.000000000               0.000000000               0.000000000               0.000000000               0.000000000               0.000000000               0.000000000               0.000000000               0.000000000               0.000000000               0.000000000               0.000000000               0.000000000               0.000000000               0.000000000               0.000000000               0.000000000               0.000000000               0.000000000               0.000000000               0.000000000               0.000000000               0.000000000               0.000000000               0.000000000               0.000000000               0.000000000               0.000000000               0.000000000               0.000000000               0.000000000               0.000000000               0.000000000               0.000000000               0.000000000               0.000000000               0.000000000               0.000000000               0.000000000               0.000000000               0.000000000               0.000000000               0.000000000               0.000000000               0.000000000               0.000000000               0.000000000               0.000000000               0.000000000               0.000000000               0.000000000               0.000000000               0.000000000               0.000000000               0.000000000               0.000000000               0.000000000               0.000000000               0.000000000               0.000000000               0.000000000               0.000000000               0.000000000               0.000000000               0.000000000               0.000000000               0.000000000               0.000000000               0.000000000               0.000000000               0.000000000               0.000000000               0.000000000               0.000000000               0.000000000               0.000000000               0.000000000               0.000000000               0.000000000               0.000000000               0.000000000               0.000000000               0.000000000               0.000000000               0.000000000               0.000000000               0.000000000               0.000000000               0.000000000               0.000000000               0.000000000               0.000000000               0.000000000               0.000000000               0.000000000               0.000000000               0.000000000               0.000000000               0.000000000               0.000000000               0.000000000               0.000000000               0.000000000               0.000000000               0.000000000               0.000000000               0.000000000               0.000000000               0.000000000               0.000000000               0.000000000               0.000000000               0.000000000               0.000000000               0.000000000               0.000000000               0.000000000               0.000000000               0.000000000               0.000000000               0.000000000               0.000000000               0.000000000               0.000000000               0.000000000               0.000000000               0.000000000               0.000000000               0.000000000               0.000000000               0.000000000               0.000000000               0.000000000               0.000000000               0.000000000               0.000000000               0.000000000               0.000000000               0.000000000               0.000000000               0.000000000               0.000000000               0.000000000               0.000000000               0.000000000               0.000000000               0.000000000               0.000000000               0.000000000               0.000000000               0.000000000               0.000000000               0.000000000               0.000000000               0.000000000               0.000000000               0.000000000               0.000000000               0.000000000               0.000000000               0.000000000               0.000000000               0.000000000               0.000000000               0.000000000               0.000000000               0.000000000               0.000000000               0.000000000               0.000000000               0.000000000               0.000000000               0.000000000               0.000000000               0.000000000               0.000000000               0.000000000               0.000000000               0.000000000               0.000000000               0.000000000               0.000000000               0.000000000               0.000000000               0.000000000               0.000000000               0.000000000               0.000000000               0.000000000               0.000000000               0.000000000               0.000000000               0.000000000               0.000000000               0.000000000               0.000000000               0.000000000               0.000000000               0.000000000               0.000000000               0.000000000               0.000000000               0.000000000               0.000000000               0.000000000               0.000000000               0.000000000               0.000000000               0.000000000               0.000000000               0.000000000               0.000000000               0.000000000               0.000000000               0.000000000               0.000000000               0.000000000               0.000000000               0.000000000               0.000000000               0.000000000               0.000000000               0.000000000               0.000000000               0.000000000               0.000000000               0.000000000               0.000000000               0.000000000               0.000000000               0.000000000               0.000000000               0.000000000               0.000000000               0.000000000               0.000000000               0.000000000               0.000000000               0.000000000               0.000000000               0.000000000               0.000000000               0.000000000               0.000000000               0.000000000               0.000000000               0.000000000               0.000000000               0.000000000               0.000000000               0.000000000               0.000000000               0.000000000               0.000000000               0.000000000               0.000000000               0.000000000               0.000000000               0.000000000               0.002304870               0.023628843               0.001653568              -0.002089274               0.008572627               0.006483352               0.000000000               0.000000000               0.000000000               0.000000000               0.002158287               0.018505551               0.000825190              -0.001503833               0.006669733               0.005165900               0.000000000               0.000000000               0.000000000               0.000000000               0.002718499               0.014372188               0.000004099              -0.000777084               0.005049709               0.004272625               0.000000000               0.000000000               0.000000000               0.000000000               0.002544169               0.012028615              -0.000342281              -0.000549512               0.004192669               0.003643157               0.000000000               0.000000000               0.000000000               0.000000000               0.002166652               0.010554044              -0.000481245              -0.000506760               0.003686899               0.003180140               0.000000000               0.000000000               0.000000000               0.000000000               0.001767715               0.009530250              -0.000525035              -0.000528387               0.003352847               0.002824460               0.000000000               0.000000000               0.000000000               0.000000000               0.001405495               0.008762926              -0.000527108              -0.000568304               0.003110381               0.002542077               0.000000000               0.000000000               0.000000000               0.000000000               0.001088809               0.008142932              -0.000509876              -0.000609562               0.002917471               0.002307909               0.000000000               0.000000000               0.000000000               0.000000000               0.000817280               0.007609989              -0.000487827              -0.000644767               0.002751560               0.002106793               0.000000000               0.000000000               0.000000000               0.000000000               0.000585528               0.007131591              -0.000463770              -0.000671874               0.002601132               0.001929257               0.000000000               0.000000000               0.000000000               0.000000000               0.000394779               0.006678918              -0.000429142              -0.000686821               0.002455224               0.001768403               0.000000000               0.000000000               0.000000000               0.000000000               0.000249425               0.006228558              -0.000386594              -0.000685034               0.002304510               0.001619476               0.000000000               0.000000000               0.000000000               0.000000000               0.000137725               0.005763646              -0.000344662              -0.000668807               0.002144132               0.001475325               0.000000000               0.000000000               0.000000000               0.000000000               0.000053680               0.005273860              -0.000296337              -0.000639101               0.001970969               0.001331869               0.000000000               0.000000000               0.000000000               0.000000000              -0.000000421               0.004744696              -0.000228063              -0.000593244               0.001779297               0.001186054               0.000000000               0.000000000               0.000000000               0.000000000              -0.000015116               0.004157221              -0.000129895              -0.000525320               0.001560833               0.001035513               0.000000000               0.000000000               0.000000000               0.000000000              -0.000058409               0.003714244              -0.000083497              -0.000486183               0.001400130               0.000913947               0.000000000               0.000000000               0.000000000               0.000000000               0.002495212               0.022175091               0.003067669              -0.001836179               0.008003682               0.006167503               0.000000000               0.000000000               0.000000000               0.000000000               0.002004789               0.017556383               0.001528023              -0.001442749               0.006332985               0.004890236               0.000000000               0.000000000               0.000000000               0.000000000               0.002191366               0.013941256               0.000013164              -0.000920893               0.004954003               0.004033110               0.000000000               0.000000000               0.000000000               0.000000000               0.001878276               0.011861155              -0.000606395              -0.000778289               0.004213109               0.003434819               0.000000000               0.000000000               0.000000000               0.000000000               0.001476402               0.010514901              -0.000845847              -0.000760710               0.003758502               0.002997792               0.000000000               0.000000000               0.000000000               0.000000000               0.001102197               0.009547303              -0.000916630              -0.000780087               0.003442431               0.002662344               0.000000000               0.000000000               0.000000000               0.000000000               0.000787600               0.008799976              -0.000915868              -0.000804645               0.003201511               0.002396866               0.000000000               0.000000000               0.000000000               0.000000000               0.000532564               0.008183173              -0.000882081              -0.000823183               0.003002091               0.002178908               0.000000000               0.000000000               0.000000000               0.000000000               0.000327355               0.007646928              -0.000841162              -0.000833106               0.002826653               0.001993546               0.000000000               0.000000000               0.000000000               0.000000000               0.000164726               0.007160184              -0.000797032              -0.000833249               0.002664454               0.001831205               0.000000000               0.000000000               0.000000000               0.000000000               0.000040181               0.006701211              -0.000738142              -0.000822582               0.002507909               0.001685327               0.000000000               0.000000000               0.000000000               0.000000000              -0.000045124               0.006251578              -0.000666519              -0.000798367               0.002349961               0.001551594               0.000000000               0.000000000               0.000000000               0.000000000              -0.000092727               0.005798051              -0.000591058              -0.000759527               0.002185840               0.001426313               0.000000000               0.000000000               0.000000000               0.000000000              -0.000108551               0.005329600              -0.000504824              -0.000706905               0.002012151               0.001305246               0.000000000               0.000000000               0.000000000               0.000000000              -0.000096395               0.004844674              -0.000387476              -0.000641731               0.001828785               0.001187055               0.000000000               0.000000000               0.000000000               0.000000000              -0.000055881               0.004349933              -0.000220192              -0.000564696               0.001638195               0.001073499               0.000000000               0.000000000               0.000000000               0.000000000              -0.000066895               0.004003308              -0.000138440              -0.000525498               0.001509589               0.000984091               0.000000000               0.000000000               0.000000000               0.000000000               0.002679002               0.019987921               0.004060570              -0.001493863               0.007160527               0.005666664               0.000000000               0.000000000               0.000000000               0.000000000               0.001712184               0.016151484               0.002024911              -0.001376864               0.005842728               0.004465864               0.000000000               0.000000000               0.000000000               0.000000000               0.001385118               0.013308438               0.000049393              -0.001144133               0.004817479               0.003673347               0.000000000               0.000000000               0.000000000               0.000000000               0.000908432               0.011587867              -0.000717698              -0.001107819               0.004231857               0.003124038               0.000000000               0.000000000               0.000000000               0.000000000               0.000497767               0.010409412              -0.000997640              -0.001114511               0.003841273               0.002726762               0.000000000               0.000000000               0.000000000               0.000000000               0.000184407               0.009525258              -0.001069198              -0.001121502               0.003548888               0.002427386               0.000000000               0.000000000               0.000000000               0.000000000              -0.000039460               0.008811077              -0.001060668              -0.001116180               0.003309056               0.002192876               0.000000000               0.000000000               0.000000000               0.000000000              -0.000189966               0.008205947              -0.001019099              -0.001096978               0.003100947               0.002003969               0.000000000               0.000000000               0.000000000               0.000000000              -0.000294361               0.007669676              -0.000969853              -0.001069092               0.002912897               0.001843805               0.000000000               0.000000000               0.000000000               0.000000000              -0.000356348               0.007179977              -0.000917440              -0.001031125               0.002737010               0.001705885               0.000000000               0.000000000               0.000000000               0.000000000              -0.000377557               0.006718032              -0.000848596              -0.000981336               0.002566433               0.001585098               0.000000000               0.000000000               0.000000000               0.000000000              -0.000368731               0.006269621              -0.000763042              -0.000921975               0.002397178               0.001475203               0.000000000               0.000000000               0.000000000               0.000000000              -0.000328836               0.005830907              -0.000668269              -0.000852175               0.002227674               0.001375500               0.000000000               0.000000000               0.000000000               0.000000000              -0.000258354               0.005404231              -0.000557043              -0.000772410               0.002058862               0.001286452               0.000000000               0.000000000               0.000000000               0.000000000              -0.000173460               0.005001560              -0.000417493              -0.000690241               0.001897250               0.001207010               0.000000000               0.000000000               0.000000000               0.000000000              -0.000087482               0.004645971              -0.000233761              -0.000613550               0.001753158               0.001139608               0.000000000               0.000000000               0.000000000               0.000000000              -0.000067636               0.004432386              -0.000141072              -0.000579410               0.001670584               0.001091174               0.000000000               0.000000000               0.000000000               0.000000000               0.002710000               0.017310202               0.004553600              -0.001147526               0.006152517               0.005004991               0.000000000               0.000000000               0.000000000               0.000000000               0.001246243               0.014464737               0.002303159              -0.001340749               0.005268447               0.003927698               0.000000000               0.000000000               0.000000000               0.000000000               0.000387866               0.012546752               0.000154844              -0.001422891               0.004656506               0.003233615               0.000000000               0.000000000               0.000000000               0.000000000              -0.000197319               0.011229192              -0.000629219              -0.001477640               0.004235573               0.002757933               0.000000000               0.000000000               0.000000000               0.000000000              -0.000557416               0.010237268              -0.000901582              -0.001488686               0.003908617               0.002419931               0.000000000               0.000000000               0.000000000               0.000000000              -0.000761058               0.009437456              -0.000965950              -0.001465075               0.003634146               0.002169070               0.000000000               0.000000000               0.000000000               0.000000000              -0.000855097               0.008762529              -0.000956247              -0.001415974               0.003392805               0.001976831               0.000000000               0.000000000               0.000000000               0.000000000              -0.000876619               0.008174909              -0.000919016              -0.001350593               0.003175140               0.001824547               0.000000000               0.000000000               0.000000000               0.000000000              -0.000856366               0.007646837              -0.000875062              -0.001276989               0.002974583               0.001697594               0.000000000               0.000000000               0.000000000               0.000000000              -0.000797028               0.007156823              -0.000827949              -0.001193486               0.002783412               0.001589927               0.000000000               0.000000000               0.000000000               0.000000000              -0.000701991               0.006689425              -0.000763669              -0.001099422               0.002596260               0.001496838               0.000000000               0.000000000               0.000000000               0.000000000              -0.000586669               0.006245811              -0.000680483              -0.001000725               0.002415491               0.001414766               0.000000000               0.000000000               0.000000000               0.000000000              -0.000460524               0.005833866              -0.000583489              -0.000901928               0.002245245               0.001343317               0.000000000               0.000000000               0.000000000               0.000000000              -0.000326889               0.005467362              -0.000470860              -0.000806002               0.002091103               0.001285101               0.000000000               0.000000000               0.000000000               0.000000000              -0.000196894               0.005163311              -0.000338845              -0.000719247               0.001960835               0.001241588               0.000000000               0.000000000               0.000000000               0.000000000              -0.000088663               0.004939533              -0.000182272              -0.000650689               0.001863391               0.001212702               0.000000000               0.000000000               0.000000000               0.000000000              -0.000050919               0.004833747              -0.000103197              -0.000623312               0.001819003               0.001195692               0.000000000               0.000000000               0.000000000               0.000000000               0.002465938               0.014417983               0.004559127              -0.000877523               0.005098453               0.004220930               0.000000000               0.000000000               0.000000000               0.000000000               0.000613240               0.012678869               0.002394807              -0.001354892               0.004677878               0.003322986               0.000000000               0.000000000               0.000000000               0.000000000              -0.000673881               0.011730751               0.000353729              -0.001719045               0.004483226               0.002764181               0.000000000               0.000000000               0.000000000               0.000000000              -0.001262862               0.010803581              -0.000351754              -0.001824016               0.004209163               0.002385147               0.000000000               0.000000000               0.000000000               0.000000000              -0.001502105               0.009982378              -0.000592502              -0.001811082               0.003931120               0.002120038               0.000000000               0.000000000               0.000000000               0.000000000              -0.001554115               0.009257325              -0.000657391              -0.001739955               0.003665729               0.001925774               0.000000000               0.000000000               0.000000000               0.000000000              -0.001499027               0.008623375              -0.000664113              -0.001640053               0.003421114               0.001781061               0.000000000               0.000000000               0.000000000               0.000000000              -0.001387199               0.008058993              -0.000648873              -0.001527570               0.003195494               0.001667924               0.000000000               0.000000000               0.000000000               0.000000000              -0.001239138               0.007542189              -0.000623416              -0.001407447               0.002983187               0.001575740               0.000000000               0.000000000               0.000000000               0.000000000              -0.001059258               0.007047600              -0.000590545              -0.001278169               0.002775233               0.001497064               0.000000000               0.000000000               0.000000000               0.000000000              -0.000859926               0.006575700              -0.000541934              -0.001144432               0.002573355               0.001428923               0.000000000               0.000000000               0.000000000               0.000000000              -0.000658903               0.006144910              -0.000475654              -0.001015200               0.002386683               0.001371483               0.000000000               0.000000000               0.000000000               0.000000000              -0.000469513               0.005771346              -0.000394621              -0.000897483               0.002222924               0.001325441               0.000000000               0.000000000               0.000000000               0.000000000              -0.000301927               0.005465988              -0.000300834              -0.000796469               0.002087468               0.001290998               0.000000000               0.000000000               0.000000000               0.000000000              -0.000164003               0.005236759              -0.000199724              -0.000716094               0.001984267               0.001268173               0.000000000               0.000000000               0.000000000               0.000000000              -0.000065207               0.005089469              -0.000097587              -0.000660635               0.001916684               0.001256050               0.000000000               0.000000000               0.000000000               0.000000000              -0.000031484               0.005031178              -0.000050109              -0.000640702               0.001890610               0.001249908               0.000000000               0.000000000               0.000000000               0.000000000               0.001877933               0.011571318               0.004165402              -0.000742192               0.004104463               0.003362271               0.000000000               0.000000000               0.000000000               0.000000000              -0.000149586               0.010948037               0.002357885              -0.001424597               0.004124174               0.002699577               0.000000000               0.000000000               0.000000000               0.000000000              -0.001679401               0.010896344               0.000652790              -0.001991814               0.004296016               0.002304203               0.000000000               0.000000000               0.000000000               0.000000000              -0.002158104               0.010295979               0.000073388              -0.002096281               0.004130719               0.002034438               0.000000000               0.000000000               0.000000000               0.000000000              -0.002221009               0.009613798              -0.000147864              -0.002034598               0.003882767               0.001848169               0.000000000               0.000000000               0.000000000               0.000000000              -0.002096968               0.008963623              -0.000235841              -0.001906811               0.003623448               0.001716637               0.000000000               0.000000000               0.000000000               0.000000000              -0.001892618               0.008373701              -0.000279541              -0.001756440               0.003376686               0.001620246               0.000000000               0.000000000               0.000000000               0.000000000              -0.001659417               0.007832734              -0.000300584              -0.001601369               0.003144675               0.001543306               0.000000000               0.000000000               0.000000000               0.000000000              -0.001404717               0.007319173              -0.000303876              -0.001441662               0.002920254               0.001478592               0.000000000               0.000000000               0.000000000               0.000000000              -0.001131768               0.006826575              -0.000292692              -0.001277732               0.002701413               0.001423681               0.000000000               0.000000000               0.000000000               0.000000000              -0.000859438               0.006369489              -0.000268706              -0.001118473               0.002495966               0.001377493               0.000000000               0.000000000               0.000000000               0.000000000              -0.000609914               0.005969995              -0.000232651              -0.000974965               0.002314967               0.001340002               0.000000000               0.000000000               0.000000000               0.000000000              -0.000398459               0.005642562              -0.000184393              -0.000854740               0.002165749               0.001311008               0.000000000               0.000000000               0.000000000               0.000000000              -0.000232013               0.005391182              -0.000128020              -0.000760901               0.002050676               0.001289775               0.000000000               0.000000000               0.000000000               0.000000000              -0.000112373               0.005212874              -0.000072977              -0.000693747               0.001968857               0.001275109               0.000000000               0.000000000               0.000000000               0.000000000              -0.000038704               0.005099207              -0.000029642              -0.000651913               0.001917023               0.001265110               0.000000000               0.000000000               0.000000000               0.000000000              -0.000021642               0.005046601              -0.000017009              -0.000638939               0.001895163               0.001256224               0.000000000               0.000000000               0.000000000               0.000000000               0.000990656               0.008948512               0.003488369              -0.000747069               0.003231830               0.002484760               0.000000000               0.000000000               0.000000000               0.000000000              -0.000992663               0.009366916               0.002248236              -0.001543111               0.003636644               0.002093533               0.000000000               0.000000000               0.000000000               0.000000000              -0.002533439               0.010042696               0.001036556              -0.002205371               0.004082655               0.001877284               0.000000000               0.000000000               0.000000000               0.000000000              -0.002806937               0.009698685               0.000573122              -0.002264931               0.003987840               0.001722908               0.000000000               0.000000000               0.000000000               0.000000000              -0.002668376               0.009139740               0.000340978              -0.002143103               0.003760917               0.001617814               0.000000000               0.000000000               0.000000000               0.000000000              -0.002377277               0.008561943               0.000207448              -0.001961717               0.003507858               0.001546141               0.000000000               0.000000000               0.000000000               0.000000000              -0.002042374               0.008014742               0.000113416              -0.001767728               0.003260797               0.001493068               0.000000000               0.000000000               0.000000000               0.000000000              -0.001706870               0.007490576               0.000047248              -0.001576394               0.003022298               0.001445904               0.000000000               0.000000000               0.000000000               0.000000000              -0.001370788               0.006983722               0.000005007              -0.001387007               0.002790220               0.001403212               0.000000000               0.000000000               0.000000000               0.000000000              -0.001037790               0.006513949              -0.000017435              -0.001203412               0.002572432               0.001369020               0.000000000               0.000000000               0.000000000               0.000000000              -0.000732304               0.006100749              -0.000026566              -0.001037205               0.002379298               0.001342093               0.000000000               0.000000000               0.000000000               0.000000000              -0.000475701               0.005755585              -0.000029614              -0.000897834               0.002217787               0.001319953               0.000000000               0.000000000               0.000000000               0.000000000              -0.000279109               0.005485834              -0.000025292              -0.000790393               0.002092057               0.001301664               0.000000000               0.000000000               0.000000000               0.000000000              -0.000143108               0.005287192              -0.000015088              -0.000714563               0.002000567               0.001286005               0.000000000               0.000000000               0.000000000               0.000000000              -0.000059291               0.005152731              -0.000006968              -0.000666324               0.001939668               0.001273344               0.000000000               0.000000000               0.000000000               0.000000000              -0.000018086               0.005067898              -0.000004171              -0.000640268               0.001902705               0.001262437               0.000000000               0.000000000               0.000000000               0.000000000              -0.000015527               0.005026358              -0.000007863              -0.000634116               0.001886808               0.001252692               0.000000000               0.000000000               0.000000000               0.000000000              -0.000064680               0.006733084               0.002645286              -0.000865890               0.002532968               0.001667078               0.000000000               0.000000000               0.000000000               0.000000000              -0.001807859               0.007957112               0.002112024              -0.001672583               0.003209871               0.001537288               0.000000000               0.000000000               0.000000000               0.000000000              -0.003189314               0.009205588               0.001482969              -0.002346685               0.003850727               0.001504041               0.000000000               0.000000000               0.000000000               0.000000000              -0.003241251               0.009124167               0.001096763              -0.002355984               0.003826687               0.001470702               0.000000000               0.000000000               0.000000000               0.000000000              -0.002937125               0.008714666               0.000835896              -0.002190750               0.003635110               0.001444360               0.000000000               0.000000000               0.000000000               0.000000000              -0.002515025               0.008230798               0.000646834              -0.001971979               0.003400898               0.001428919               0.000000000               0.000000000               0.000000000               0.000000000              -0.002082663               0.007738621               0.000498979              -0.001748322               0.003162289               0.001413967               0.000000000               0.000000000               0.000000000               0.000000000              -0.001666695               0.007244055               0.000383784              -0.001530514               0.002924832               0.001394318               0.000000000               0.000000000               0.000000000               0.000000000              -0.001270577               0.006760765               0.000293847              -0.001321559               0.002694085               0.001372527               0.000000000               0.000000000               0.000000000               0.000000000              -0.000901460               0.006323261               0.000225778              -0.001128453               0.002483884               0.001355431               0.000000000               0.000000000               0.000000000               0.000000000              -0.000580812               0.005946794               0.000171849              -0.000961151               0.002302629               0.001341477               0.000000000               0.000000000               0.000000000               0.000000000              -0.000331824               0.005639392               0.000124227              -0.000829356               0.002156231               0.001326875               0.000000000               0.000000000               0.000000000               0.000000000              -0.000158383               0.005401542               0.000082341              -0.000734585               0.002045358               0.001310773               0.000000000               0.000000000               0.000000000               0.000000000              -0.000051060               0.005230446               0.000047471              -0.000672951               0.001967782               0.001294830               0.000000000               0.000000000               0.000000000               0.000000000              -0.000001198               0.005116447               0.000017672              -0.000640003               0.001918800               0.001278796               0.000000000               0.000000000               0.000000000               0.000000000               0.000005323               0.005046028              -0.000001385              -0.000628756               0.001891578               0.001262822               0.000000000               0.000000000               0.000000000               0.000000000              -0.000002330               0.005017156              -0.000008244              -0.000628017               0.001881708               0.001253691               0.000000000               0.000000000               0.000000000               0.000000000              -0.001313684               0.004681581               0.001744841              -0.001077828               0.001919787               0.000841959               0.000000000               0.000000000               0.000000000               0.000000000              -0.002481978               0.006350142               0.001949993              -0.001724506               0.002691527               0.000967022               0.000000000               0.000000000               0.000000000               0.000000000              -0.003557979               0.008007089               0.001947708              -0.002335123               0.003447377               0.001112254               0.000000000               0.000000000               0.000000000               0.000000000              -0.003487259               0.008295391               0.001656048              -0.002344641               0.003546649               0.001202009               0.000000000               0.000000000               0.000000000               0.000000000              -0.003123689               0.008146894               0.001374333              -0.002189740               0.003445517               0.001255777               0.000000000               0.000000000               0.000000000               0.000000000              -0.002662991               0.007848550               0.001135443              -0.001979686               0.003276052               0.001296366               0.000000000               0.000000000               0.000000000               0.000000000              -0.002201147               0.007492548               0.000934065              -0.001761994               0.003084822               0.001322828               0.000000000               0.000000000               0.000000000               0.000000000              -0.001766522               0.007111664               0.000766608              -0.001551400               0.002887664               0.001336264               0.000000000               0.000000000               0.000000000               0.000000000              -0.001354716               0.006726290               0.000625257              -0.001348801               0.002691675               0.001342873               0.000000000               0.000000000               0.000000000               0.000000000              -0.000972224               0.006355598               0.000507432              -0.001159031               0.002504855               0.001345824               0.000000000               0.000000000               0.000000000               0.000000000              -0.000634625               0.006011429               0.000402420              -0.000989411               0.002333593               0.001344182               0.000000000               0.000000000               0.000000000               0.000000000              -0.000364671               0.005708652               0.000303815              -0.000850331               0.002186308               0.001335978               0.000000000               0.000000000               0.000000000               0.000000000              -0.000170483               0.005463639               0.000213230              -0.000746884               0.002070156               0.001323272               0.000000000               0.000000000               0.000000000               0.000000000              -0.000045531               0.005277166               0.000131665              -0.000676718               0.001984610               0.001307892               0.000000000               0.000000000               0.000000000               0.000000000               0.000018766               0.005141384               0.000062847              -0.000635634               0.001925656               0.001290021               0.000000000               0.000000000               0.000000000               0.000000000               0.000035446               0.005053556               0.000017343              -0.000618401               0.001890635               0.001272235               0.000000000               0.000000000               0.000000000               0.000000000               0.000029789               0.005016763               0.000001179              -0.000615923               0.001877545               0.001261622               0.000000000               0.000000000               0.000000000               0.000000000              -0.002933076               0.002829879               0.000852953              -0.001453635               0.001427828              -0.000025808               0.000000000               0.000000000               0.000000000               0.000000000              -0.003248339               0.004747626               0.001715163              -0.001811576               0.002186384               0.000374808               0.000000000               0.000000000               0.000000000               0.000000000              -0.003827638               0.006625161               0.002312244              -0.002263505               0.002962866               0.000699361               0.000000000               0.000000000               0.000000000               0.000000000              -0.003638129               0.007264690               0.002186125              -0.002272380               0.003178999               0.000906619               0.000000000               0.000000000               0.000000000               0.000000000              -0.003244449               0.007409897               0.001925204              -0.002142901               0.003184241               0.001041340               0.000000000               0.000000000               0.000000000               0.000000000              -0.002783695               0.007333179               0.001659337              -0.001960529               0.003097878               0.001137349               0.000000000               0.000000000               0.000000000               0.000000000              -0.002314044               0.007153295               0.001416493              -0.001761924               0.002971716               0.001209791               0.000000000               0.000000000               0.000000000               0.000000000              -0.001874411               0.006922036               0.001204315              -0.001568155               0.002830041               0.001261886               0.000000000               0.000000000               0.000000000               0.000000000              -0.001460161               0.006658459               0.001021348              -0.001379864               0.002679419               0.001299554               0.000000000               0.000000000               0.000000000               0.000000000              -0.001069770               0.006371087               0.000861256              -0.001197547               0.002522856               0.001325310               0.000000000               0.000000000               0.000000000               0.000000000              -0.000711228               0.006083780               0.000710244              -0.001027180               0.002370300               0.001343119               0.000000000               0.000000000               0.000000000               0.000000000              -0.000402364               0.005807903               0.000562831              -0.000876872               0.002228239               0.001351367               0.000000000               0.000000000               0.000000000               0.000000000              -0.000160983               0.005559880               0.000424578              -0.000755352               0.002105059               0.001349707               0.000000000               0.000000000               0.000000000               0.000000000               0.000009037               0.005354975               0.000293932              -0.000665981               0.002006968               0.001340986               0.000000000               0.000000000               0.000000000               0.000000000               0.000107674               0.005195026               0.000173370              -0.000608999               0.001934658               0.001325659               0.000000000               0.000000000               0.000000000               0.000000000               0.000137853               0.005078737               0.000073388              -0.000583146               0.001887277               0.001304132               0.000000000               0.000000000               0.000000000               0.000000000               0.000127430               0.005027175               0.000027758              -0.000580609               0.001869245               0.001288635               0.000000000               0.000000000               0.000000000               0.000000000              -0.004802881               0.001318235               0.000048197              -0.001965857               0.001094690              -0.000871167               0.000000000               0.000000000               0.000000000               0.000000000              -0.004154660               0.003240496               0.001390893              -0.001963056               0.001734505              -0.000228551               0.000000000               0.000000000               0.000000000               0.000000000              -0.004044498               0.005071333               0.002462709              -0.002150599               0.002407293               0.000256694               0.000000000               0.000000000               0.000000000               0.000000000              -0.003656610               0.005952584               0.002536606              -0.002115298               0.002689273               0.000573975               0.000000000               0.000000000               0.000000000               0.000000000              -0.003211897               0.006362712               0.002346219              -0.001999796               0.002787481               0.000787684               0.000000000               0.000000000               0.000000000               0.000000000              -0.002757724               0.006521758               0.002094443              -0.001849362               0.002790351               0.000940989               0.000000000               0.000000000               0.000000000               0.000000000              -0.002298302               0.006542102               0.001840221              -0.001679622               0.002740552               0.001060930               0.000000000               0.000000000               0.000000000               0.000000000              -0.001858695               0.006483301               0.001607280              -0.001507420               0.002663552               0.001156132               0.000000000               0.000000000               0.000000000               0.000000000              -0.001446292               0.006361740               0.001403216              -0.001337574               0.002566417               0.001228842               0.000000000               0.000000000               0.000000000               0.000000000              -0.001055722               0.006192938               0.001220706              -0.001170010               0.002454295               0.001284285               0.000000000               0.000000000               0.000000000               0.000000000              -0.000688763               0.006001588               0.001042597              -0.001008483               0.002336670               0.001328187               0.000000000               0.000000000               0.000000000               0.000000000              -0.000351805               0.005795587               0.000863282              -0.000856373               0.002217301               0.001360927               0.000000000               0.000000000               0.000000000               0.000000000              -0.000066169               0.005582521               0.000686943              -0.000722627               0.002101697               0.001379070               0.000000000               0.000000000               0.000000000               0.000000000               0.000153846               0.005385026               0.000511728              -0.000615435               0.002000135               0.001384701               0.000000000               0.000000000               0.000000000               0.000000000               0.000297447               0.005220983               0.000333785              -0.000541079               0.001920670               0.001379591               0.000000000               0.000000000               0.000000000               0.000000000               0.000352586               0.005095453               0.000160829              -0.000504711               0.001866704               0.001361994               0.000000000               0.000000000               0.000000000               0.000000000               0.000344285               0.005035907               0.000073961              -0.000500380               0.001845412               0.001345032               0.000000000               0.000000000               0.000000000               0.000000000              -0.006792915               0.000215930              -0.000556223              -0.002574332               0.000930081              -0.001644251               0.000000000               0.000000000               0.000000000               0.000000000              -0.005141300               0.001907142               0.001023386              -0.002166377               0.001357830              -0.000808547               0.000000000               0.000000000               0.000000000               0.000000000              -0.004225260               0.003473590               0.002371471              -0.002018667               0.001830739              -0.000187929               0.000000000               0.000000000               0.000000000               0.000000000              -0.003564117               0.004466120               0.002620338              -0.001894805               0.002120292               0.000225487               0.000000000               0.000000000               0.000000000               0.000000000              -0.003031674               0.005082616               0.002524765              -0.001772201               0.002284921               0.000512720               0.000000000               0.000000000               0.000000000               0.000000000              -0.002567193               0.005458528               0.002324341              -0.001645010               0.002367827               0.000722817               0.000000000               0.000000000               0.000000000               0.000000000              -0.002126547               0.005676128               0.002094372              -0.001506968               0.002394346               0.000887378               0.000000000               0.000000000               0.000000000               0.000000000              -0.001701548               0.005788541               0.001870605              -0.001361646               0.002383376               0.001021730               0.000000000               0.000000000               0.000000000               0.000000000              -0.001297900               0.005829137               0.001669500              -0.001215352               0.002348143               0.001132791               0.000000000               0.000000000               0.000000000               0.000000000              -0.000910426               0.005813088               0.001487280              -0.001068044               0.002293691               0.001225647               0.000000000               0.000000000               0.000000000               0.000000000              -0.000537574               0.005742756               0.001309759              -0.000919433               0.002220710               0.001301277               0.000000000               0.000000000               0.000000000               0.000000000              -0.000182772               0.005633652               0.001125512              -0.000772745               0.002135446               0.001362702               0.000000000               0.000000000               0.000000000               0.000000000               0.000143063               0.005499593               0.000932621              -0.000633799               0.002044446               0.001410646               0.000000000               0.000000000               0.000000000               0.000000000               0.000423029               0.005355629               0.000730076              -0.000510817               0.001955464               0.001444647               0.000000000               0.000000000               0.000000000               0.000000000               0.000637587               0.005219332               0.000505972              -0.000413321               0.001877533               0.001464213               0.000000000               0.000000000               0.000000000               0.000000000               0.000762366               0.005102741               0.000260339              -0.000351954               0.001818215               0.001466260               0.000000000               0.000000000               0.000000000               0.000000000               0.000794118               0.005047061               0.000132857              -0.000333088               0.001793366               0.001460279               0.000000000               0.000000000               0.000000000               0.000000000              -0.008717906              -0.000496874              -0.000865045              -0.003207103               0.000903403              -0.002303700               0.000000000               0.000000000               0.000000000               0.000000000              -0.006126828               0.000821372               0.000670381              -0.002400229               0.001073860              -0.001326370               0.000000000               0.000000000               0.000000000               0.000000000              -0.004382561               0.001991115               0.002038157              -0.001892347               0.001294478              -0.000597869               0.000000000               0.000000000               0.000000000               0.000000000              -0.003400045               0.002979772               0.002385536              -0.001647485               0.001542407              -0.000105078               0.000000000               0.000000000               0.000000000               0.000000000              -0.002742140               0.003724729               0.002375871              -0.001493891               0.001739526               0.000245635               0.000000000               0.000000000               0.000000000               0.000000000              -0.002243434               0.004264318               0.002240637              -0.001374325               0.001879532               0.000505207               0.000000000               0.000000000               0.000000000               0.000000000              -0.001813088               0.004648647               0.002060615              -0.001260987               0.001969862               0.000708875               0.000000000               0.000000000               0.000000000               0.000000000              -0.001412357               0.004922901               0.001871894              -0.001144995               0.002022615               0.000877620               0.000000000               0.000000000               0.000000000               0.000000000              -0.001024216               0.005124324               0.001696978              -0.001024620               0.002049631               0.001025011               0.000000000               0.000000000               0.000000000               0.000000000              -0.000648100               0.005259552               0.001538732              -0.000900480               0.002053326               0.001152846               0.000000000               0.000000000               0.000000000               0.000000000              -0.000276308               0.005323791               0.001385722              -0.000769088               0.002030942               0.001261853               0.000000000               0.000000000               0.000000000               0.000000000               0.000093346               0.005328628               0.001224528              -0.000631073               0.001986549               0.001355476               0.000000000               0.000000000               0.000000000               0.000000000               0.000460056               0.005296198               0.001049015              -0.000489503               0.001928549               0.001439046               0.000000000               0.000000000               0.000000000               0.000000000               0.000812243               0.005239089               0.000851298              -0.000350294               0.001863110               0.001512816               0.000000000               0.000000000               0.000000000               0.000000000               0.001133436               0.005165283               0.000615921              -0.000220621               0.001795284               0.001574663               0.000000000               0.000000000               0.000000000               0.000000000               0.001401938               0.005085177               0.000331792              -0.000109920               0.001731682               0.001621762               0.000000000               0.000000000               0.000000000               0.000000000               0.001547597               0.005054370               0.000182627              -0.000051448               0.001701922               0.001650475               0.000000000               0.000000000               0.000000000               0.000000000              -0.010339204              -0.000888766              -0.000836002              -0.003766103               0.000959106              -0.002806998               0.000000000               0.000000000               0.000000000               0.000000000              -0.006984503               0.000035920               0.000376806              -0.002623677               0.000886526              -0.001737151               0.000000000               0.000000000               0.000000000               0.000000000              -0.004518534               0.000786824               0.001489351              -0.001792801               0.000859868              -0.000932933               0.000000000               0.000000000               0.000000000               0.000000000              -0.003218920               0.001692138               0.001822449              -0.001418610               0.001036908              -0.000381702               0.000000000               0.000000000               0.000000000               0.000000000              -0.002424362               0.002486700               0.001860891              -0.001219971               0.001235547               0.000015576               0.000000000               0.000000000               0.000000000               0.000000000              -0.001873259               0.003131739               0.001785461              -0.001093938               0.001408548               0.000314610               0.000000000               0.000000000               0.000000000               0.000000000              -0.001441197               0.003645881               0.001664240              -0.000996182               0.001547342               0.000551159               0.000000000               0.000000000               0.000000000               0.000000000              -0.001059853               0.004052891               0.001531080              -0.000904055               0.001652301               0.000748246               0.000000000               0.000000000               0.000000000               0.000000000              -0.000690357               0.004383506               0.001404078              -0.000806821               0.001730094               0.000923273               0.000000000               0.000000000               0.000000000               0.000000000              -0.000325616               0.004648900               0.001286071              -0.000703218               0.001784023               0.001080806               0.000000000               0.000000000               0.000000000               0.000000000               0.000039232               0.004843422               0.001174974              -0.000590715               0.001811363               0.001220648               0.000000000               0.000000000               0.000000000               0.000000000               0.000416978               0.004962941               0.001059768              -0.000464000               0.001808964               0.001344963               0.000000000               0.000000000               0.000000000               0.000000000               0.000818122               0.005031465               0.000929393              -0.000322137               0.001784517               0.001462380               0.000000000               0.000000000               0.000000000               0.000000000               0.001243338               0.005070797               0.000774529              -0.000167598               0.001746115               0.001578517               0.000000000               0.000000000               0.000000000               0.000000000               0.001689351               0.005076214               0.000580555              -0.000001021               0.001692395               0.001691374               0.000000000               0.000000000               0.000000000               0.000000000               0.002148864               0.005047461               0.000323871               0.000174890               0.001624174               0.001799063               0.000000000               0.000000000               0.000000000               0.000000000               0.002466993               0.005056406               0.000188116               0.000293069               0.001587762               0.001880831               0.000000000               0.000000000               0.000000000               0.000000000              -0.011424031              -0.001063337              -0.000504273              -0.004151092               0.001029245              -0.003121847               0.000000000               0.000000000               0.000000000               0.000000000              -0.007571548              -0.000432445               0.000162532              -0.002785273               0.000784271              -0.002001002               0.000000000               0.000000000               0.000000000               0.000000000              -0.004614568              -0.000001424               0.000784169              -0.001730284               0.000576282              -0.001154001               0.000000000               0.000000000               0.000000000               0.000000000              -0.003075432               0.000807545               0.000986215              -0.001254229               0.000687253              -0.000566976               0.000000000               0.000000000               0.000000000               0.000000000              -0.002174240               0.001608532               0.001023141              -0.001016405               0.000874973              -0.000141432               0.000000000               0.000000000               0.000000000               0.000000000              -0.001580721               0.002312031               0.000991417              -0.000881773               0.001064593               0.000182820               0.000000000               0.000000000               0.000000000               0.000000000              -0.001138828               0.002909078               0.000930603              -0.000790693               0.001233247               0.000442554               0.000000000               0.000000000               0.000000000               0.000000000              -0.000762131               0.003406016               0.000863683              -0.000711550               0.001372510               0.000660961               0.000000000               0.000000000               0.000000000               0.000000000              -0.000408449               0.003823551               0.000798714              -0.000631111               0.001484875               0.000853763               0.000000000               0.000000000               0.000000000               0.000000000              -0.000055265               0.004172670               0.000736199              -0.000542307               0.001571645               0.001029338               0.000000000               0.000000000               0.000000000               0.000000000               0.000306357               0.004454919               0.000677869              -0.000441980               0.001632285               0.001190305               0.000000000               0.000000000               0.000000000               0.000000000               0.000686903               0.004667364               0.000620002              -0.000325831               0.001664383               0.001338551               0.000000000               0.000000000               0.000000000               0.000000000               0.001106032               0.004823207               0.000552652              -0.000188139               0.001670432               0.001482294               0.000000000               0.000000000               0.000000000               0.000000000               0.001582581               0.004939753               0.000469238              -0.000024002               0.001654568               0.001630567               0.000000000               0.000000000               0.000000000               0.000000000               0.002127827               0.005008787               0.000361551               0.000171835               0.001612300               0.001784136               0.000000000               0.000000000               0.000000000               0.000000000               0.002756211               0.005018799               0.000206865               0.000406225               0.001537508               0.001943733               0.000000000               0.000000000               0.000000000               0.000000000               0.003242622               0.005060710               0.000124215               0.000583389               0.001492424               0.002075812               0.000000000               0.000000000               0.000000000               0.000000000               0.000000000               0.000000000               0.000000000               0.000000000               0.000000000               0.000000000               0.000000000               0.000000000               0.000000000               0.000000000               0.000000000               0.000000000               0.000000000               0.000000000               0.000000000               0.000000000               0.000000000               0.000000000               0.000000000               0.000000000               0.000000000               0.000000000               0.000000000               0.000000000               0.000000000               0.000000000               0.000000000               0.000000000               0.000000000               0.000000000               0.000000000               0.000000000               0.000000000               0.000000000               0.000000000               0.000000000               0.000000000               0.000000000               0.000000000               0.000000000               0.000000000               0.000000000               0.000000000               0.000000000               0.000000000               0.000000000               0.000000000               0.000000000               0.000000000               0.000000000               0.000000000               0.000000000               0.000000000               0.000000000               0.000000000               0.000000000               0.000000000               0.000000000               0.000000000               0.000000000               0.000000000               0.000000000               0.000000000               0.000000000               0.000000000               0.000000000               0.000000000               0.000000000               0.000000000               0.000000000               0.000000000               0.000000000               0.000000000               0.000000000               0.000000000               0.000000000               0.000000000               0.000000000               0.000000000               0.000000000               0.000000000               0.000000000               0.000000000               0.000000000               0.000000000               0.000000000               0.000000000               0.000000000               0.000000000               0.000000000               0.000000000               0.000000000               0.000000000               0.000000000               0.000000000               0.000000000               0.000000000               0.000000000               0.000000000               0.000000000               0.000000000               0.000000000               0.000000000               0.000000000               0.000000000               0.000000000               0.000000000               0.000000000               0.000000000               0.000000000               0.000000000               0.000000000               0.000000000               0.000000000               0.000000000               0.000000000               0.000000000               0.000000000               0.000000000               0.000000000               0.000000000               0.000000000               0.000000000               0.000000000               0.000000000               0.000000000               0.000000000               0.000000000               0.000000000               0.000000000               0.000000000               0.000000000               0.000000000               0.000000000               0.000000000               0.000000000               0.000000000               0.000000000               0.000000000               0.000000000               0.000000000               0.000000000               0.000000000               0.000000000               0.000000000               0.000000000               0.000000000               0.000000000               0.000000000               0.000000000               0.000000000               0.000000000               0.000000000               0.000000000               0.000000000               0.000000000               0.000000000               0.000000000               0.000000000               0.000000000               0.000000000               0.000000000               0.000000000               0.000000000               0.000000000               0.000000000               0.000000000               0.000000000               0.000000000               0.000000000 </DataArray>
</PointData>
</Piece>
</UnstructuredGrid> </VTKFile>
