<?xml version="1.0"?>
<VTKFile type="UnstructuredGrid" version="0.1">
<UnstructuredGrid>
<Piece NumberOfPoints="      1156" NumberOfCells="      1024">
<Points>
<DataArray type="Float64"                                    Name="coordinates"                                                      NumberOfComponents=" 3" format="ascii">
              0.133000000               0.000000000               0.000000000               0.155937500               0.000000000               0.000000000               0.178875000               0.000000000               0.000000000               0.201812500               0.000000000               0.000000000               0.224750000               0.000000000               0.000000000               0.247687500               0.000000000               0.000000000               0.270625000               0.000000000               0.000000000               0.293562500               0.000000000               0.000000000               0.316500000               0.000000000               0.000000000               0.339437500               0.000000000               0.000000000               0.362375000               0.000000000               0.000000000               0.385312500               0.000000000               0.000000000               0.408250000               0.000000000               0.000000000               0.431187500               0.000000000               0.000000000               0.454125000               0.000000000               0.000000000               0.477062500               0.000000000               0.000000000               0.500000000               0.000000000               0.000000000               0.132359569               0.013036280               0.000000000               0.155337096               0.016127762               0.000000000               0.178314623               0.019219245               0.000000000               0.201292150               0.022310727               0.000000000               0.224269676               0.025402210               0.000000000               0.247247203               0.028493692               0.000000000               0.270224730               0.031585175               0.000000000               0.293202257               0.034676657               0.000000000               0.316179784               0.037768140               0.000000000               0.339157311               0.040859622               0.000000000               0.362134838               0.043951105               0.000000000               0.385112365               0.047042587               0.000000000               0.408089892               0.050134070               0.000000000               0.431067419               0.053225552               0.000000000               0.454044946               0.056317035               0.000000000               0.477022473               0.059408517               0.000000000               0.500000000               0.062500000               0.000000000               0.130444442               0.025947013               0.000000000               0.153541665               0.032137825               0.000000000               0.176638887               0.038328636               0.000000000               0.199736109               0.044519448               0.000000000               0.222833332               0.050710260               0.000000000               0.245930554               0.056901071               0.000000000               0.269027776               0.063091883               0.000000000               0.292124999               0.069282695               0.000000000               0.315222221               0.075473506               0.000000000               0.338319444               0.081664318               0.000000000               0.361416666               0.087855130               0.000000000               0.384513888               0.094045942               0.000000000               0.407611111               0.100236753               0.000000000               0.430708333               0.106427565               0.000000000               0.453805555               0.112618377               0.000000000               0.476902778               0.118809188               0.000000000               0.500000000               0.125000000               0.000000000               0.127273065               0.038607862               0.000000000               0.150568498               0.047913621               0.000000000               0.173863932               0.057219379               0.000000000               0.197159365               0.066525138               0.000000000               0.220454798               0.075830897               0.000000000               0.243750232               0.085136655               0.000000000               0.267045665               0.094442414               0.000000000               0.290341099               0.103748172               0.000000000               0.313636532               0.113053931               0.000000000               0.336931966               0.122359690               0.000000000               0.360227399               0.131665448               0.000000000               0.383522833               0.140971207               0.000000000               0.406818266               0.150276966               0.000000000               0.430113700               0.159582724               0.000000000               0.453409133               0.168888483               0.000000000               0.476704567               0.178194241               0.000000000               0.500000000               0.187500000               0.000000000               0.122875978               0.050896897               0.000000000               0.146446229               0.063340840               0.000000000               0.170016481               0.075784784               0.000000000               0.193586732               0.088228728               0.000000000               0.217156983               0.100672672               0.000000000               0.240727235               0.113116616               0.000000000               0.264297486               0.125560560               0.000000000               0.287867738               0.138004504               0.000000000               0.311437989               0.150448448               0.000000000               0.335008240               0.162892392               0.000000000               0.358578492               0.175336336               0.000000000               0.382148743               0.187780280               0.000000000               0.405718994               0.200224224               0.000000000               0.429289246               0.212668168               0.000000000               0.452859497               0.225112112               0.000000000               0.476429749               0.237556056               0.000000000               0.500000000               0.250000000               0.000000000               0.117295528               0.062695766               0.000000000               0.141214558               0.078308531               0.000000000               0.165133587               0.093921295               0.000000000               0.189052617               0.109534060               0.000000000               0.212971646               0.125146824               0.000000000               0.236890676               0.140759589               0.000000000               0.260809705               0.156372354               0.000000000               0.284728735               0.171985118               0.000000000               0.308647764               0.187597883               0.000000000               0.332566794               0.203210648               0.000000000               0.356485823               0.218823412               0.000000000               0.380404853               0.234436177               0.000000000               0.404323882               0.250048941               0.000000000               0.428242912               0.265661706               0.000000000               0.452161941               0.281274471               0.000000000               0.476080971               0.296887235               0.000000000               0.500000000               0.312500000               0.000000000               0.110585458               0.073890841               0.000000000               0.134923867               0.092710163               0.000000000               0.159262276               0.111529486               0.000000000               0.183600685               0.130348808               0.000000000               0.207939094               0.149168131               0.000000000               0.232277503               0.167987453               0.000000000               0.256615912               0.186806776               0.000000000               0.280954320               0.205626098               0.000000000               0.305292729               0.224445420               0.000000000               0.329631138               0.243264743               0.000000000               0.353969547               0.262084065               0.000000000               0.378307956               0.280903388               0.000000000               0.402646365               0.299722710               0.000000000               0.426984773               0.318542033               0.000000000               0.451323182               0.337361355               0.000000000               0.475661591               0.356180678               0.000000000               0.500000000               0.375000000               0.000000000               0.102810390               0.084374307               0.000000000               0.127634741               0.106444663               0.000000000               0.152459092               0.128515018               0.000000000               0.177283442               0.150585374               0.000000000               0.202107793               0.172655730               0.000000000               0.226932143               0.194726086               0.000000000               0.251756494               0.216796442               0.000000000               0.276580845               0.238866798               0.000000000               0.301405195               0.260937153               0.000000000               0.326229546               0.283007509               0.000000000               0.351053896               0.305077865               0.000000000               0.375878247               0.327148221               0.000000000               0.400702598               0.349218577               0.000000000               0.425526948               0.371288933               0.000000000               0.450351299               0.393359288               0.000000000               0.475175649               0.415429644               0.000000000               0.500000000               0.437500000               0.000000000               0.094045202               0.094045202               0.000000000               0.119417377               0.119417377               0.000000000               0.144789552               0.144789552               0.000000000               0.170161727               0.170161727               0.000000000               0.195533901               0.195533901               0.000000000               0.220906076               0.220906076               0.000000000               0.246278251               0.246278251               0.000000000               0.271650426               0.271650426               0.000000000               0.297022601               0.297022601               0.000000000               0.322394776               0.322394776               0.000000000               0.347766951               0.347766951               0.000000000               0.373139126               0.373139126               0.000000000               0.398511300               0.398511300               0.000000000               0.423883475               0.423883475               0.000000000               0.449255650               0.449255650               0.000000000               0.474627825               0.474627825               0.000000000               0.500000000               0.500000000               0.000000000               0.084374307               0.102810390               0.000000000               0.106444663               0.127634741               0.000000000               0.128515018               0.152459092               0.000000000               0.150585374               0.177283442               0.000000000               0.172655730               0.202107793               0.000000000               0.194726086               0.226932143               0.000000000               0.216796442               0.251756494               0.000000000               0.238866798               0.276580845               0.000000000               0.260937153               0.301405195               0.000000000               0.283007509               0.326229546               0.000000000               0.305077865               0.351053896               0.000000000               0.327148221               0.375878247               0.000000000               0.349218577               0.400702598               0.000000000               0.371288933               0.425526948               0.000000000               0.393359288               0.450351299               0.000000000               0.415429644               0.475175649               0.000000000               0.437500000               0.500000000               0.000000000               0.073890841               0.110585458               0.000000000               0.092710163               0.134923867               0.000000000               0.111529486               0.159262276               0.000000000               0.130348808               0.183600685               0.000000000               0.149168131               0.207939094               0.000000000               0.167987453               0.232277503               0.000000000               0.186806776               0.256615912               0.000000000               0.205626098               0.280954320               0.000000000               0.224445420               0.305292729               0.000000000               0.243264743               0.329631138               0.000000000               0.262084065               0.353969547               0.000000000               0.280903388               0.378307956               0.000000000               0.299722710               0.402646365               0.000000000               0.318542033               0.426984773               0.000000000               0.337361355               0.451323182               0.000000000               0.356180678               0.475661591               0.000000000               0.375000000               0.500000000               0.000000000               0.062695766               0.117295528               0.000000000               0.078308531               0.141214558               0.000000000               0.093921295               0.165133587               0.000000000               0.109534060               0.189052617               0.000000000               0.125146824               0.212971646               0.000000000               0.140759589               0.236890676               0.000000000               0.156372354               0.260809705               0.000000000               0.171985118               0.284728735               0.000000000               0.187597883               0.308647764               0.000000000               0.203210648               0.332566794               0.000000000               0.218823412               0.356485823               0.000000000               0.234436177               0.380404853               0.000000000               0.250048941               0.404323882               0.000000000               0.265661706               0.428242912               0.000000000               0.281274471               0.452161941               0.000000000               0.296887235               0.476080971               0.000000000               0.312500000               0.500000000               0.000000000               0.050896897               0.122875978               0.000000000               0.063340840               0.146446229               0.000000000               0.075784784               0.170016481               0.000000000               0.088228728               0.193586732               0.000000000               0.100672672               0.217156983               0.000000000               0.113116616               0.240727235               0.000000000               0.125560560               0.264297486               0.000000000               0.138004504               0.287867738               0.000000000               0.150448448               0.311437989               0.000000000               0.162892392               0.335008240               0.000000000               0.175336336               0.358578492               0.000000000               0.187780280               0.382148743               0.000000000               0.200224224               0.405718994               0.000000000               0.212668168               0.429289246               0.000000000               0.225112112               0.452859497               0.000000000               0.237556056               0.476429749               0.000000000               0.250000000               0.500000000               0.000000000               0.038607862               0.127273065               0.000000000               0.047913621               0.150568498               0.000000000               0.057219379               0.173863932               0.000000000               0.066525138               0.197159365               0.000000000               0.075830897               0.220454798               0.000000000               0.085136655               0.243750232               0.000000000               0.094442414               0.267045665               0.000000000               0.103748172               0.290341099               0.000000000               0.113053931               0.313636532               0.000000000               0.122359690               0.336931966               0.000000000               0.131665448               0.360227399               0.000000000               0.140971207               0.383522833               0.000000000               0.150276966               0.406818266               0.000000000               0.159582724               0.430113700               0.000000000               0.168888483               0.453409133               0.000000000               0.178194241               0.476704567               0.000000000               0.187500000               0.500000000               0.000000000               0.025947013               0.130444442               0.000000000               0.032137825               0.153541665               0.000000000               0.038328636               0.176638887               0.000000000               0.044519448               0.199736109               0.000000000               0.050710260               0.222833332               0.000000000               0.056901071               0.245930554               0.000000000               0.063091883               0.269027776               0.000000000               0.069282695               0.292124999               0.000000000               0.075473506               0.315222221               0.000000000               0.081664318               0.338319444               0.000000000               0.087855130               0.361416666               0.000000000               0.094045942               0.384513888               0.000000000               0.100236753               0.407611111               0.000000000               0.106427565               0.430708333               0.000000000               0.112618377               0.453805555               0.000000000               0.118809188               0.476902778               0.000000000               0.125000000               0.500000000               0.000000000               0.013036280               0.132359569               0.000000000               0.016127762               0.155337096               0.000000000               0.019219245               0.178314623               0.000000000               0.022310727               0.201292150               0.000000000               0.025402210               0.224269676               0.000000000               0.028493692               0.247247203               0.000000000               0.031585175               0.270224730               0.000000000               0.034676657               0.293202257               0.000000000               0.037768140               0.316179784               0.000000000               0.040859622               0.339157311               0.000000000               0.043951105               0.362134838               0.000000000               0.047042587               0.385112365               0.000000000               0.050134070               0.408089892               0.000000000               0.053225552               0.431067419               0.000000000               0.056317035               0.454044946               0.000000000               0.059408517               0.477022473               0.000000000               0.062500000               0.500000000               0.000000000               0.000000000               0.133000000               0.000000000               0.000000000               0.155937500               0.000000000               0.000000000               0.178875000               0.000000000               0.000000000               0.201812500               0.000000000               0.000000000               0.224750000               0.000000000               0.000000000               0.247687500               0.000000000               0.000000000               0.270625000               0.000000000               0.000000000               0.293562500               0.000000000               0.000000000               0.316500000               0.000000000               0.000000000               0.339437500               0.000000000               0.000000000               0.362375000               0.000000000               0.000000000               0.385312500               0.000000000               0.000000000               0.408250000               0.000000000               0.000000000               0.431187500               0.000000000               0.000000000               0.454125000               0.000000000               0.000000000               0.477062500               0.000000000               0.000000000               0.500000000               0.000000000               0.133000000               0.000000000               0.000000000               0.155937500               0.000000000               0.000000000               0.178875000               0.000000000               0.000000000               0.201812500               0.000000000               0.000000000               0.224750000               0.000000000               0.000000000               0.247687500               0.000000000               0.000000000               0.270625000               0.000000000               0.000000000               0.293562500               0.000000000               0.000000000               0.316500000               0.000000000               0.000000000               0.339437500               0.000000000               0.000000000               0.362375000               0.000000000               0.000000000               0.385312500               0.000000000               0.000000000               0.408250000               0.000000000               0.000000000               0.431187500               0.000000000               0.000000000               0.454125000               0.000000000               0.000000000               0.477062500               0.000000000               0.000000000               0.500000000               0.000000000               0.000000000               0.132359569              -0.013036280               0.000000000               0.155337096              -0.016127762               0.000000000               0.178314623              -0.019219245               0.000000000               0.201292150              -0.022310727               0.000000000               0.224269676              -0.025402210               0.000000000               0.247247203              -0.028493692               0.000000000               0.270224730              -0.031585175               0.000000000               0.293202257              -0.034676657               0.000000000               0.316179784              -0.037768140               0.000000000               0.339157311              -0.040859622               0.000000000               0.362134838              -0.043951105               0.000000000               0.385112365              -0.047042587               0.000000000               0.408089892              -0.050134070               0.000000000               0.431067419              -0.053225552               0.000000000               0.454044946              -0.056317035               0.000000000               0.477022473              -0.059408517               0.000000000               0.500000000              -0.062500000               0.000000000               0.130444442              -0.025947013               0.000000000               0.153541665              -0.032137825               0.000000000               0.176638887              -0.038328636               0.000000000               0.199736109              -0.044519448               0.000000000               0.222833332              -0.050710260               0.000000000               0.245930554              -0.056901071               0.000000000               0.269027776              -0.063091883               0.000000000               0.292124999              -0.069282695               0.000000000               0.315222221              -0.075473506               0.000000000               0.338319444              -0.081664318               0.000000000               0.361416666              -0.087855130               0.000000000               0.384513888              -0.094045942               0.000000000               0.407611111              -0.100236753               0.000000000               0.430708333              -0.106427565               0.000000000               0.453805555              -0.112618377               0.000000000               0.476902778              -0.118809188               0.000000000               0.500000000              -0.125000000               0.000000000               0.127273065              -0.038607862               0.000000000               0.150568498              -0.047913621               0.000000000               0.173863932              -0.057219379               0.000000000               0.197159365              -0.066525138               0.000000000               0.220454798              -0.075830897               0.000000000               0.243750232              -0.085136655               0.000000000               0.267045665              -0.094442414               0.000000000               0.290341099              -0.103748172               0.000000000               0.313636532              -0.113053931               0.000000000               0.336931966              -0.122359690               0.000000000               0.360227399              -0.131665448               0.000000000               0.383522833              -0.140971207               0.000000000               0.406818266              -0.150276966               0.000000000               0.430113700              -0.159582724               0.000000000               0.453409133              -0.168888483               0.000000000               0.476704567              -0.178194241               0.000000000               0.500000000              -0.187500000               0.000000000               0.122875978              -0.050896897               0.000000000               0.146446229              -0.063340840               0.000000000               0.170016481              -0.075784784               0.000000000               0.193586732              -0.088228728               0.000000000               0.217156983              -0.100672672               0.000000000               0.240727235              -0.113116616               0.000000000               0.264297486              -0.125560560               0.000000000               0.287867738              -0.138004504               0.000000000               0.311437989              -0.150448448               0.000000000               0.335008240              -0.162892392               0.000000000               0.358578492              -0.175336336               0.000000000               0.382148743              -0.187780280               0.000000000               0.405718994              -0.200224224               0.000000000               0.429289246              -0.212668168               0.000000000               0.452859497              -0.225112112               0.000000000               0.476429749              -0.237556056               0.000000000               0.500000000              -0.250000000               0.000000000               0.117295528              -0.062695766               0.000000000               0.141214558              -0.078308531               0.000000000               0.165133587              -0.093921295               0.000000000               0.189052617              -0.109534060               0.000000000               0.212971646              -0.125146824               0.000000000               0.236890676              -0.140759589               0.000000000               0.260809705              -0.156372354               0.000000000               0.284728735              -0.171985118               0.000000000               0.308647764              -0.187597883               0.000000000               0.332566794              -0.203210648               0.000000000               0.356485823              -0.218823412               0.000000000               0.380404853              -0.234436177               0.000000000               0.404323882              -0.250048941               0.000000000               0.428242912              -0.265661706               0.000000000               0.452161941              -0.281274471               0.000000000               0.476080971              -0.296887235               0.000000000               0.500000000              -0.312500000               0.000000000               0.110585458              -0.073890841               0.000000000               0.134923867              -0.092710163               0.000000000               0.159262276              -0.111529486               0.000000000               0.183600685              -0.130348808               0.000000000               0.207939094              -0.149168131               0.000000000               0.232277503              -0.167987453               0.000000000               0.256615912              -0.186806776               0.000000000               0.280954320              -0.205626098               0.000000000               0.305292729              -0.224445420               0.000000000               0.329631138              -0.243264743               0.000000000               0.353969547              -0.262084065               0.000000000               0.378307956              -0.280903388               0.000000000               0.402646365              -0.299722710               0.000000000               0.426984773              -0.318542033               0.000000000               0.451323182              -0.337361355               0.000000000               0.475661591              -0.356180678               0.000000000               0.500000000              -0.375000000               0.000000000               0.102810390              -0.084374307               0.000000000               0.127634741              -0.106444663               0.000000000               0.152459092              -0.128515018               0.000000000               0.177283442              -0.150585374               0.000000000               0.202107793              -0.172655730               0.000000000               0.226932143              -0.194726086               0.000000000               0.251756494              -0.216796442               0.000000000               0.276580845              -0.238866798               0.000000000               0.301405195              -0.260937153               0.000000000               0.326229546              -0.283007509               0.000000000               0.351053896              -0.305077865               0.000000000               0.375878247              -0.327148221               0.000000000               0.400702598              -0.349218577               0.000000000               0.425526948              -0.371288933               0.000000000               0.450351299              -0.393359288               0.000000000               0.475175649              -0.415429644               0.000000000               0.500000000              -0.437500000               0.000000000               0.094045202              -0.094045202               0.000000000               0.119417377              -0.119417377               0.000000000               0.144789552              -0.144789552               0.000000000               0.170161727              -0.170161727               0.000000000               0.195533901              -0.195533901               0.000000000               0.220906076              -0.220906076               0.000000000               0.246278251              -0.246278251               0.000000000               0.271650426              -0.271650426               0.000000000               0.297022601              -0.297022601               0.000000000               0.322394776              -0.322394776               0.000000000               0.347766951              -0.347766951               0.000000000               0.373139126              -0.373139126               0.000000000               0.398511300              -0.398511300               0.000000000               0.423883475              -0.423883475               0.000000000               0.449255650              -0.449255650               0.000000000               0.474627825              -0.474627825               0.000000000               0.500000000              -0.500000000               0.000000000               0.084374307              -0.102810390               0.000000000               0.106444663              -0.127634741               0.000000000               0.128515018              -0.152459092               0.000000000               0.150585374              -0.177283442               0.000000000               0.172655730              -0.202107793               0.000000000               0.194726086              -0.226932143               0.000000000               0.216796442              -0.251756494               0.000000000               0.238866798              -0.276580845               0.000000000               0.260937153              -0.301405195               0.000000000               0.283007509              -0.326229546               0.000000000               0.305077865              -0.351053896               0.000000000               0.327148221              -0.375878247               0.000000000               0.349218577              -0.400702598               0.000000000               0.371288933              -0.425526948               0.000000000               0.393359288              -0.450351299               0.000000000               0.415429644              -0.475175649               0.000000000               0.437500000              -0.500000000               0.000000000               0.073890841              -0.110585458               0.000000000               0.092710163              -0.134923867               0.000000000               0.111529486              -0.159262276               0.000000000               0.130348808              -0.183600685               0.000000000               0.149168131              -0.207939094               0.000000000               0.167987453              -0.232277503               0.000000000               0.186806776              -0.256615912               0.000000000               0.205626098              -0.280954320               0.000000000               0.224445420              -0.305292729               0.000000000               0.243264743              -0.329631138               0.000000000               0.262084065              -0.353969547               0.000000000               0.280903388              -0.378307956               0.000000000               0.299722710              -0.402646365               0.000000000               0.318542033              -0.426984773               0.000000000               0.337361355              -0.451323182               0.000000000               0.356180678              -0.475661591               0.000000000               0.375000000              -0.500000000               0.000000000               0.062695766              -0.117295528               0.000000000               0.078308531              -0.141214558               0.000000000               0.093921295              -0.165133587               0.000000000               0.109534060              -0.189052617               0.000000000               0.125146824              -0.212971646               0.000000000               0.140759589              -0.236890676               0.000000000               0.156372354              -0.260809705               0.000000000               0.171985118              -0.284728735               0.000000000               0.187597883              -0.308647764               0.000000000               0.203210648              -0.332566794               0.000000000               0.218823412              -0.356485823               0.000000000               0.234436177              -0.380404853               0.000000000               0.250048941              -0.404323882               0.000000000               0.265661706              -0.428242912               0.000000000               0.281274471              -0.452161941               0.000000000               0.296887235              -0.476080971               0.000000000               0.312500000              -0.500000000               0.000000000               0.050896897              -0.122875978               0.000000000               0.063340840              -0.146446229               0.000000000               0.075784784              -0.170016481               0.000000000               0.088228728              -0.193586732               0.000000000               0.100672672              -0.217156983               0.000000000               0.113116616              -0.240727235               0.000000000               0.125560560              -0.264297486               0.000000000               0.138004504              -0.287867738               0.000000000               0.150448448              -0.311437989               0.000000000               0.162892392              -0.335008240               0.000000000               0.175336336              -0.358578492               0.000000000               0.187780280              -0.382148743               0.000000000               0.200224224              -0.405718994               0.000000000               0.212668168              -0.429289246               0.000000000               0.225112112              -0.452859497               0.000000000               0.237556056              -0.476429749               0.000000000               0.250000000              -0.500000000               0.000000000               0.038607862              -0.127273065               0.000000000               0.047913621              -0.150568498               0.000000000               0.057219379              -0.173863932               0.000000000               0.066525138              -0.197159365               0.000000000               0.075830897              -0.220454798               0.000000000               0.085136655              -0.243750232               0.000000000               0.094442414              -0.267045665               0.000000000               0.103748172              -0.290341099               0.000000000               0.113053931              -0.313636532               0.000000000               0.122359690              -0.336931966               0.000000000               0.131665448              -0.360227399               0.000000000               0.140971207              -0.383522833               0.000000000               0.150276966              -0.406818266               0.000000000               0.159582724              -0.430113700               0.000000000               0.168888483              -0.453409133               0.000000000               0.178194241              -0.476704567               0.000000000               0.187500000              -0.500000000               0.000000000               0.025947013              -0.130444442               0.000000000               0.032137825              -0.153541665               0.000000000               0.038328636              -0.176638887               0.000000000               0.044519448              -0.199736109               0.000000000               0.050710260              -0.222833332               0.000000000               0.056901071              -0.245930554               0.000000000               0.063091883              -0.269027776               0.000000000               0.069282695              -0.292124999               0.000000000               0.075473506              -0.315222221               0.000000000               0.081664318              -0.338319444               0.000000000               0.087855130              -0.361416666               0.000000000               0.094045942              -0.384513888               0.000000000               0.100236753              -0.407611111               0.000000000               0.106427565              -0.430708333               0.000000000               0.112618377              -0.453805555               0.000000000               0.118809188              -0.476902778               0.000000000               0.125000000              -0.500000000               0.000000000               0.013036280              -0.132359569               0.000000000               0.016127762              -0.155337096               0.000000000               0.019219245              -0.178314623               0.000000000               0.022310727              -0.201292150               0.000000000               0.025402210              -0.224269676               0.000000000               0.028493692              -0.247247203               0.000000000               0.031585175              -0.270224730               0.000000000               0.034676657              -0.293202257               0.000000000               0.037768140              -0.316179784               0.000000000               0.040859622              -0.339157311               0.000000000               0.043951105              -0.362134838               0.000000000               0.047042587              -0.385112365               0.000000000               0.050134070              -0.408089892               0.000000000               0.053225552              -0.431067419               0.000000000               0.056317035              -0.454044946               0.000000000               0.059408517              -0.477022473               0.000000000               0.062500000              -0.500000000               0.000000000               0.000000000              -0.133000000               0.000000000               0.000000000              -0.155937500               0.000000000               0.000000000              -0.178875000               0.000000000               0.000000000              -0.201812500               0.000000000               0.000000000              -0.224750000               0.000000000               0.000000000              -0.247687500               0.000000000               0.000000000              -0.270625000               0.000000000               0.000000000              -0.293562500               0.000000000               0.000000000              -0.316500000               0.000000000               0.000000000              -0.339437500               0.000000000               0.000000000              -0.362375000               0.000000000               0.000000000              -0.385312500               0.000000000               0.000000000              -0.408250000               0.000000000               0.000000000              -0.431187500               0.000000000               0.000000000              -0.454125000               0.000000000               0.000000000              -0.477062500               0.000000000               0.000000000              -0.500000000               0.000000000              -0.133000000               0.000000000               0.000000000              -0.155937500               0.000000000               0.000000000              -0.178875000               0.000000000               0.000000000              -0.201812500               0.000000000               0.000000000              -0.224750000               0.000000000               0.000000000              -0.247687500               0.000000000               0.000000000              -0.270625000               0.000000000               0.000000000              -0.293562500               0.000000000               0.000000000              -0.316500000               0.000000000               0.000000000              -0.339437500               0.000000000               0.000000000              -0.362375000               0.000000000               0.000000000              -0.385312500               0.000000000               0.000000000              -0.408250000               0.000000000               0.000000000              -0.431187500               0.000000000               0.000000000              -0.454125000               0.000000000               0.000000000              -0.477062500               0.000000000               0.000000000              -0.500000000               0.000000000               0.000000000              -0.132359569              -0.013036280               0.000000000              -0.155337096              -0.016127762               0.000000000              -0.178314623              -0.019219245               0.000000000              -0.201292150              -0.022310727               0.000000000              -0.224269676              -0.025402210               0.000000000              -0.247247203              -0.028493692               0.000000000              -0.270224730              -0.031585175               0.000000000              -0.293202257              -0.034676657               0.000000000              -0.316179784              -0.037768140               0.000000000              -0.339157311              -0.040859622               0.000000000              -0.362134838              -0.043951105               0.000000000              -0.385112365              -0.047042587               0.000000000              -0.408089892              -0.050134070               0.000000000              -0.431067419              -0.053225552               0.000000000              -0.454044946              -0.056317035               0.000000000              -0.477022473              -0.059408517               0.000000000              -0.500000000              -0.062500000               0.000000000              -0.130444442              -0.025947013               0.000000000              -0.153541665              -0.032137825               0.000000000              -0.176638887              -0.038328636               0.000000000              -0.199736109              -0.044519448               0.000000000              -0.222833332              -0.050710260               0.000000000              -0.245930554              -0.056901071               0.000000000              -0.269027776              -0.063091883               0.000000000              -0.292124999              -0.069282695               0.000000000              -0.315222221              -0.075473506               0.000000000              -0.338319444              -0.081664318               0.000000000              -0.361416666              -0.087855130               0.000000000              -0.384513888              -0.094045942               0.000000000              -0.407611111              -0.100236753               0.000000000              -0.430708333              -0.106427565               0.000000000              -0.453805555              -0.112618377               0.000000000              -0.476902778              -0.118809188               0.000000000              -0.500000000              -0.125000000               0.000000000              -0.127273065              -0.038607862               0.000000000              -0.150568498              -0.047913621               0.000000000              -0.173863932              -0.057219379               0.000000000              -0.197159365              -0.066525138               0.000000000              -0.220454798              -0.075830897               0.000000000              -0.243750232              -0.085136655               0.000000000              -0.267045665              -0.094442414               0.000000000              -0.290341099              -0.103748172               0.000000000              -0.313636532              -0.113053931               0.000000000              -0.336931966              -0.122359690               0.000000000              -0.360227399              -0.131665448               0.000000000              -0.383522833              -0.140971207               0.000000000              -0.406818266              -0.150276966               0.000000000              -0.430113700              -0.159582724               0.000000000              -0.453409133              -0.168888483               0.000000000              -0.476704567              -0.178194241               0.000000000              -0.500000000              -0.187500000               0.000000000              -0.122875978              -0.050896897               0.000000000              -0.146446229              -0.063340840               0.000000000              -0.170016481              -0.075784784               0.000000000              -0.193586732              -0.088228728               0.000000000              -0.217156983              -0.100672672               0.000000000              -0.240727235              -0.113116616               0.000000000              -0.264297486              -0.125560560               0.000000000              -0.287867738              -0.138004504               0.000000000              -0.311437989              -0.150448448               0.000000000              -0.335008240              -0.162892392               0.000000000              -0.358578492              -0.175336336               0.000000000              -0.382148743              -0.187780280               0.000000000              -0.405718994              -0.200224224               0.000000000              -0.429289246              -0.212668168               0.000000000              -0.452859497              -0.225112112               0.000000000              -0.476429749              -0.237556056               0.000000000              -0.500000000              -0.250000000               0.000000000              -0.117295528              -0.062695766               0.000000000              -0.141214558              -0.078308531               0.000000000              -0.165133587              -0.093921295               0.000000000              -0.189052617              -0.109534060               0.000000000              -0.212971646              -0.125146824               0.000000000              -0.236890676              -0.140759589               0.000000000              -0.260809705              -0.156372354               0.000000000              -0.284728735              -0.171985118               0.000000000              -0.308647764              -0.187597883               0.000000000              -0.332566794              -0.203210648               0.000000000              -0.356485823              -0.218823412               0.000000000              -0.380404853              -0.234436177               0.000000000              -0.404323882              -0.250048941               0.000000000              -0.428242912              -0.265661706               0.000000000              -0.452161941              -0.281274471               0.000000000              -0.476080971              -0.296887235               0.000000000              -0.500000000              -0.312500000               0.000000000              -0.110585458              -0.073890841               0.000000000              -0.134923867              -0.092710163               0.000000000              -0.159262276              -0.111529486               0.000000000              -0.183600685              -0.130348808               0.000000000              -0.207939094              -0.149168131               0.000000000              -0.232277503              -0.167987453               0.000000000              -0.256615912              -0.186806776               0.000000000              -0.280954320              -0.205626098               0.000000000              -0.305292729              -0.224445420               0.000000000              -0.329631138              -0.243264743               0.000000000              -0.353969547              -0.262084065               0.000000000              -0.378307956              -0.280903388               0.000000000              -0.402646365              -0.299722710               0.000000000              -0.426984773              -0.318542033               0.000000000              -0.451323182              -0.337361355               0.000000000              -0.475661591              -0.356180678               0.000000000              -0.500000000              -0.375000000               0.000000000              -0.102810390              -0.084374307               0.000000000              -0.127634741              -0.106444663               0.000000000              -0.152459092              -0.128515018               0.000000000              -0.177283442              -0.150585374               0.000000000              -0.202107793              -0.172655730               0.000000000              -0.226932143              -0.194726086               0.000000000              -0.251756494              -0.216796442               0.000000000              -0.276580845              -0.238866798               0.000000000              -0.301405195              -0.260937153               0.000000000              -0.326229546              -0.283007509               0.000000000              -0.351053896              -0.305077865               0.000000000              -0.375878247              -0.327148221               0.000000000              -0.400702598              -0.349218577               0.000000000              -0.425526948              -0.371288933               0.000000000              -0.450351299              -0.393359288               0.000000000              -0.475175649              -0.415429644               0.000000000              -0.500000000              -0.437500000               0.000000000              -0.094045202              -0.094045202               0.000000000              -0.119417377              -0.119417377               0.000000000              -0.144789552              -0.144789552               0.000000000              -0.170161727              -0.170161727               0.000000000              -0.195533901              -0.195533901               0.000000000              -0.220906076              -0.220906076               0.000000000              -0.246278251              -0.246278251               0.000000000              -0.271650426              -0.271650426               0.000000000              -0.297022601              -0.297022601               0.000000000              -0.322394776              -0.322394776               0.000000000              -0.347766951              -0.347766951               0.000000000              -0.373139126              -0.373139126               0.000000000              -0.398511300              -0.398511300               0.000000000              -0.423883475              -0.423883475               0.000000000              -0.449255650              -0.449255650               0.000000000              -0.474627825              -0.474627825               0.000000000              -0.500000000              -0.500000000               0.000000000              -0.084374307              -0.102810390               0.000000000              -0.106444663              -0.127634741               0.000000000              -0.128515018              -0.152459092               0.000000000              -0.150585374              -0.177283442               0.000000000              -0.172655730              -0.202107793               0.000000000              -0.194726086              -0.226932143               0.000000000              -0.216796442              -0.251756494               0.000000000              -0.238866798              -0.276580845               0.000000000              -0.260937153              -0.301405195               0.000000000              -0.283007509              -0.326229546               0.000000000              -0.305077865              -0.351053896               0.000000000              -0.327148221              -0.375878247               0.000000000              -0.349218577              -0.400702598               0.000000000              -0.371288933              -0.425526948               0.000000000              -0.393359288              -0.450351299               0.000000000              -0.415429644              -0.475175649               0.000000000              -0.437500000              -0.500000000               0.000000000              -0.073890841              -0.110585458               0.000000000              -0.092710163              -0.134923867               0.000000000              -0.111529486              -0.159262276               0.000000000              -0.130348808              -0.183600685               0.000000000              -0.149168131              -0.207939094               0.000000000              -0.167987453              -0.232277503               0.000000000              -0.186806776              -0.256615912               0.000000000              -0.205626098              -0.280954320               0.000000000              -0.224445420              -0.305292729               0.000000000              -0.243264743              -0.329631138               0.000000000              -0.262084065              -0.353969547               0.000000000              -0.280903388              -0.378307956               0.000000000              -0.299722710              -0.402646365               0.000000000              -0.318542033              -0.426984773               0.000000000              -0.337361355              -0.451323182               0.000000000              -0.356180678              -0.475661591               0.000000000              -0.375000000              -0.500000000               0.000000000              -0.062695766              -0.117295528               0.000000000              -0.078308531              -0.141214558               0.000000000              -0.093921295              -0.165133587               0.000000000              -0.109534060              -0.189052617               0.000000000              -0.125146824              -0.212971646               0.000000000              -0.140759589              -0.236890676               0.000000000              -0.156372354              -0.260809705               0.000000000              -0.171985118              -0.284728735               0.000000000              -0.187597883              -0.308647764               0.000000000              -0.203210648              -0.332566794               0.000000000              -0.218823412              -0.356485823               0.000000000              -0.234436177              -0.380404853               0.000000000              -0.250048941              -0.404323882               0.000000000              -0.265661706              -0.428242912               0.000000000              -0.281274471              -0.452161941               0.000000000              -0.296887235              -0.476080971               0.000000000              -0.312500000              -0.500000000               0.000000000              -0.050896897              -0.122875978               0.000000000              -0.063340840              -0.146446229               0.000000000              -0.075784784              -0.170016481               0.000000000              -0.088228728              -0.193586732               0.000000000              -0.100672672              -0.217156983               0.000000000              -0.113116616              -0.240727235               0.000000000              -0.125560560              -0.264297486               0.000000000              -0.138004504              -0.287867738               0.000000000              -0.150448448              -0.311437989               0.000000000              -0.162892392              -0.335008240               0.000000000              -0.175336336              -0.358578492               0.000000000              -0.187780280              -0.382148743               0.000000000              -0.200224224              -0.405718994               0.000000000              -0.212668168              -0.429289246               0.000000000              -0.225112112              -0.452859497               0.000000000              -0.237556056              -0.476429749               0.000000000              -0.250000000              -0.500000000               0.000000000              -0.038607862              -0.127273065               0.000000000              -0.047913621              -0.150568498               0.000000000              -0.057219379              -0.173863932               0.000000000              -0.066525138              -0.197159365               0.000000000              -0.075830897              -0.220454798               0.000000000              -0.085136655              -0.243750232               0.000000000              -0.094442414              -0.267045665               0.000000000              -0.103748172              -0.290341099               0.000000000              -0.113053931              -0.313636532               0.000000000              -0.122359690              -0.336931966               0.000000000              -0.131665448              -0.360227399               0.000000000              -0.140971207              -0.383522833               0.000000000              -0.150276966              -0.406818266               0.000000000              -0.159582724              -0.430113700               0.000000000              -0.168888483              -0.453409133               0.000000000              -0.178194241              -0.476704567               0.000000000              -0.187500000              -0.500000000               0.000000000              -0.025947013              -0.130444442               0.000000000              -0.032137825              -0.153541665               0.000000000              -0.038328636              -0.176638887               0.000000000              -0.044519448              -0.199736109               0.000000000              -0.050710260              -0.222833332               0.000000000              -0.056901071              -0.245930554               0.000000000              -0.063091883              -0.269027776               0.000000000              -0.069282695              -0.292124999               0.000000000              -0.075473506              -0.315222221               0.000000000              -0.081664318              -0.338319444               0.000000000              -0.087855130              -0.361416666               0.000000000              -0.094045942              -0.384513888               0.000000000              -0.100236753              -0.407611111               0.000000000              -0.106427565              -0.430708333               0.000000000              -0.112618377              -0.453805555               0.000000000              -0.118809188              -0.476902778               0.000000000              -0.125000000              -0.500000000               0.000000000              -0.013036280              -0.132359569               0.000000000              -0.016127762              -0.155337096               0.000000000              -0.019219245              -0.178314623               0.000000000              -0.022310727              -0.201292150               0.000000000              -0.025402210              -0.224269676               0.000000000              -0.028493692              -0.247247203               0.000000000              -0.031585175              -0.270224730               0.000000000              -0.034676657              -0.293202257               0.000000000              -0.037768140              -0.316179784               0.000000000              -0.040859622              -0.339157311               0.000000000              -0.043951105              -0.362134838               0.000000000              -0.047042587              -0.385112365               0.000000000              -0.050134070              -0.408089892               0.000000000              -0.053225552              -0.431067419               0.000000000              -0.056317035              -0.454044946               0.000000000              -0.059408517              -0.477022473               0.000000000              -0.062500000              -0.500000000               0.000000000               0.000000000              -0.133000000               0.000000000               0.000000000              -0.155937500               0.000000000               0.000000000              -0.178875000               0.000000000               0.000000000              -0.201812500               0.000000000               0.000000000              -0.224750000               0.000000000               0.000000000              -0.247687500               0.000000000               0.000000000              -0.270625000               0.000000000               0.000000000              -0.293562500               0.000000000               0.000000000              -0.316500000               0.000000000               0.000000000              -0.339437500               0.000000000               0.000000000              -0.362375000               0.000000000               0.000000000              -0.385312500               0.000000000               0.000000000              -0.408250000               0.000000000               0.000000000              -0.431187500               0.000000000               0.000000000              -0.454125000               0.000000000               0.000000000              -0.477062500               0.000000000               0.000000000              -0.500000000               0.000000000              -0.133000000               0.000000000               0.000000000              -0.155937500               0.000000000               0.000000000              -0.178875000               0.000000000               0.000000000              -0.201812500               0.000000000               0.000000000              -0.224750000               0.000000000               0.000000000              -0.247687500               0.000000000               0.000000000              -0.270625000               0.000000000               0.000000000              -0.293562500               0.000000000               0.000000000              -0.316500000               0.000000000               0.000000000              -0.339437500               0.000000000               0.000000000              -0.362375000               0.000000000               0.000000000              -0.385312500               0.000000000               0.000000000              -0.408250000               0.000000000               0.000000000              -0.431187500               0.000000000               0.000000000              -0.454125000               0.000000000               0.000000000              -0.477062500               0.000000000               0.000000000              -0.500000000               0.000000000               0.000000000              -0.132359569               0.013036280               0.000000000              -0.155337096               0.016127762               0.000000000              -0.178314623               0.019219245               0.000000000              -0.201292150               0.022310727               0.000000000              -0.224269676               0.025402210               0.000000000              -0.247247203               0.028493692               0.000000000              -0.270224730               0.031585175               0.000000000              -0.293202257               0.034676657               0.000000000              -0.316179784               0.037768140               0.000000000              -0.339157311               0.040859622               0.000000000              -0.362134838               0.043951105               0.000000000              -0.385112365               0.047042587               0.000000000              -0.408089892               0.050134070               0.000000000              -0.431067419               0.053225552               0.000000000              -0.454044946               0.056317035               0.000000000              -0.477022473               0.059408517               0.000000000              -0.500000000               0.062500000               0.000000000              -0.130444442               0.025947013               0.000000000              -0.153541665               0.032137825               0.000000000              -0.176638887               0.038328636               0.000000000              -0.199736109               0.044519448               0.000000000              -0.222833332               0.050710260               0.000000000              -0.245930554               0.056901071               0.000000000              -0.269027776               0.063091883               0.000000000              -0.292124999               0.069282695               0.000000000              -0.315222221               0.075473506               0.000000000              -0.338319444               0.081664318               0.000000000              -0.361416666               0.087855130               0.000000000              -0.384513888               0.094045942               0.000000000              -0.407611111               0.100236753               0.000000000              -0.430708333               0.106427565               0.000000000              -0.453805555               0.112618377               0.000000000              -0.476902778               0.118809188               0.000000000              -0.500000000               0.125000000               0.000000000              -0.127273065               0.038607862               0.000000000              -0.150568498               0.047913621               0.000000000              -0.173863932               0.057219379               0.000000000              -0.197159365               0.066525138               0.000000000              -0.220454798               0.075830897               0.000000000              -0.243750232               0.085136655               0.000000000              -0.267045665               0.094442414               0.000000000              -0.290341099               0.103748172               0.000000000              -0.313636532               0.113053931               0.000000000              -0.336931966               0.122359690               0.000000000              -0.360227399               0.131665448               0.000000000              -0.383522833               0.140971207               0.000000000              -0.406818266               0.150276966               0.000000000              -0.430113700               0.159582724               0.000000000              -0.453409133               0.168888483               0.000000000              -0.476704567               0.178194241               0.000000000              -0.500000000               0.187500000               0.000000000              -0.122875978               0.050896897               0.000000000              -0.146446229               0.063340840               0.000000000              -0.170016481               0.075784784               0.000000000              -0.193586732               0.088228728               0.000000000              -0.217156983               0.100672672               0.000000000              -0.240727235               0.113116616               0.000000000              -0.264297486               0.125560560               0.000000000              -0.287867738               0.138004504               0.000000000              -0.311437989               0.150448448               0.000000000              -0.335008240               0.162892392               0.000000000              -0.358578492               0.175336336               0.000000000              -0.382148743               0.187780280               0.000000000              -0.405718994               0.200224224               0.000000000              -0.429289246               0.212668168               0.000000000              -0.452859497               0.225112112               0.000000000              -0.476429749               0.237556056               0.000000000              -0.500000000               0.250000000               0.000000000              -0.117295528               0.062695766               0.000000000              -0.141214558               0.078308531               0.000000000              -0.165133587               0.093921295               0.000000000              -0.189052617               0.109534060               0.000000000              -0.212971646               0.125146824               0.000000000              -0.236890676               0.140759589               0.000000000              -0.260809705               0.156372354               0.000000000              -0.284728735               0.171985118               0.000000000              -0.308647764               0.187597883               0.000000000              -0.332566794               0.203210648               0.000000000              -0.356485823               0.218823412               0.000000000              -0.380404853               0.234436177               0.000000000              -0.404323882               0.250048941               0.000000000              -0.428242912               0.265661706               0.000000000              -0.452161941               0.281274471               0.000000000              -0.476080971               0.296887235               0.000000000              -0.500000000               0.312500000               0.000000000              -0.110585458               0.073890841               0.000000000              -0.134923867               0.092710163               0.000000000              -0.159262276               0.111529486               0.000000000              -0.183600685               0.130348808               0.000000000              -0.207939094               0.149168131               0.000000000              -0.232277503               0.167987453               0.000000000              -0.256615912               0.186806776               0.000000000              -0.280954320               0.205626098               0.000000000              -0.305292729               0.224445420               0.000000000              -0.329631138               0.243264743               0.000000000              -0.353969547               0.262084065               0.000000000              -0.378307956               0.280903388               0.000000000              -0.402646365               0.299722710               0.000000000              -0.426984773               0.318542033               0.000000000              -0.451323182               0.337361355               0.000000000              -0.475661591               0.356180678               0.000000000              -0.500000000               0.375000000               0.000000000              -0.102810390               0.084374307               0.000000000              -0.127634741               0.106444663               0.000000000              -0.152459092               0.128515018               0.000000000              -0.177283442               0.150585374               0.000000000              -0.202107793               0.172655730               0.000000000              -0.226932143               0.194726086               0.000000000              -0.251756494               0.216796442               0.000000000              -0.276580845               0.238866798               0.000000000              -0.301405195               0.260937153               0.000000000              -0.326229546               0.283007509               0.000000000              -0.351053896               0.305077865               0.000000000              -0.375878247               0.327148221               0.000000000              -0.400702598               0.349218577               0.000000000              -0.425526948               0.371288933               0.000000000              -0.450351299               0.393359288               0.000000000              -0.475175649               0.415429644               0.000000000              -0.500000000               0.437500000               0.000000000              -0.094045202               0.094045202               0.000000000              -0.119417377               0.119417377               0.000000000              -0.144789552               0.144789552               0.000000000              -0.170161727               0.170161727               0.000000000              -0.195533901               0.195533901               0.000000000              -0.220906076               0.220906076               0.000000000              -0.246278251               0.246278251               0.000000000              -0.271650426               0.271650426               0.000000000              -0.297022601               0.297022601               0.000000000              -0.322394776               0.322394776               0.000000000              -0.347766951               0.347766951               0.000000000              -0.373139126               0.373139126               0.000000000              -0.398511300               0.398511300               0.000000000              -0.423883475               0.423883475               0.000000000              -0.449255650               0.449255650               0.000000000              -0.474627825               0.474627825               0.000000000              -0.500000000               0.500000000               0.000000000              -0.084374307               0.102810390               0.000000000              -0.106444663               0.127634741               0.000000000              -0.128515018               0.152459092               0.000000000              -0.150585374               0.177283442               0.000000000              -0.172655730               0.202107793               0.000000000              -0.194726086               0.226932143               0.000000000              -0.216796442               0.251756494               0.000000000              -0.238866798               0.276580845               0.000000000              -0.260937153               0.301405195               0.000000000              -0.283007509               0.326229546               0.000000000              -0.305077865               0.351053896               0.000000000              -0.327148221               0.375878247               0.000000000              -0.349218577               0.400702598               0.000000000              -0.371288933               0.425526948               0.000000000              -0.393359288               0.450351299               0.000000000              -0.415429644               0.475175649               0.000000000              -0.437500000               0.500000000               0.000000000              -0.073890841               0.110585458               0.000000000              -0.092710163               0.134923867               0.000000000              -0.111529486               0.159262276               0.000000000              -0.130348808               0.183600685               0.000000000              -0.149168131               0.207939094               0.000000000              -0.167987453               0.232277503               0.000000000              -0.186806776               0.256615912               0.000000000              -0.205626098               0.280954320               0.000000000              -0.224445420               0.305292729               0.000000000              -0.243264743               0.329631138               0.000000000              -0.262084065               0.353969547               0.000000000              -0.280903388               0.378307956               0.000000000              -0.299722710               0.402646365               0.000000000              -0.318542033               0.426984773               0.000000000              -0.337361355               0.451323182               0.000000000              -0.356180678               0.475661591               0.000000000              -0.375000000               0.500000000               0.000000000              -0.062695766               0.117295528               0.000000000              -0.078308531               0.141214558               0.000000000              -0.093921295               0.165133587               0.000000000              -0.109534060               0.189052617               0.000000000              -0.125146824               0.212971646               0.000000000              -0.140759589               0.236890676               0.000000000              -0.156372354               0.260809705               0.000000000              -0.171985118               0.284728735               0.000000000              -0.187597883               0.308647764               0.000000000              -0.203210648               0.332566794               0.000000000              -0.218823412               0.356485823               0.000000000              -0.234436177               0.380404853               0.000000000              -0.250048941               0.404323882               0.000000000              -0.265661706               0.428242912               0.000000000              -0.281274471               0.452161941               0.000000000              -0.296887235               0.476080971               0.000000000              -0.312500000               0.500000000               0.000000000              -0.050896897               0.122875978               0.000000000              -0.063340840               0.146446229               0.000000000              -0.075784784               0.170016481               0.000000000              -0.088228728               0.193586732               0.000000000              -0.100672672               0.217156983               0.000000000              -0.113116616               0.240727235               0.000000000              -0.125560560               0.264297486               0.000000000              -0.138004504               0.287867738               0.000000000              -0.150448448               0.311437989               0.000000000              -0.162892392               0.335008240               0.000000000              -0.175336336               0.358578492               0.000000000              -0.187780280               0.382148743               0.000000000              -0.200224224               0.405718994               0.000000000              -0.212668168               0.429289246               0.000000000              -0.225112112               0.452859497               0.000000000              -0.237556056               0.476429749               0.000000000              -0.250000000               0.500000000               0.000000000              -0.038607862               0.127273065               0.000000000              -0.047913621               0.150568498               0.000000000              -0.057219379               0.173863932               0.000000000              -0.066525138               0.197159365               0.000000000              -0.075830897               0.220454798               0.000000000              -0.085136655               0.243750232               0.000000000              -0.094442414               0.267045665               0.000000000              -0.103748172               0.290341099               0.000000000              -0.113053931               0.313636532               0.000000000              -0.122359690               0.336931966               0.000000000              -0.131665448               0.360227399               0.000000000              -0.140971207               0.383522833               0.000000000              -0.150276966               0.406818266               0.000000000              -0.159582724               0.430113700               0.000000000              -0.168888483               0.453409133               0.000000000              -0.178194241               0.476704567               0.000000000              -0.187500000               0.500000000               0.000000000              -0.025947013               0.130444442               0.000000000              -0.032137825               0.153541665               0.000000000              -0.038328636               0.176638887               0.000000000              -0.044519448               0.199736109               0.000000000              -0.050710260               0.222833332               0.000000000              -0.056901071               0.245930554               0.000000000              -0.063091883               0.269027776               0.000000000              -0.069282695               0.292124999               0.000000000              -0.075473506               0.315222221               0.000000000              -0.081664318               0.338319444               0.000000000              -0.087855130               0.361416666               0.000000000              -0.094045942               0.384513888               0.000000000              -0.100236753               0.407611111               0.000000000              -0.106427565               0.430708333               0.000000000              -0.112618377               0.453805555               0.000000000              -0.118809188               0.476902778               0.000000000              -0.125000000               0.500000000               0.000000000              -0.013036280               0.132359569               0.000000000              -0.016127762               0.155337096               0.000000000              -0.019219245               0.178314623               0.000000000              -0.022310727               0.201292150               0.000000000              -0.025402210               0.224269676               0.000000000              -0.028493692               0.247247203               0.000000000              -0.031585175               0.270224730               0.000000000              -0.034676657               0.293202257               0.000000000              -0.037768140               0.316179784               0.000000000              -0.040859622               0.339157311               0.000000000              -0.043951105               0.362134838               0.000000000              -0.047042587               0.385112365               0.000000000              -0.050134070               0.408089892               0.000000000              -0.053225552               0.431067419               0.000000000              -0.056317035               0.454044946               0.000000000              -0.059408517               0.477022473               0.000000000              -0.062500000               0.500000000               0.000000000               0.000000000               0.133000000               0.000000000               0.000000000               0.155937500               0.000000000               0.000000000               0.178875000               0.000000000               0.000000000               0.201812500               0.000000000               0.000000000               0.224750000               0.000000000               0.000000000               0.247687500               0.000000000               0.000000000               0.270625000               0.000000000               0.000000000               0.293562500               0.000000000               0.000000000               0.316500000               0.000000000               0.000000000               0.339437500               0.000000000               0.000000000               0.362375000               0.000000000               0.000000000               0.385312500               0.000000000               0.000000000               0.408250000               0.000000000               0.000000000               0.431187500               0.000000000               0.000000000               0.454125000               0.000000000               0.000000000               0.477062500               0.000000000               0.000000000               0.500000000               0.000000000 </DataArray>
</Points>
<Cells>
<DataArray type="Int32"                                    Name="connectivity"                                                      NumberOfComponents=" 1" format="ascii">
         0          1         18         17          1          2         19         18          2          3         20         19          3          4         21         20          4          5         22         21          5          6         23         22          6          7         24         23          7          8         25         24          8          9         26         25          9         10         27         26         10         11         28         27         11         12         29         28         12         13         30         29         13         14         31         30         14         15         32         31         15         16         33         32         17         18         35         34         18         19         36         35         19         20         37         36         20         21         38         37         21         22         39         38         22         23         40         39         23         24         41         40         24         25         42         41         25         26         43         42         26         27         44         43         27         28         45         44         28         29         46         45         29         30         47         46         30         31         48         47         31         32         49         48         32         33         50         49         34         35         52         51         35         36         53         52         36         37         54         53         37         38         55         54         38         39         56         55         39         40         57         56         40         41         58         57         41         42         59         58         42         43         60         59         43         44         61         60         44         45         62         61         45         46         63         62         46         47         64         63         47         48         65         64         48         49         66         65         49         50         67         66         51         52         69         68         52         53         70         69         53         54         71         70         54         55         72         71         55         56         73         72         56         57         74         73         57         58         75         74         58         59         76         75         59         60         77         76         60         61         78         77         61         62         79         78         62         63         80         79         63         64         81         80         64         65         82         81         65         66         83         82         66         67         84         83         68         69         86         85         69         70         87         86         70         71         88         87         71         72         89         88         72         73         90         89         73         74         91         90         74         75         92         91         75         76         93         92         76         77         94         93         77         78         95         94         78         79         96         95         79         80         97         96         80         81         98         97         81         82         99         98         82         83        100         99         83         84        101        100         85         86        103        102         86         87        104        103         87         88        105        104         88         89        106        105         89         90        107        106         90         91        108        107         91         92        109        108         92         93        110        109         93         94        111        110         94         95        112        111         95         96        113        112         96         97        114        113         97         98        115        114         98         99        116        115         99        100        117        116        100        101        118        117        102        103        120        119        103        104        121        120        104        105        122        121        105        106        123        122        106        107        124        123        107        108        125        124        108        109        126        125        109        110        127        126        110        111        128        127        111        112        129        128        112        113        130        129        113        114        131        130        114        115        132        131        115        116        133        132        116        117        134        133        117        118        135        134        119        120        137        136        120        121        138        137        121        122        139        138        122        123        140        139        123        124        141        140        124        125        142        141        125        126        143        142        126        127        144        143        127        128        145        144        128        129        146        145        129        130        147        146        130        131        148        147        131        132        149        148        132        133        150        149        133        134        151        150        134        135        152        151        136        137        154        153        137        138        155        154        138        139        156        155        139        140        157        156        140        141        158        157        141        142        159        158        142        143        160        159        143        144        161        160        144        145        162        161        145        146        163        162        146        147        164        163        147        148        165        164        148        149        166        165        149        150        167        166        150        151        168        167        151        152        169        168        153        154        171        170        154        155        172        171        155        156        173        172        156        157        174        173        157        158        175        174        158        159        176        175        159        160        177        176        160        161        178        177        161        162        179        178        162        163        180        179        163        164        181        180        164        165        182        181        165        166        183        182        166        167        184        183        167        168        185        184        168        169        186        185        170        171        188        187        171        172        189        188        172        173        190        189        173        174        191        190        174        175        192        191        175        176        193        192        176        177        194        193        177        178        195        194        178        179        196        195        179        180        197        196        180        181        198        197        181        182        199        198        182        183        200        199        183        184        201        200        184        185        202        201        185        186        203        202        187        188        205        204        188        189        206        205        189        190        207        206        190        191        208        207        191        192        209        208        192        193        210        209        193        194        211        210        194        195        212        211        195        196        213        212        196        197        214        213        197        198        215        214        198        199        216        215        199        200        217        216        200        201        218        217        201        202        219        218        202        203        220        219        204        205        222        221        205        206        223        222        206        207        224        223        207        208        225        224        208        209        226        225        209        210        227        226        210        211        228        227        211        212        229        228        212        213        230        229        213        214        231        230        214        215        232        231        215        216        233        232        216        217        234        233        217        218        235        234        218        219        236        235        219        220        237        236        221        222        239        238        222        223        240        239        223        224        241        240        224        225        242        241        225        226        243        242        226        227        244        243        227        228        245        244        228        229        246        245        229        230        247        246        230        231        248        247        231        232        249        248        232        233        250        249        233        234        251        250        234        235        252        251        235        236        253        252        236        237        254        253        238        239        256        255        239        240        257        256        240        241        258        257        241        242        259        258        242        243        260        259        243        244        261        260        244        245        262        261        245        246        263        262        246        247        264        263        247        248        265        264        248        249        266        265        249        250        267        266        250        251        268        267        251        252        269        268        252        253        270        269        253        254        271        270        255        256        273        272        256        257        274        273        257        258        275        274        258        259        276        275        259        260        277        276        260        261        278        277        261        262        279        278        262        263        280        279        263        264        281        280        264        265        282        281        265        266        283        282        266        267        284        283        267        268        285        284        268        269        286        285        269        270        287        286        270        271        288        287        306        307          1          0        307        308          2          1        308        309          3          2        309        310          4          3        310        311          5          4        311        312          6          5        312        313          7          6        313        314          8          7        314        315          9          8        315        316         10          9        316        317         11         10        317        318         12         11        318        319         13         12        319        320         14         13        320        321         15         14        321        322         16         15        323        324        307        306        324        325        308        307        325        326        309        308        326        327        310        309        327        328        311        310        328        329        312        311        329        330        313        312        330        331        314        313        331        332        315        314        332        333        316        315        333        334        317        316        334        335        318        317        335        336        319        318        336        337        320        319        337        338        321        320        338        339        322        321        340        341        324        323        341        342        325        324        342        343        326        325        343        344        327        326        344        345        328        327        345        346        329        328        346        347        330        329        347        348        331        330        348        349        332        331        349        350        333        332        350        351        334        333        351        352        335        334        352        353        336        335        353        354        337        336        354        355        338        337        355        356        339        338        357        358        341        340        358        359        342        341        359        360        343        342        360        361        344        343        361        362        345        344        362        363        346        345        363        364        347        346        364        365        348        347        365        366        349        348        366        367        350        349        367        368        351        350        368        369        352        351        369        370        353        352        370        371        354        353        371        372        355        354        372        373        356        355        374        375        358        357        375        376        359        358        376        377        360        359        377        378        361        360        378        379        362        361        379        380        363        362        380        381        364        363        381        382        365        364        382        383        366        365        383        384        367        366        384        385        368        367        385        386        369        368        386        387        370        369        387        388        371        370        388        389        372        371        389        390        373        372        391        392        375        374        392        393        376        375        393        394        377        376        394        395        378        377        395        396        379        378        396        397        380        379        397        398        381        380        398        399        382        381        399        400        383        382        400        401        384        383        401        402        385        384        402        403        386        385        403        404        387        386        404        405        388        387        405        406        389        388        406        407        390        389        408        409        392        391        409        410        393        392        410        411        394        393        411        412        395        394        412        413        396        395        413        414        397        396        414        415        398        397        415        416        399        398        416        417        400        399        417        418        401        400        418        419        402        401        419        420        403        402        420        421        404        403        421        422        405        404        422        423        406        405        423        424        407        406        425        426        409        408        426        427        410        409        427        428        411        410        428        429        412        411        429        430        413        412        430        431        414        413        431        432        415        414        432        433        416        415        433        434        417        416        434        435        418        417        435        436        419        418        436        437        420        419        437        438        421        420        438        439        422        421        439        440        423        422        440        441        424        423        442        443        426        425        443        444        427        426        444        445        428        427        445        446        429        428        446        447        430        429        447        448        431        430        448        449        432        431        449        450        433        432        450        451        434        433        451        452        435        434        452        453        436        435        453        454        437        436        454        455        438        437        455        456        439        438        456        457        440        439        457        458        441        440        459        460        443        442        460        461        444        443        461        462        445        444        462        463        446        445        463        464        447        446        464        465        448        447        465        466        449        448        466        467        450        449        467        468        451        450        468        469        452        451        469        470        453        452        470        471        454        453        471        472        455        454        472        473        456        455        473        474        457        456        474        475        458        457        476        477        460        459        477        478        461        460        478        479        462        461        479        480        463        462        480        481        464        463        481        482        465        464        482        483        466        465        483        484        467        466        484        485        468        467        485        486        469        468        486        487        470        469        487        488        471        470        488        489        472        471        489        490        473        472        490        491        474        473        491        492        475        474        493        494        477        476        494        495        478        477        495        496        479        478        496        497        480        479        497        498        481        480        498        499        482        481        499        500        483        482        500        501        484        483        501        502        485        484        502        503        486        485        503        504        487        486        504        505        488        487        505        506        489        488        506        507        490        489        507        508        491        490        508        509        492        491        510        511        494        493        511        512        495        494        512        513        496        495        513        514        497        496        514        515        498        497        515        516        499        498        516        517        500        499        517        518        501        500        518        519        502        501        519        520        503        502        520        521        504        503        521        522        505        504        522        523        506        505        523        524        507        506        524        525        508        507        525        526        509        508        527        528        511        510        528        529        512        511        529        530        513        512        530        531        514        513        531        532        515        514        532        533        516        515        533        534        517        516        534        535        518        517        535        536        519        518        536        537        520        519        537        538        521        520        538        539        522        521        539        540        523        522        540        541        524        523        541        542        525        524        542        543        526        525        544        545        528        527        545        546        529        528        546        547        530        529        547        548        531        530        548        549        532        531        549        550        533        532        550        551        534        533        551        552        535        534        552        553        536        535        553        554        537        536        554        555        538        537        555        556        539        538        556        557        540        539        557        558        541        540        558        559        542        541        559        560        543        542        561        562        545        544        562        563        546        545        563        564        547        546        564        565        548        547        565        566        549        548        566        567        550        549        567        568        551        550        568        569        552        551        569        570        553        552        570        571        554        553        571        572        555        554        572        573        556        555        573        574        557        556        574        575        558        557        575        576        559        558        576        577        560        559        578        579        596        595        579        580        597        596        580        581        598        597        581        582        599        598        582        583        600        599        583        584        601        600        584        585        602        601        585        586        603        602        586        587        604        603        587        588        605        604        588        589        606        605        589        590        607        606        590        591        608        607        591        592        609        608        592        593        610        609        593        594        611        610        595        596        613        612        596        597        614        613        597        598        615        614        598        599        616        615        599        600        617        616        600        601        618        617        601        602        619        618        602        603        620        619        603        604        621        620        604        605        622        621        605        606        623        622        606        607        624        623        607        608        625        624        608        609        626        625        609        610        627        626        610        611        628        627        612        613        630        629        613        614        631        630        614        615        632        631        615        616        633        632        616        617        634        633        617        618        635        634        618        619        636        635        619        620        637        636        620        621        638        637        621        622        639        638        622        623        640        639        623        624        641        640        624        625        642        641        625        626        643        642        626        627        644        643        627        628        645        644        629        630        647        646        630        631        648        647        631        632        649        648        632        633        650        649        633        634        651        650        634        635        652        651        635        636        653        652        636        637        654        653        637        638        655        654        638        639        656        655        639        640        657        656        640        641        658        657        641        642        659        658        642        643        660        659        643        644        661        660        644        645        662        661        646        647        664        663        647        648        665        664        648        649        666        665        649        650        667        666        650        651        668        667        651        652        669        668        652        653        670        669        653        654        671        670        654        655        672        671        655        656        673        672        656        657        674        673        657        658        675        674        658        659        676        675        659        660        677        676        660        661        678        677        661        662        679        678        663        664        681        680        664        665        682        681        665        666        683        682        666        667        684        683        667        668        685        684        668        669        686        685        669        670        687        686        670        671        688        687        671        672        689        688        672        673        690        689        673        674        691        690        674        675        692        691        675        676        693        692        676        677        694        693        677        678        695        694        678        679        696        695        680        681        698        697        681        682        699        698        682        683        700        699        683        684        701        700        684        685        702        701        685        686        703        702        686        687        704        703        687        688        705        704        688        689        706        705        689        690        707        706        690        691        708        707        691        692        709        708        692        693        710        709        693        694        711        710        694        695        712        711        695        696        713        712        697        698        715        714        698        699        716        715        699        700        717        716        700        701        718        717        701        702        719        718        702        703        720        719        703        704        721        720        704        705        722        721        705        706        723        722        706        707        724        723        707        708        725        724        708        709        726        725        709        710        727        726        710        711        728        727        711        712        729        728        712        713        730        729        714        715        732        731        715        716        733        732        716        717        734        733        717        718        735        734        718        719        736        735        719        720        737        736        720        721        738        737        721        722        739        738        722        723        740        739        723        724        741        740        724        725        742        741        725        726        743        742        726        727        744        743        727        728        745        744        728        729        746        745        729        730        747        746        731        732        749        748        732        733        750        749        733        734        751        750        734        735        752        751        735        736        753        752        736        737        754        753        737        738        755        754        738        739        756        755        739        740        757        756        740        741        758        757        741        742        759        758        742        743        760        759        743        744        761        760        744        745        762        761        745        746        763        762        746        747        764        763        748        749        766        765        749        750        767        766        750        751        768        767        751        752        769        768        752        753        770        769        753        754        771        770        754        755        772        771        755        756        773        772        756        757        774        773        757        758        775        774        758        759        776        775        759        760        777        776        760        761        778        777        761        762        779        778        762        763        780        779        763        764        781        780        765        766        783        782        766        767        784        783        767        768        785        784        768        769        786        785        769        770        787        786        770        771        788        787        771        772        789        788        772        773        790        789        773        774        791        790        774        775        792        791        775        776        793        792        776        777        794        793        777        778        795        794        778        779        796        795        779        780        797        796        780        781        798        797        782        783        800        799        783        784        801        800        784        785        802        801        785        786        803        802        786        787        804        803        787        788        805        804        788        789        806        805        789        790        807        806        790        791        808        807        791        792        809        808        792        793        810        809        793        794        811        810        794        795        812        811        795        796        813        812        796        797        814        813        797        798        815        814        799        800        817        816        800        801        818        817        801        802        819        818        802        803        820        819        803        804        821        820        804        805        822        821        805        806        823        822        806        807        824        823        807        808        825        824        808        809        826        825        809        810        827        826        810        811        828        827        811        812        829        828        812        813        830        829        813        814        831        830        814        815        832        831        816        817        834        833        817        818        835        834        818        819        836        835        819        820        837        836        820        821        838        837        821        822        839        838        822        823        840        839        823        824        841        840        824        825        842        841        825        826        843        842        826        827        844        843        827        828        845        844        828        829        846        845        829        830        847        846        830        831        848        847        831        832        849        848        833        834        562        561        834        835        563        562        835        836        564        563        836        837        565        564        837        838        566        565        838        839        567        566        839        840        568        567        840        841        569        568        841        842        570        569        842        843        571        570        843        844        572        571        844        845        573        572        845        846        574        573        846        847        575        574        847        848        576        575        848        849        577        576        884        885        579        578        885        886        580        579        886        887        581        580        887        888        582        581        888        889        583        582        889        890        584        583        890        891        585        584        891        892        586        585        892        893        587        586        893        894        588        587        894        895        589        588        895        896        590        589        896        897        591        590        897        898        592        591        898        899        593        592        899        900        594        593        901        902        885        884        902        903        886        885        903        904        887        886        904        905        888        887        905        906        889        888        906        907        890        889        907        908        891        890        908        909        892        891        909        910        893        892        910        911        894        893        911        912        895        894        912        913        896        895        913        914        897        896        914        915        898        897        915        916        899        898        916        917        900        899        918        919        902        901        919        920        903        902        920        921        904        903        921        922        905        904        922        923        906        905        923        924        907        906        924        925        908        907        925        926        909        908        926        927        910        909        927        928        911        910        928        929        912        911        929        930        913        912        930        931        914        913        931        932        915        914        932        933        916        915        933        934        917        916        935        936        919        918        936        937        920        919        937        938        921        920        938        939        922        921        939        940        923        922        940        941        924        923        941        942        925        924        942        943        926        925        943        944        927        926        944        945        928        927        945        946        929        928        946        947        930        929        947        948        931        930        948        949        932        931        949        950        933        932        950        951        934        933        952        953        936        935        953        954        937        936        954        955        938        937        955        956        939        938        956        957        940        939        957        958        941        940        958        959        942        941        959        960        943        942        960        961        944        943        961        962        945        944        962        963        946        945        963        964        947        946        964        965        948        947        965        966        949        948        966        967        950        949        967        968        951        950        969        970        953        952        970        971        954        953        971        972        955        954        972        973        956        955        973        974        957        956        974        975        958        957        975        976        959        958        976        977        960        959        977        978        961        960        978        979        962        961        979        980        963        962        980        981        964        963        981        982        965        964        982        983        966        965        983        984        967        966        984        985        968        967        986        987        970        969        987        988        971        970        988        989        972        971        989        990        973        972        990        991        974        973        991        992        975        974        992        993        976        975        993        994        977        976        994        995        978        977        995        996        979        978        996        997        980        979        997        998        981        980        998        999        982        981        999       1000        983        982       1000       1001        984        983       1001       1002        985        984       1003       1004        987        986       1004       1005        988        987       1005       1006        989        988       1006       1007        990        989       1007       1008        991        990       1008       1009        992        991       1009       1010        993        992       1010       1011        994        993       1011       1012        995        994       1012       1013        996        995       1013       1014        997        996       1014       1015        998        997       1015       1016        999        998       1016       1017       1000        999       1017       1018       1001       1000       1018       1019       1002       1001       1020       1021       1004       1003       1021       1022       1005       1004       1022       1023       1006       1005       1023       1024       1007       1006       1024       1025       1008       1007       1025       1026       1009       1008       1026       1027       1010       1009       1027       1028       1011       1010       1028       1029       1012       1011       1029       1030       1013       1012       1030       1031       1014       1013       1031       1032       1015       1014       1032       1033       1016       1015       1033       1034       1017       1016       1034       1035       1018       1017       1035       1036       1019       1018       1037       1038       1021       1020       1038       1039       1022       1021       1039       1040       1023       1022       1040       1041       1024       1023       1041       1042       1025       1024       1042       1043       1026       1025       1043       1044       1027       1026       1044       1045       1028       1027       1045       1046       1029       1028       1046       1047       1030       1029       1047       1048       1031       1030       1048       1049       1032       1031       1049       1050       1033       1032       1050       1051       1034       1033       1051       1052       1035       1034       1052       1053       1036       1035       1054       1055       1038       1037       1055       1056       1039       1038       1056       1057       1040       1039       1057       1058       1041       1040       1058       1059       1042       1041       1059       1060       1043       1042       1060       1061       1044       1043       1061       1062       1045       1044       1062       1063       1046       1045       1063       1064       1047       1046       1064       1065       1048       1047       1065       1066       1049       1048       1066       1067       1050       1049       1067       1068       1051       1050       1068       1069       1052       1051       1069       1070       1053       1052       1071       1072       1055       1054       1072       1073       1056       1055       1073       1074       1057       1056       1074       1075       1058       1057       1075       1076       1059       1058       1076       1077       1060       1059       1077       1078       1061       1060       1078       1079       1062       1061       1079       1080       1063       1062       1080       1081       1064       1063       1081       1082       1065       1064       1082       1083       1066       1065       1083       1084       1067       1066       1084       1085       1068       1067       1085       1086       1069       1068       1086       1087       1070       1069       1088       1089       1072       1071       1089       1090       1073       1072       1090       1091       1074       1073       1091       1092       1075       1074       1092       1093       1076       1075       1093       1094       1077       1076       1094       1095       1078       1077       1095       1096       1079       1078       1096       1097       1080       1079       1097       1098       1081       1080       1098       1099       1082       1081       1099       1100       1083       1082       1100       1101       1084       1083       1101       1102       1085       1084       1102       1103       1086       1085       1103       1104       1087       1086       1105       1106       1089       1088       1106       1107       1090       1089       1107       1108       1091       1090       1108       1109       1092       1091       1109       1110       1093       1092       1110       1111       1094       1093       1111       1112       1095       1094       1112       1113       1096       1095       1113       1114       1097       1096       1114       1115       1098       1097       1115       1116       1099       1098       1116       1117       1100       1099       1117       1118       1101       1100       1118       1119       1102       1101       1119       1120       1103       1102       1120       1121       1104       1103       1122       1123       1106       1105       1123       1124       1107       1106       1124       1125       1108       1107       1125       1126       1109       1108       1126       1127       1110       1109       1127       1128       1111       1110       1128       1129       1112       1111       1129       1130       1113       1112       1130       1131       1114       1113       1131       1132       1115       1114       1132       1133       1116       1115       1133       1134       1117       1116       1134       1135       1118       1117       1135       1136       1119       1118       1136       1137       1120       1119       1137       1138       1121       1120        272        273       1123       1122        273        274       1124       1123        274        275       1125       1124        275        276       1126       1125        276        277       1127       1126        277        278       1128       1127        278        279       1129       1128        279        280       1130       1129        280        281       1131       1130        281        282       1132       1131        282        283       1133       1132        283        284       1134       1133        284        285       1135       1134        285        286       1136       1135        286        287       1137       1136        287        288       1138       1137 </DataArray>
<DataArray type="Int32"                                    Name="offsets"                                                      NumberOfComponents=" 1" format="ascii">
         4          8         12         16         20         24         28         32         36         40         44         48         52         56         60         64         68         72         76         80         84         88         92         96        100        104        108        112        116        120        124        128        132        136        140        144        148        152        156        160        164        168        172        176        180        184        188        192        196        200        204        208        212        216        220        224        228        232        236        240        244        248        252        256        260        264        268        272        276        280        284        288        292        296        300        304        308        312        316        320        324        328        332        336        340        344        348        352        356        360        364        368        372        376        380        384        388        392        396        400        404        408        412        416        420        424        428        432        436        440        444        448        452        456        460        464        468        472        476        480        484        488        492        496        500        504        508        512        516        520        524        528        532        536        540        544        548        552        556        560        564        568        572        576        580        584        588        592        596        600        604        608        612        616        620        624        628        632        636        640        644        648        652        656        660        664        668        672        676        680        684        688        692        696        700        704        708        712        716        720        724        728        732        736        740        744        748        752        756        760        764        768        772        776        780        784        788        792        796        800        804        808        812        816        820        824        828        832        836        840        844        848        852        856        860        864        868        872        876        880        884        888        892        896        900        904        908        912        916        920        924        928        932        936        940        944        948        952        956        960        964        968        972        976        980        984        988        992        996       1000       1004       1008       1012       1016       1020       1024       1028       1032       1036       1040       1044       1048       1052       1056       1060       1064       1068       1072       1076       1080       1084       1088       1092       1096       1100       1104       1108       1112       1116       1120       1124       1128       1132       1136       1140       1144       1148       1152       1156       1160       1164       1168       1172       1176       1180       1184       1188       1192       1196       1200       1204       1208       1212       1216       1220       1224       1228       1232       1236       1240       1244       1248       1252       1256       1260       1264       1268       1272       1276       1280       1284       1288       1292       1296       1300       1304       1308       1312       1316       1320       1324       1328       1332       1336       1340       1344       1348       1352       1356       1360       1364       1368       1372       1376       1380       1384       1388       1392       1396       1400       1404       1408       1412       1416       1420       1424       1428       1432       1436       1440       1444       1448       1452       1456       1460       1464       1468       1472       1476       1480       1484       1488       1492       1496       1500       1504       1508       1512       1516       1520       1524       1528       1532       1536       1540       1544       1548       1552       1556       1560       1564       1568       1572       1576       1580       1584       1588       1592       1596       1600       1604       1608       1612       1616       1620       1624       1628       1632       1636       1640       1644       1648       1652       1656       1660       1664       1668       1672       1676       1680       1684       1688       1692       1696       1700       1704       1708       1712       1716       1720       1724       1728       1732       1736       1740       1744       1748       1752       1756       1760       1764       1768       1772       1776       1780       1784       1788       1792       1796       1800       1804       1808       1812       1816       1820       1824       1828       1832       1836       1840       1844       1848       1852       1856       1860       1864       1868       1872       1876       1880       1884       1888       1892       1896       1900       1904       1908       1912       1916       1920       1924       1928       1932       1936       1940       1944       1948       1952       1956       1960       1964       1968       1972       1976       1980       1984       1988       1992       1996       2000       2004       2008       2012       2016       2020       2024       2028       2032       2036       2040       2044       2048       2052       2056       2060       2064       2068       2072       2076       2080       2084       2088       2092       2096       2100       2104       2108       2112       2116       2120       2124       2128       2132       2136       2140       2144       2148       2152       2156       2160       2164       2168       2172       2176       2180       2184       2188       2192       2196       2200       2204       2208       2212       2216       2220       2224       2228       2232       2236       2240       2244       2248       2252       2256       2260       2264       2268       2272       2276       2280       2284       2288       2292       2296       2300       2304       2308       2312       2316       2320       2324       2328       2332       2336       2340       2344       2348       2352       2356       2360       2364       2368       2372       2376       2380       2384       2388       2392       2396       2400       2404       2408       2412       2416       2420       2424       2428       2432       2436       2440       2444       2448       2452       2456       2460       2464       2468       2472       2476       2480       2484       2488       2492       2496       2500       2504       2508       2512       2516       2520       2524       2528       2532       2536       2540       2544       2548       2552       2556       2560       2564       2568       2572       2576       2580       2584       2588       2592       2596       2600       2604       2608       2612       2616       2620       2624       2628       2632       2636       2640       2644       2648       2652       2656       2660       2664       2668       2672       2676       2680       2684       2688       2692       2696       2700       2704       2708       2712       2716       2720       2724       2728       2732       2736       2740       2744       2748       2752       2756       2760       2764       2768       2772       2776       2780       2784       2788       2792       2796       2800       2804       2808       2812       2816       2820       2824       2828       2832       2836       2840       2844       2848       2852       2856       2860       2864       2868       2872       2876       2880       2884       2888       2892       2896       2900       2904       2908       2912       2916       2920       2924       2928       2932       2936       2940       2944       2948       2952       2956       2960       2964       2968       2972       2976       2980       2984       2988       2992       2996       3000       3004       3008       3012       3016       3020       3024       3028       3032       3036       3040       3044       3048       3052       3056       3060       3064       3068       3072       3076       3080       3084       3088       3092       3096       3100       3104       3108       3112       3116       3120       3124       3128       3132       3136       3140       3144       3148       3152       3156       3160       3164       3168       3172       3176       3180       3184       3188       3192       3196       3200       3204       3208       3212       3216       3220       3224       3228       3232       3236       3240       3244       3248       3252       3256       3260       3264       3268       3272       3276       3280       3284       3288       3292       3296       3300       3304       3308       3312       3316       3320       3324       3328       3332       3336       3340       3344       3348       3352       3356       3360       3364       3368       3372       3376       3380       3384       3388       3392       3396       3400       3404       3408       3412       3416       3420       3424       3428       3432       3436       3440       3444       3448       3452       3456       3460       3464       3468       3472       3476       3480       3484       3488       3492       3496       3500       3504       3508       3512       3516       3520       3524       3528       3532       3536       3540       3544       3548       3552       3556       3560       3564       3568       3572       3576       3580       3584       3588       3592       3596       3600       3604       3608       3612       3616       3620       3624       3628       3632       3636       3640       3644       3648       3652       3656       3660       3664       3668       3672       3676       3680       3684       3688       3692       3696       3700       3704       3708       3712       3716       3720       3724       3728       3732       3736       3740       3744       3748       3752       3756       3760       3764       3768       3772       3776       3780       3784       3788       3792       3796       3800       3804       3808       3812       3816       3820       3824       3828       3832       3836       3840       3844       3848       3852       3856       3860       3864       3868       3872       3876       3880       3884       3888       3892       3896       3900       3904       3908       3912       3916       3920       3924       3928       3932       3936       3940       3944       3948       3952       3956       3960       3964       3968       3972       3976       3980       3984       3988       3992       3996       4000       4004       4008       4012       4016       4020       4024       4028       4032       4036       4040       4044       4048       4052       4056       4060       4064       4068       4072       4076       4080       4084       4088       4092       4096 </DataArray>
<DataArray type="UInt8"                                    Name="types"                                                      NumberOfComponents=" 1" format="ascii">
         9          9          9          9          9          9          9          9          9          9          9          9          9          9          9          9          9          9          9          9          9          9          9          9          9          9          9          9          9          9          9          9          9          9          9          9          9          9          9          9          9          9          9          9          9          9          9          9          9          9          9          9          9          9          9          9          9          9          9          9          9          9          9          9          9          9          9          9          9          9          9          9          9          9          9          9          9          9          9          9          9          9          9          9          9          9          9          9          9          9          9          9          9          9          9          9          9          9          9          9          9          9          9          9          9          9          9          9          9          9          9          9          9          9          9          9          9          9          9          9          9          9          9          9          9          9          9          9          9          9          9          9          9          9          9          9          9          9          9          9          9          9          9          9          9          9          9          9          9          9          9          9          9          9          9          9          9          9          9          9          9          9          9          9          9          9          9          9          9          9          9          9          9          9          9          9          9          9          9          9          9          9          9          9          9          9          9          9          9          9          9          9          9          9          9          9          9          9          9          9          9          9          9          9          9          9          9          9          9          9          9          9          9          9          9          9          9          9          9          9          9          9          9          9          9          9          9          9          9          9          9          9          9          9          9          9          9          9          9          9          9          9          9          9          9          9          9          9          9          9          9          9          9          9          9          9          9          9          9          9          9          9          9          9          9          9          9          9          9          9          9          9          9          9          9          9          9          9          9          9          9          9          9          9          9          9          9          9          9          9          9          9          9          9          9          9          9          9          9          9          9          9          9          9          9          9          9          9          9          9          9          9          9          9          9          9          9          9          9          9          9          9          9          9          9          9          9          9          9          9          9          9          9          9          9          9          9          9          9          9          9          9          9          9          9          9          9          9          9          9          9          9          9          9          9          9          9          9          9          9          9          9          9          9          9          9          9          9          9          9          9          9          9          9          9          9          9          9          9          9          9          9          9          9          9          9          9          9          9          9          9          9          9          9          9          9          9          9          9          9          9          9          9          9          9          9          9          9          9          9          9          9          9          9          9          9          9          9          9          9          9          9          9          9          9          9          9          9          9          9          9          9          9          9          9          9          9          9          9          9          9          9          9          9          9          9          9          9          9          9          9          9          9          9          9          9          9          9          9          9          9          9          9          9          9          9          9          9          9          9          9          9          9          9          9          9          9          9          9          9          9          9          9          9          9          9          9          9          9          9          9          9          9          9          9          9          9          9          9          9          9          9          9          9          9          9          9          9          9          9          9          9          9          9          9          9          9          9          9          9          9          9          9          9          9          9          9          9          9          9          9          9          9          9          9          9          9          9          9          9          9          9          9          9          9          9          9          9          9          9          9          9          9          9          9          9          9          9          9          9          9          9          9          9          9          9          9          9          9          9          9          9          9          9          9          9          9          9          9          9          9          9          9          9          9          9          9          9          9          9          9          9          9          9          9          9          9          9          9          9          9          9          9          9          9          9          9          9          9          9          9          9          9          9          9          9          9          9          9          9          9          9          9          9          9          9          9          9          9          9          9          9          9          9          9          9          9          9          9          9          9          9          9          9          9          9          9          9          9          9          9          9          9          9          9          9          9          9          9          9          9          9          9          9          9          9          9          9          9          9          9          9          9          9          9          9          9          9          9          9          9          9          9          9          9          9          9          9          9          9          9          9          9          9          9          9          9          9          9          9          9          9          9          9          9          9          9          9          9          9          9          9          9          9          9          9          9          9          9          9          9          9          9          9          9          9          9          9          9          9          9          9          9          9          9          9          9          9          9          9          9          9          9          9          9          9          9          9          9          9          9          9          9          9          9          9          9          9          9          9          9          9          9          9          9          9          9          9          9          9          9          9          9          9          9          9          9          9          9          9          9          9          9          9          9          9          9          9          9          9          9          9          9          9          9          9          9          9          9          9          9          9          9          9          9          9          9          9          9          9          9          9          9          9          9          9          9          9          9          9          9          9          9          9          9          9          9          9          9          9          9          9          9          9          9          9          9          9          9          9          9          9          9          9          9          9          9          9          9          9          9          9          9          9          9          9          9          9          9          9          9          9          9          9          9          9          9          9          9          9          9          9          9          9          9          9          9          9          9          9          9          9          9          9          9          9          9          9          9          9          9          9          9          9          9          9          9          9          9          9          9          9          9          9          9          9          9          9          9          9          9          9          9          9          9          9          9          9          9          9          9          9          9          9          9          9          9          9          9          9          9          9          9          9          9          9          9          9          9          9          9          9          9          9          9          9          9          9          9          9          9          9          9          9          9          9          9          9          9          9          9          9          9          9          9          9          9          9          9          9          9          9          9          9          9          9          9          9          9          9          9          9          9          9          9          9          9          9          9          9          9          9          9          9          9          9          9          9          9          9          9          9          9          9          9          9          9          9          9          9          9          9          9          9          9          9          9          9          9          9          9          9          9          9 </DataArray>
</Cells>
<CellData>
<DataArray type="Int32"                                    Name="material"                                                      NumberOfComponents=" 1" format="ascii">
         1          1          1          1          1          1          1          1          1          1          1          1          1          1          1          1          1          1          1          1          1          1          1          1          1          1          1          1          1          1          1          1          1          1          1          1          1          1          1          1          1          1          1          1          1          1          1          1          1          1          1          1          1          1          1          1          1          1          1          1          1          1          1          1          1          1          1          1          1          1          1          1          1          1          1          1          1          1          1          1          1          1          1          1          1          1          1          1          1          1          1          1          1          1          1          1          1          1          1          1          1          1          1          1          1          1          1          1          1          1          1          1          1          1          1          1          1          1          1          1          1          1          1          1          1          1          1          1          1          1          1          1          1          1          1          1          1          1          1          1          1          1          1          1          1          1          1          1          1          1          1          1          1          1          1          1          1          1          1          1          1          1          1          1          1          1          1          1          1          1          1          1          1          1          1          1          1          1          1          1          1          1          1          1          1          1          1          1          1          1          1          1          1          1          1          1          1          1          1          1          1          1          1          1          1          1          1          1          1          1          1          1          1          1          1          1          1          1          1          1          1          1          1          1          1          1          1          1          1          1          1          1          1          1          1          1          1          1          1          1          1          1          1          1          1          1          1          1          1          1          1          1          1          1          1          1          1          1          1          1          1          1          1          1          1          1          1          1          1          1          1          1          1          1          1          1          1          1          1          1          1          1          1          1          1          1          1          1          1          1          1          1          1          1          1          1          1          1          1          1          1          1          1          1          1          1          1          1          1          1          1          1          1          1          1          1          1          1          1          1          1          1          1          1          1          1          1          1          1          1          1          1          1          1          1          1          1          1          1          1          1          1          1          1          1          1          1          1          1          1          1          1          1          1          1          1          1          1          1          1          1          1          1          1          1          1          1          1          1          1          1          1          1          1          1          1          1          1          1          1          1          1          1          1          1          1          1          1          1          1          1          1          1          1          1          1          1          1          1          1          1          1          1          1          1          1          1          1          1          1          1          1          1          1          1          1          1          1          1          1          1          1          1          1          1          1          1          1          1          1          1          1          1          1          1          1          1          1          1          1          1          1          1          1          1          1          1          1          1          1          1          1          1          1          1          1          1          1          1          1          1          1          1          1          1          1          1          1          1          1          1          1          1          1          1          1          1          1          1          1          1          1          1          1          1          1          1          1          1          1          1          1          1          1          1          1          1          1          1          1          1          1          1          1          1          1          1          1          1          1          1          1          1          1          1          1          1          1          1          1          1          1          1          1          1          1          1          1          1          1          1          1          1          1          1          1          1          1          1          1          1          1          1          1          1          1          1          1          1          1          1          1          1          1          1          1          1          1          1          1          1          1          1          1          1          1          1          1          1          1          1          1          1          1          1          1          1          1          1          1          1          1          1          1          1          1          1          1          1          1          1          1          1          1          1          1          1          1          1          1          1          1          1          1          1          1          1          1          1          1          1          1          1          1          1          1          1          1          1          1          1          1          1          1          1          1          1          1          1          1          1          1          1          1          1          1          1          1          1          1          1          1          1          1          1          1          1          1          1          1          1          1          1          1          1          1          1          1          1          1          1          1          1          1          1          1          1          1          1          1          1          1          1          1          1          1          1          1          1          1          1          1          1          1          1          1          1          1          1          1          1          1          1          1          1          1          1          1          1          1          1          1          1          1          1          1          1          1          1          1          1          1          1          1          1          1          1          1          1          1          1          1          1          1          1          1          1          1          1          1          1          1          1          1          1          1          1          1          1          1          1          1          1          1          1          1          1          1          1          1          1          1          1          1          1          1          1          1          1          1          1          1          1          1          1          1          1          1          1          1          1          1          1          1          1          1          1          1          1          1          1          1          1          1          1          1          1          1          1          1          1          1          1          1          1          1          1          1          1          1          1          1          1          1          1          1          1          1          1          1          1          1          1          1          1          1          1          1          1          1          1          1          1          1          1          1          1          1          1          1          1          1          1          1          1          1          1          1          1          1          1          1          1          1          1          1          1          1          1          1          1          1          1          1          1          1          1          1          1          1          1          1          1          1          1          1          1          1          1          1          1          1          1          1          1          1          1          1          1          1          1          1          1          1          1          1          1          1          1          1          1          1          1          1          1          1          1          1          1          1          1          1          1          1          1          1          1          1          1          1          1          1          1          1          1          1          1          1          1          1          1          1          1          1          1          1          1          1          1          1          1          1          1          1          1          1          1          1          1          1          1          1          1          1          1          1          1          1          1          1          1          1          1          1          1          1          1          1          1          1          1          1          1          1          1          1          1          1          1          1          1          1          1          1          1          1          1          1          1          1          1          1          1          1          1          1          1          1          1          1          1          1          1          1          1          1          1          1          1          1          1          1          1          1          1          1          1          1          1          1          1          1          1          1          1          1          1          1          1          1          1          1          1          1 </DataArray>
</CellData>
<PointData>
<DataArray type="Float64"                                    Name="u"                                                      NumberOfComponents=" 3" format="ascii">
             -0.000581765               0.000000000               0.999999984              -0.000627897              -0.000000000               0.999999984              -0.000648256              -0.000000000               0.999999984              -0.000659643              -0.000000000               0.999999984              -0.000668529               0.000000000               0.999999984              -0.000677563               0.000000000               0.999999984              -0.000687576              -0.000000000               0.999999984              -0.000698680               0.000000000               0.999999984              -0.000710886              -0.000000000               0.999999984              -0.000724110               0.000000000               0.999999984              -0.000738011               0.000000000               0.999999984              -0.000752485              -0.000000000               0.999999984              -0.000767367               0.000000000               0.999999984              -0.000782279               0.000000000               0.999999984              -0.000796760               0.000000000               0.999999984              -0.000810388              -0.000000000               0.999999984              -0.000822676               0.000000000               0.999999984              -0.000578610               0.000118648               0.999999984              -0.000621467               0.000097754               0.999999984              -0.000639737               0.000089143               0.999999984              -0.000649897               0.000086791               0.999999984              -0.000658062               0.000087832               0.999999984              -0.000666500               0.000090484               0.999999984              -0.000675904               0.000093855               0.999999984              -0.000686509               0.000097567               0.999999984              -0.000698233               0.000101280               0.999999984              -0.000710845               0.000104617               0.999999984              -0.000724124               0.000107288               0.999999984              -0.000737796               0.000109130               0.999999984              -0.000751535               0.000109959               0.999999984              -0.000765110               0.000109273               0.999999984              -0.000778138               0.000106663               0.999999984              -0.000790263               0.000101588               0.999999984              -0.000801117               0.000092932               0.999999984              -0.000569037               0.000236128               0.999999984              -0.000602375               0.000194815               0.999999984              -0.000614920               0.000178573               0.999999984              -0.000621679               0.000174711               0.999999984              -0.000627699               0.000177310               0.999999984              -0.000634671               0.000183056               0.999999984              -0.000643015               0.000190138               0.999999984              -0.000652542               0.000197619               0.999999984              -0.000662820               0.000205008               0.999999984              -0.000673643               0.000211582               0.999999984              -0.000684657               0.000217014               0.999999984              -0.000695582               0.000220886               0.999999984              -0.000706161               0.000222803               0.999999984              -0.000716126               0.000222170               0.999999984              -0.000725310               0.000218434               0.999999984              -0.000733562               0.000210785               0.999999984              -0.000740850               0.000197786               0.999999984              -0.000553213               0.000351254               0.999999984              -0.000571573               0.000290733               0.999999984              -0.000575864               0.000268565               0.999999984              -0.000578052               0.000264619               0.999999984              -0.000581544               0.000269801               0.999999984              -0.000586899               0.000279258               0.999999984              -0.000593763               0.000290397               0.999999984              -0.000601641               0.000301927               0.999999984              -0.000609980               0.000312960               0.999999984              -0.000618345               0.000322947               0.999999984              -0.000626397               0.000331327               0.999999984              -0.000633854               0.000337422               0.999999984              -0.000640526               0.000340814               0.999999984              -0.000646206               0.000341140               0.999999984              -0.000650885               0.000338078               0.999999984              -0.000654624               0.000331010               0.999999984              -0.000657502               0.000318906               0.999999984              -0.000531472               0.000462902               0.999999984              -0.000530579               0.000385241               0.999999984              -0.000525679               0.000359418               0.999999984              -0.000523700               0.000356878               0.999999984              -0.000525109               0.000365464               0.999999984              -0.000529029               0.000379156               0.999999984              -0.000534651               0.000394766               0.999999984              -0.000540969               0.000410484               0.999999984              -0.000547340               0.000425274               0.999999984              -0.000553199               0.000438508               0.999999984              -0.000558109               0.000449513               0.999999984              -0.000561810               0.000457855               0.999999984              -0.000564303               0.000463253               0.999999984              -0.000565615               0.000465379               0.999999984              -0.000565736               0.000464132               0.999999984              -0.000564508               0.000459192               0.999999984              -0.000562027               0.000450263               0.999999984              -0.000504107               0.000570048               0.999999984              -0.000481599               0.000478207               0.999999984              -0.000468409               0.000451018               0.999999984              -0.000463489               0.000451153               0.999999984              -0.000463919               0.000463771               0.999999984              -0.000467498               0.000481922               0.999999984              -0.000472349               0.000502009               0.999999984              -0.000477287               0.000521827               0.999999984              -0.000481564               0.000540082               0.999999984              -0.000484530               0.000556114               0.999999984              -0.000485953               0.000569406               0.999999984              -0.000485654               0.000579814               0.999999984              -0.000483701               0.000587264               0.999999984              -0.000480091               0.000591569               0.999999984              -0.000474715               0.000592566               0.999999984              -0.000467622               0.000590192               0.999999984              -0.000459130               0.000584830               0.999999984              -0.000471758               0.000671585               0.999999984              -0.000427256               0.000569543               0.999999984              -0.000407856               0.000542935               0.999999984              -0.000401979               0.000546530               0.999999984              -0.000402972               0.000563371               0.999999984              -0.000406839               0.000585990               0.999999984              -0.000411314               0.000610114               0.999999984              -0.000415035               0.000633305               0.999999984              -0.000417062               0.000654280               0.999999984              -0.000416972               0.000672515               0.999999984              -0.000414479               0.000687657               0.999999984              -0.000409631               0.000699878               0.999999984              -0.000402390               0.000709203               0.999999984              -0.000392824               0.000715527               0.999999984              -0.000381167               0.000718761               0.999999984              -0.000367747               0.000719199               0.999999984              -0.000352991               0.000717683               0.999999984              -0.000435136               0.000766448               0.999999984              -0.000370201               0.000659050               0.999999984              -0.000347532               0.000634423               0.999999984              -0.000342941               0.000641680               0.999999984              -0.000345522               0.000662613               0.999999984              -0.000350306               0.000689029               0.999999984              -0.000354518               0.000716400               0.999999984              -0.000356601               0.000742301               0.999999984              -0.000355932               0.000765397               0.999999984              -0.000352061               0.000785321               0.999999984              -0.000344868               0.000802002               0.999999984              -0.000334485               0.000815649               0.999999984              -0.000321106               0.000826372               0.999999984              -0.000305031               0.000834366               0.999999984              -0.000286639               0.000839803               0.999999984              -0.000266666               0.000843281               0.999999984              -0.000245662               0.000845438               0.999999984              -0.000395542               0.000852975               0.999999984              -0.000312556               0.000746571               0.999999984              -0.000290728               0.000724271               0.999999984              -0.000288838               0.000734876               0.999999984              -0.000293664               0.000759351               0.999999984              -0.000299324               0.000789061               0.999999984              -0.000302803               0.000819159               0.999999984              -0.000302803               0.000847055               0.999999984              -0.000298622               0.000871753               0.999999984              -0.000290025               0.000892918               0.999999984              -0.000277127               0.000910647               0.999999984              -0.000260378               0.000925275               0.999999984              -0.000240042               0.000937191               0.999999984              -0.000216751               0.000946771               0.999999984              -0.000191569               0.000954590               0.999999984              -0.000165588               0.000961253               0.999999984              -0.000139227               0.000967094               0.999999984              -0.000355003               0.000934340               0.999999984              -0.000264986               0.000842488               0.999999984              -0.000240112               0.000815592               0.999999984              -0.000236979               0.000820257               0.999999984              -0.000241350               0.000839871               0.999999984              -0.000247199               0.000866479               0.999999984              -0.000251575               0.000895239               0.999999984              -0.000252771               0.000923552               0.999999984              -0.000250197               0.000949716               0.999999984              -0.000243384               0.000973193               0.999999984              -0.000232329               0.000993783               0.999999984              -0.000217255               0.001011701               0.999999984              -0.000198406               0.001027120               0.999999984              -0.000175925               0.001040424               0.999999984              -0.000150563               0.001052097               0.999999984              -0.000123976               0.001062654               0.999999984              -0.000097201               0.001072450               0.999999984              -0.000310658               0.001008000               0.999999984              -0.000220315               0.000934740               0.999999984              -0.000192495               0.000908669               0.999999984              -0.000187315               0.000909395               0.999999984              -0.000190453               0.000925113               0.999999984              -0.000195833               0.000948993               0.999999984              -0.000200451               0.000976443               0.999999984              -0.000202506               0.001004898               0.999999984              -0.000201323               0.001032427               0.999999984              -0.000196147               0.001058170               0.999999984              -0.000186922               0.001081670               0.999999984              -0.000173528               0.001102859               0.999999984              -0.000156020               0.001121721               0.999999984              -0.000134465               0.001138502               0.999999984              -0.000109157               0.001153522               0.999999984              -0.000081172               0.001167427               0.999999984              -0.000051974               0.001180722               0.999999984              -0.000263525               0.001072264               0.999999984              -0.000178509               0.001020599               0.999999984              -0.000149237               0.000999287               0.999999984              -0.000141750               0.000999018               0.999999984              -0.000143030               0.001012350               0.999999984              -0.000147393               0.001034040               0.999999984              -0.000151705               0.001060498               0.999999984              -0.000154079               0.001089076               0.999999984              -0.000153751               0.001118058               0.999999984              -0.000150003               0.001146244               0.999999984              -0.000142605               0.001172884               0.999999984              -0.000131139               0.001197602               0.999999984              -0.000115218               0.001220218               0.999999984              -0.000094757               0.001240853               0.999999984              -0.000069765               0.001259672               0.999999984              -0.000040472               0.001277095               0.999999984              -0.000007910               0.001293667               0.999999984              -0.000213975               0.001126226               0.999999984              -0.000139399               0.001096738               0.999999984              -0.000110933               0.001083064               0.999999984              -0.000101903               0.001084377               0.999999984              -0.000101318               0.001097171               0.999999984              -0.000104132               0.001117781               0.999999984              -0.000107665               0.001143602               0.999999984              -0.000109926               0.001172461               0.999999984              -0.000110013               0.001202757               0.999999984              -0.000107419               0.001233355               0.999999984              -0.000101705               0.001263343               0.999999984              -0.000092262               0.001292059               0.999999984              -0.000078481               0.001319095               0.999999984              -0.000059784               0.001344336               0.999999984              -0.000035778               0.001367762               0.999999984              -0.000006366               0.001389518               0.999999984               0.000028657               0.001409998               0.999999984              -0.000162358               0.001169188               0.999999984              -0.000102604               0.001159880               0.999999984              -0.000077678               0.001155097               0.999999984              -0.000068531               0.001159935               0.999999984              -0.000066666               0.001173646               0.999999984              -0.000068015               0.001194381               0.999999984              -0.000070361               0.001220278               0.999999984              -0.000072085               0.001249666               0.999999984              -0.000072291               0.001281297               0.999999984              -0.000070503               0.001314078               0.999999984              -0.000066336               0.001347181               0.999999984              -0.000059098               0.001379846               0.999999984              -0.000047997               0.001411551               0.999999984              -0.000032213               0.001441889               0.999999984              -0.000011164               0.001470605               0.999999984               0.000015798               0.001497525               0.999999984               0.000050053               0.001522724               0.999999984              -0.000109139               0.001200433               0.999999984              -0.000067518               0.001207320               0.999999984              -0.000048927               0.001210798               0.999999984              -0.000041395               0.001219680               0.999999984              -0.000039236               0.001235261               0.999999984              -0.000039567               0.001256803               0.999999984              -0.000040817               0.001283314               0.999999984              -0.000041865               0.001313520               0.999999984              -0.000041951               0.001346426               0.999999984              -0.000040749               0.001381057               0.999999984              -0.000038004               0.001416677               0.999999984              -0.000033101               0.001452646               0.999999984              -0.000025214               0.001488410               0.999999984              -0.000013727               0.001523362               0.999999984               0.000001824               0.001557048               0.999999984               0.000022768               0.001589150               0.999999984               0.000050734               0.001619382               0.999999984              -0.000054841               0.001219387               0.999999984              -0.000033505               0.001236751               0.999999984              -0.000023587               0.001246164               0.999999984              -0.000019264               0.001258119               0.999999984              -0.000017847               0.001275404               0.999999984              -0.000017843               0.001297982               0.999999984              -0.000018355               0.001325171               0.999999984              -0.000018768               0.001356120               0.999999984              -0.000018727               0.001389931               0.999999984              -0.000018177               0.001425771               0.999999984              -0.000016811               0.001463044               0.999999984              -0.000014246               0.001501164               0.999999984              -0.000010138               0.001539591               0.999999984              -0.000004173               0.001577684               0.999999984               0.000004117               0.001615044               0.999999984               0.000015529               0.001651086               0.999999984               0.000031271               0.001685222               0.999999984              -0.000000000               0.001225778               0.999999984               0.000000000               0.001246704               0.999999984               0.000000000               0.001258277               0.999999984              -0.000000000               0.001271491               0.999999984              -0.000000000               0.001289371               0.999999984               0.000000000               0.001312334               0.999999984              -0.000000000               0.001339905               0.999999984              -0.000000000               0.001371145               0.999999984               0.000000000               0.001405274               0.999999984               0.000000000               0.001441582               0.999999984              -0.000000000               0.001479517               0.999999984              -0.000000000               0.001518361               0.999999984               0.000000000               0.001557674               0.999999984               0.000000000               0.001596929               0.999999984               0.000000000               0.001635653               0.999999984               0.000000000               0.001673197               0.999999984               0.000000000               0.001708822               0.999999984              -0.000581765               0.000000000               0.999999984              -0.000627897              -0.000000000               0.999999984              -0.000648256              -0.000000000               0.999999984              -0.000659643              -0.000000000               0.999999984              -0.000668529               0.000000000               0.999999984              -0.000677563               0.000000000               0.999999984              -0.000687576              -0.000000000               0.999999984              -0.000698680               0.000000000               0.999999984              -0.000710886              -0.000000000               0.999999984              -0.000724110               0.000000000               0.999999984              -0.000738011               0.000000000               0.999999984              -0.000752485              -0.000000000               0.999999984              -0.000767367               0.000000000               0.999999984              -0.000782279               0.000000000               0.999999984              -0.000796760               0.000000000               0.999999984              -0.000810388              -0.000000000               0.999999984              -0.000822676               0.000000000               0.999999984              -0.000578610              -0.000118648               0.999999984              -0.000621467              -0.000097754               0.999999984              -0.000639737              -0.000089143               0.999999984              -0.000649897              -0.000086791               0.999999984              -0.000658062              -0.000087832               0.999999984              -0.000666500              -0.000090484               0.999999984              -0.000675904              -0.000093855               0.999999984              -0.000686509              -0.000097567               0.999999984              -0.000698233              -0.000101280               0.999999984              -0.000710845              -0.000104617               0.999999984              -0.000724124              -0.000107288               0.999999984              -0.000737796              -0.000109130               0.999999984              -0.000751535              -0.000109959               0.999999984              -0.000765110              -0.000109273               0.999999984              -0.000778138              -0.000106663               0.999999984              -0.000790263              -0.000101588               0.999999984              -0.000801117              -0.000092932               0.999999984              -0.000569037              -0.000236128               0.999999984              -0.000602375              -0.000194815               0.999999984              -0.000614920              -0.000178573               0.999999984              -0.000621679              -0.000174711               0.999999984              -0.000627699              -0.000177310               0.999999984              -0.000634671              -0.000183056               0.999999984              -0.000643015              -0.000190138               0.999999984              -0.000652542              -0.000197619               0.999999984              -0.000662820              -0.000205008               0.999999984              -0.000673643              -0.000211582               0.999999984              -0.000684657              -0.000217014               0.999999984              -0.000695582              -0.000220886               0.999999984              -0.000706161              -0.000222803               0.999999984              -0.000716126              -0.000222170               0.999999984              -0.000725310              -0.000218434               0.999999984              -0.000733562              -0.000210785               0.999999984              -0.000740850              -0.000197786               0.999999984              -0.000553213              -0.000351254               0.999999984              -0.000571573              -0.000290733               0.999999984              -0.000575864              -0.000268565               0.999999984              -0.000578052              -0.000264619               0.999999984              -0.000581544              -0.000269801               0.999999984              -0.000586899              -0.000279258               0.999999984              -0.000593763              -0.000290397               0.999999984              -0.000601641              -0.000301927               0.999999984              -0.000609980              -0.000312960               0.999999984              -0.000618345              -0.000322947               0.999999984              -0.000626397              -0.000331327               0.999999984              -0.000633854              -0.000337422               0.999999984              -0.000640526              -0.000340814               0.999999984              -0.000646206              -0.000341140               0.999999984              -0.000650885              -0.000338078               0.999999984              -0.000654624              -0.000331010               0.999999984              -0.000657502              -0.000318906               0.999999984              -0.000531472              -0.000462902               0.999999984              -0.000530579              -0.000385241               0.999999984              -0.000525679              -0.000359418               0.999999984              -0.000523700              -0.000356878               0.999999984              -0.000525109              -0.000365464               0.999999984              -0.000529029              -0.000379156               0.999999984              -0.000534651              -0.000394766               0.999999984              -0.000540969              -0.000410484               0.999999984              -0.000547340              -0.000425274               0.999999984              -0.000553199              -0.000438508               0.999999984              -0.000558109              -0.000449513               0.999999984              -0.000561810              -0.000457855               0.999999984              -0.000564303              -0.000463253               0.999999984              -0.000565615              -0.000465379               0.999999984              -0.000565736              -0.000464132               0.999999984              -0.000564508              -0.000459192               0.999999984              -0.000562027              -0.000450263               0.999999984              -0.000504107              -0.000570048               0.999999984              -0.000481599              -0.000478207               0.999999984              -0.000468409              -0.000451018               0.999999984              -0.000463489              -0.000451153               0.999999984              -0.000463919              -0.000463771               0.999999984              -0.000467498              -0.000481922               0.999999984              -0.000472349              -0.000502009               0.999999984              -0.000477287              -0.000521827               0.999999984              -0.000481564              -0.000540082               0.999999984              -0.000484530              -0.000556114               0.999999984              -0.000485953              -0.000569406               0.999999984              -0.000485654              -0.000579814               0.999999984              -0.000483701              -0.000587264               0.999999984              -0.000480091              -0.000591569               0.999999984              -0.000474715              -0.000592566               0.999999984              -0.000467622              -0.000590192               0.999999984              -0.000459130              -0.000584830               0.999999984              -0.000471758              -0.000671585               0.999999984              -0.000427256              -0.000569543               0.999999984              -0.000407856              -0.000542935               0.999999984              -0.000401979              -0.000546530               0.999999984              -0.000402972              -0.000563371               0.999999984              -0.000406839              -0.000585990               0.999999984              -0.000411314              -0.000610114               0.999999984              -0.000415035              -0.000633305               0.999999984              -0.000417062              -0.000654280               0.999999984              -0.000416972              -0.000672515               0.999999984              -0.000414479              -0.000687657               0.999999984              -0.000409631              -0.000699878               0.999999984              -0.000402390              -0.000709203               0.999999984              -0.000392824              -0.000715527               0.999999984              -0.000381167              -0.000718761               0.999999984              -0.000367747              -0.000719199               0.999999984              -0.000352991              -0.000717683               0.999999984              -0.000435136              -0.000766448               0.999999984              -0.000370201              -0.000659050               0.999999984              -0.000347532              -0.000634423               0.999999984              -0.000342941              -0.000641680               0.999999984              -0.000345522              -0.000662613               0.999999984              -0.000350306              -0.000689029               0.999999984              -0.000354518              -0.000716400               0.999999984              -0.000356601              -0.000742301               0.999999984              -0.000355932              -0.000765397               0.999999984              -0.000352061              -0.000785321               0.999999984              -0.000344868              -0.000802002               0.999999984              -0.000334485              -0.000815649               0.999999984              -0.000321106              -0.000826372               0.999999984              -0.000305031              -0.000834366               0.999999984              -0.000286639              -0.000839803               0.999999984              -0.000266666              -0.000843281               0.999999984              -0.000245662              -0.000845438               0.999999984              -0.000395542              -0.000852975               0.999999984              -0.000312556              -0.000746571               0.999999984              -0.000290728              -0.000724271               0.999999984              -0.000288838              -0.000734876               0.999999984              -0.000293664              -0.000759351               0.999999984              -0.000299324              -0.000789061               0.999999984              -0.000302803              -0.000819159               0.999999984              -0.000302803              -0.000847055               0.999999984              -0.000298622              -0.000871753               0.999999984              -0.000290025              -0.000892918               0.999999984              -0.000277127              -0.000910647               0.999999984              -0.000260378              -0.000925275               0.999999984              -0.000240042              -0.000937191               0.999999984              -0.000216751              -0.000946771               0.999999984              -0.000191569              -0.000954590               0.999999984              -0.000165588              -0.000961253               0.999999984              -0.000139227              -0.000967094               0.999999984              -0.000355003              -0.000934340               0.999999984              -0.000264986              -0.000842488               0.999999984              -0.000240112              -0.000815592               0.999999984              -0.000236979              -0.000820257               0.999999984              -0.000241350              -0.000839871               0.999999984              -0.000247199              -0.000866479               0.999999984              -0.000251575              -0.000895239               0.999999984              -0.000252771              -0.000923552               0.999999984              -0.000250197              -0.000949716               0.999999984              -0.000243384              -0.000973193               0.999999984              -0.000232329              -0.000993783               0.999999984              -0.000217255              -0.001011701               0.999999984              -0.000198406              -0.001027120               0.999999984              -0.000175925              -0.001040424               0.999999984              -0.000150563              -0.001052097               0.999999984              -0.000123976              -0.001062654               0.999999984              -0.000097201              -0.001072450               0.999999984              -0.000310658              -0.001008000               0.999999984              -0.000220315              -0.000934740               0.999999984              -0.000192495              -0.000908669               0.999999984              -0.000187315              -0.000909395               0.999999984              -0.000190453              -0.000925113               0.999999984              -0.000195833              -0.000948993               0.999999984              -0.000200451              -0.000976443               0.999999984              -0.000202506              -0.001004898               0.999999984              -0.000201323              -0.001032427               0.999999984              -0.000196147              -0.001058170               0.999999984              -0.000186922              -0.001081670               0.999999984              -0.000173528              -0.001102859               0.999999984              -0.000156020              -0.001121721               0.999999984              -0.000134465              -0.001138502               0.999999984              -0.000109157              -0.001153522               0.999999984              -0.000081172              -0.001167427               0.999999984              -0.000051974              -0.001180722               0.999999984              -0.000263525              -0.001072264               0.999999984              -0.000178509              -0.001020599               0.999999984              -0.000149237              -0.000999287               0.999999984              -0.000141750              -0.000999018               0.999999984              -0.000143030              -0.001012350               0.999999984              -0.000147393              -0.001034040               0.999999984              -0.000151705              -0.001060498               0.999999984              -0.000154079              -0.001089076               0.999999984              -0.000153751              -0.001118058               0.999999984              -0.000150003              -0.001146244               0.999999984              -0.000142605              -0.001172884               0.999999984              -0.000131139              -0.001197602               0.999999984              -0.000115218              -0.001220218               0.999999984              -0.000094757              -0.001240853               0.999999984              -0.000069765              -0.001259672               0.999999984              -0.000040472              -0.001277095               0.999999984              -0.000007910              -0.001293667               0.999999984              -0.000213975              -0.001126226               0.999999984              -0.000139399              -0.001096738               0.999999984              -0.000110933              -0.001083064               0.999999984              -0.000101903              -0.001084377               0.999999984              -0.000101318              -0.001097171               0.999999984              -0.000104132              -0.001117781               0.999999984              -0.000107665              -0.001143602               0.999999984              -0.000109926              -0.001172461               0.999999984              -0.000110013              -0.001202757               0.999999984              -0.000107419              -0.001233355               0.999999984              -0.000101705              -0.001263343               0.999999984              -0.000092262              -0.001292059               0.999999984              -0.000078481              -0.001319095               0.999999984              -0.000059784              -0.001344336               0.999999984              -0.000035778              -0.001367762               0.999999984              -0.000006366              -0.001389518               0.999999984               0.000028657              -0.001409998               0.999999984              -0.000162358              -0.001169188               0.999999984              -0.000102604              -0.001159880               0.999999984              -0.000077678              -0.001155097               0.999999984              -0.000068531              -0.001159935               0.999999984              -0.000066666              -0.001173646               0.999999984              -0.000068015              -0.001194381               0.999999984              -0.000070361              -0.001220278               0.999999984              -0.000072085              -0.001249666               0.999999984              -0.000072291              -0.001281297               0.999999984              -0.000070503              -0.001314078               0.999999984              -0.000066336              -0.001347181               0.999999984              -0.000059098              -0.001379846               0.999999984              -0.000047997              -0.001411551               0.999999984              -0.000032213              -0.001441889               0.999999984              -0.000011164              -0.001470605               0.999999984               0.000015798              -0.001497525               0.999999984               0.000050053              -0.001522724               0.999999984              -0.000109139              -0.001200433               0.999999984              -0.000067518              -0.001207320               0.999999984              -0.000048927              -0.001210798               0.999999984              -0.000041395              -0.001219680               0.999999984              -0.000039236              -0.001235261               0.999999984              -0.000039567              -0.001256803               0.999999984              -0.000040817              -0.001283314               0.999999984              -0.000041865              -0.001313520               0.999999984              -0.000041951              -0.001346426               0.999999984              -0.000040749              -0.001381057               0.999999984              -0.000038004              -0.001416677               0.999999984              -0.000033101              -0.001452646               0.999999984              -0.000025214              -0.001488410               0.999999984              -0.000013727              -0.001523362               0.999999984               0.000001824              -0.001557048               0.999999984               0.000022768              -0.001589150               0.999999984               0.000050734              -0.001619382               0.999999984              -0.000054841              -0.001219387               0.999999984              -0.000033505              -0.001236751               0.999999984              -0.000023587              -0.001246164               0.999999984              -0.000019264              -0.001258119               0.999999984              -0.000017847              -0.001275404               0.999999984              -0.000017843              -0.001297982               0.999999984              -0.000018355              -0.001325171               0.999999984              -0.000018768              -0.001356120               0.999999984              -0.000018727              -0.001389931               0.999999984              -0.000018177              -0.001425771               0.999999984              -0.000016811              -0.001463044               0.999999984              -0.000014246              -0.001501164               0.999999984              -0.000010138              -0.001539591               0.999999984              -0.000004173              -0.001577684               0.999999984               0.000004117              -0.001615044               0.999999984               0.000015529              -0.001651086               0.999999984               0.000031271              -0.001685222               0.999999984               0.000000000              -0.001225778               0.999999984              -0.000000000              -0.001246704               0.999999984               0.000000000              -0.001258277               0.999999984              -0.000000000              -0.001271491               0.999999984              -0.000000000              -0.001289371               0.999999984              -0.000000000              -0.001312334               0.999999984               0.000000000              -0.001339905               0.999999984              -0.000000000              -0.001371145               0.999999984              -0.000000000              -0.001405274               0.999999984              -0.000000000              -0.001441582               0.999999984               0.000000000              -0.001479517               0.999999984               0.000000000              -0.001518361               0.999999984               0.000000000              -0.001557674               0.999999984              -0.000000000              -0.001596929               0.999999984              -0.000000000              -0.001635653               0.999999984              -0.000000000              -0.001673197               0.999999984              -0.000000000              -0.001708822               0.999999984               0.000581765               0.000000000               0.999999984               0.000627897              -0.000000000               0.999999984               0.000648256               0.000000000               0.999999984               0.000659643               0.000000000               0.999999984               0.000668529               0.000000000               0.999999984               0.000677563               0.000000000               0.999999984               0.000687576               0.000000000               0.999999984               0.000698680              -0.000000000               0.999999984               0.000710886               0.000000000               0.999999984               0.000724110               0.000000000               0.999999984               0.000738011               0.000000000               0.999999984               0.000752485               0.000000000               0.999999984               0.000767367               0.000000000               0.999999984               0.000782279               0.000000000               0.999999984               0.000796760               0.000000000               0.999999984               0.000810388               0.000000000               0.999999984               0.000822676               0.000000000               0.999999984               0.000578610              -0.000118648               0.999999984               0.000621467              -0.000097754               0.999999984               0.000639737              -0.000089143               0.999999984               0.000649897              -0.000086791               0.999999984               0.000658062              -0.000087832               0.999999984               0.000666500              -0.000090484               0.999999984               0.000675904              -0.000093855               0.999999984               0.000686509              -0.000097567               0.999999984               0.000698233              -0.000101280               0.999999984               0.000710845              -0.000104617               0.999999984               0.000724124              -0.000107288               0.999999984               0.000737796              -0.000109130               0.999999984               0.000751535              -0.000109959               0.999999984               0.000765110              -0.000109273               0.999999984               0.000778138              -0.000106663               0.999999984               0.000790263              -0.000101588               0.999999984               0.000801117              -0.000092932               0.999999984               0.000569037              -0.000236128               0.999999984               0.000602375              -0.000194815               0.999999984               0.000614920              -0.000178573               0.999999984               0.000621679              -0.000174711               0.999999984               0.000627699              -0.000177310               0.999999984               0.000634671              -0.000183056               0.999999984               0.000643015              -0.000190138               0.999999984               0.000652542              -0.000197619               0.999999984               0.000662820              -0.000205008               0.999999984               0.000673643              -0.000211582               0.999999984               0.000684657              -0.000217014               0.999999984               0.000695582              -0.000220886               0.999999984               0.000706161              -0.000222803               0.999999984               0.000716126              -0.000222170               0.999999984               0.000725310              -0.000218434               0.999999984               0.000733562              -0.000210785               0.999999984               0.000740850              -0.000197786               0.999999984               0.000553213              -0.000351254               0.999999984               0.000571573              -0.000290733               0.999999984               0.000575864              -0.000268565               0.999999984               0.000578052              -0.000264619               0.999999984               0.000581544              -0.000269801               0.999999984               0.000586899              -0.000279258               0.999999984               0.000593763              -0.000290397               0.999999984               0.000601641              -0.000301927               0.999999984               0.000609980              -0.000312960               0.999999984               0.000618345              -0.000322947               0.999999984               0.000626397              -0.000331327               0.999999984               0.000633854              -0.000337422               0.999999984               0.000640526              -0.000340814               0.999999984               0.000646206              -0.000341140               0.999999984               0.000650885              -0.000338078               0.999999984               0.000654624              -0.000331010               0.999999984               0.000657502              -0.000318906               0.999999984               0.000531472              -0.000462902               0.999999984               0.000530579              -0.000385241               0.999999984               0.000525679              -0.000359418               0.999999984               0.000523700              -0.000356878               0.999999984               0.000525109              -0.000365464               0.999999984               0.000529029              -0.000379156               0.999999984               0.000534651              -0.000394766               0.999999984               0.000540969              -0.000410484               0.999999984               0.000547340              -0.000425274               0.999999984               0.000553199              -0.000438508               0.999999984               0.000558109              -0.000449513               0.999999984               0.000561810              -0.000457855               0.999999984               0.000564303              -0.000463253               0.999999984               0.000565615              -0.000465379               0.999999984               0.000565736              -0.000464132               0.999999984               0.000564508              -0.000459192               0.999999984               0.000562027              -0.000450263               0.999999984               0.000504107              -0.000570048               0.999999984               0.000481599              -0.000478207               0.999999984               0.000468409              -0.000451018               0.999999984               0.000463489              -0.000451153               0.999999984               0.000463919              -0.000463771               0.999999984               0.000467498              -0.000481922               0.999999984               0.000472349              -0.000502009               0.999999984               0.000477287              -0.000521827               0.999999984               0.000481564              -0.000540082               0.999999984               0.000484530              -0.000556114               0.999999984               0.000485953              -0.000569406               0.999999984               0.000485654              -0.000579814               0.999999984               0.000483701              -0.000587264               0.999999984               0.000480091              -0.000591569               0.999999984               0.000474715              -0.000592566               0.999999984               0.000467622              -0.000590192               0.999999984               0.000459130              -0.000584830               0.999999984               0.000471758              -0.000671585               0.999999984               0.000427256              -0.000569543               0.999999984               0.000407856              -0.000542935               0.999999984               0.000401979              -0.000546530               0.999999984               0.000402972              -0.000563371               0.999999984               0.000406839              -0.000585990               0.999999984               0.000411314              -0.000610114               0.999999984               0.000415035              -0.000633305               0.999999984               0.000417062              -0.000654280               0.999999984               0.000416972              -0.000672515               0.999999984               0.000414479              -0.000687657               0.999999984               0.000409631              -0.000699878               0.999999984               0.000402390              -0.000709203               0.999999984               0.000392824              -0.000715527               0.999999984               0.000381167              -0.000718761               0.999999984               0.000367747              -0.000719199               0.999999984               0.000352991              -0.000717683               0.999999984               0.000435136              -0.000766448               0.999999984               0.000370201              -0.000659050               0.999999984               0.000347532              -0.000634423               0.999999984               0.000342941              -0.000641680               0.999999984               0.000345522              -0.000662613               0.999999984               0.000350306              -0.000689029               0.999999984               0.000354518              -0.000716400               0.999999984               0.000356601              -0.000742301               0.999999984               0.000355932              -0.000765397               0.999999984               0.000352061              -0.000785321               0.999999984               0.000344868              -0.000802002               0.999999984               0.000334485              -0.000815649               0.999999984               0.000321106              -0.000826372               0.999999984               0.000305031              -0.000834366               0.999999984               0.000286639              -0.000839803               0.999999984               0.000266666              -0.000843281               0.999999984               0.000245662              -0.000845438               0.999999984               0.000395542              -0.000852975               0.999999984               0.000312556              -0.000746571               0.999999984               0.000290728              -0.000724271               0.999999984               0.000288838              -0.000734876               0.999999984               0.000293664              -0.000759351               0.999999984               0.000299324              -0.000789061               0.999999984               0.000302803              -0.000819159               0.999999984               0.000302803              -0.000847055               0.999999984               0.000298622              -0.000871753               0.999999984               0.000290025              -0.000892918               0.999999984               0.000277127              -0.000910647               0.999999984               0.000260378              -0.000925275               0.999999984               0.000240042              -0.000937191               0.999999984               0.000216751              -0.000946771               0.999999984               0.000191569              -0.000954590               0.999999984               0.000165588              -0.000961253               0.999999984               0.000139227              -0.000967094               0.999999984               0.000355003              -0.000934340               0.999999984               0.000264986              -0.000842488               0.999999984               0.000240112              -0.000815592               0.999999984               0.000236979              -0.000820257               0.999999984               0.000241350              -0.000839871               0.999999984               0.000247199              -0.000866479               0.999999984               0.000251575              -0.000895239               0.999999984               0.000252771              -0.000923552               0.999999984               0.000250197              -0.000949716               0.999999984               0.000243384              -0.000973193               0.999999984               0.000232329              -0.000993783               0.999999984               0.000217255              -0.001011701               0.999999984               0.000198406              -0.001027120               0.999999984               0.000175925              -0.001040424               0.999999984               0.000150563              -0.001052097               0.999999984               0.000123976              -0.001062654               0.999999984               0.000097201              -0.001072450               0.999999984               0.000310658              -0.001008000               0.999999984               0.000220315              -0.000934740               0.999999984               0.000192495              -0.000908669               0.999999984               0.000187315              -0.000909395               0.999999984               0.000190453              -0.000925113               0.999999984               0.000195833              -0.000948993               0.999999984               0.000200451              -0.000976443               0.999999984               0.000202506              -0.001004898               0.999999984               0.000201323              -0.001032427               0.999999984               0.000196147              -0.001058170               0.999999984               0.000186922              -0.001081670               0.999999984               0.000173528              -0.001102859               0.999999984               0.000156020              -0.001121721               0.999999984               0.000134465              -0.001138502               0.999999984               0.000109157              -0.001153522               0.999999984               0.000081172              -0.001167427               0.999999984               0.000051974              -0.001180722               0.999999984               0.000263525              -0.001072264               0.999999984               0.000178509              -0.001020599               0.999999984               0.000149237              -0.000999287               0.999999984               0.000141750              -0.000999018               0.999999984               0.000143030              -0.001012350               0.999999984               0.000147393              -0.001034040               0.999999984               0.000151705              -0.001060498               0.999999984               0.000154079              -0.001089076               0.999999984               0.000153751              -0.001118058               0.999999984               0.000150003              -0.001146244               0.999999984               0.000142605              -0.001172884               0.999999984               0.000131139              -0.001197602               0.999999984               0.000115218              -0.001220218               0.999999984               0.000094757              -0.001240853               0.999999984               0.000069765              -0.001259672               0.999999984               0.000040472              -0.001277095               0.999999984               0.000007910              -0.001293667               0.999999984               0.000213975              -0.001126226               0.999999984               0.000139399              -0.001096738               0.999999984               0.000110933              -0.001083064               0.999999984               0.000101903              -0.001084377               0.999999984               0.000101318              -0.001097171               0.999999984               0.000104132              -0.001117781               0.999999984               0.000107665              -0.001143602               0.999999984               0.000109926              -0.001172461               0.999999984               0.000110013              -0.001202757               0.999999984               0.000107419              -0.001233355               0.999999984               0.000101705              -0.001263343               0.999999984               0.000092262              -0.001292059               0.999999984               0.000078481              -0.001319095               0.999999984               0.000059784              -0.001344336               0.999999984               0.000035778              -0.001367762               0.999999984               0.000006366              -0.001389518               0.999999984              -0.000028657              -0.001409998               0.999999984               0.000162358              -0.001169188               0.999999984               0.000102604              -0.001159880               0.999999984               0.000077678              -0.001155097               0.999999984               0.000068531              -0.001159935               0.999999984               0.000066666              -0.001173646               0.999999984               0.000068015              -0.001194381               0.999999984               0.000070361              -0.001220278               0.999999984               0.000072085              -0.001249666               0.999999984               0.000072291              -0.001281297               0.999999984               0.000070503              -0.001314078               0.999999984               0.000066336              -0.001347181               0.999999984               0.000059098              -0.001379846               0.999999984               0.000047997              -0.001411551               0.999999984               0.000032213              -0.001441889               0.999999984               0.000011164              -0.001470605               0.999999984              -0.000015798              -0.001497525               0.999999984              -0.000050053              -0.001522724               0.999999984               0.000109139              -0.001200433               0.999999984               0.000067518              -0.001207320               0.999999984               0.000048927              -0.001210798               0.999999984               0.000041395              -0.001219680               0.999999984               0.000039236              -0.001235261               0.999999984               0.000039567              -0.001256803               0.999999984               0.000040817              -0.001283314               0.999999984               0.000041865              -0.001313520               0.999999984               0.000041951              -0.001346426               0.999999984               0.000040749              -0.001381057               0.999999984               0.000038004              -0.001416677               0.999999984               0.000033101              -0.001452646               0.999999984               0.000025214              -0.001488410               0.999999984               0.000013727              -0.001523362               0.999999984              -0.000001824              -0.001557048               0.999999984              -0.000022768              -0.001589150               0.999999984              -0.000050734              -0.001619382               0.999999984               0.000054841              -0.001219387               0.999999984               0.000033505              -0.001236751               0.999999984               0.000023587              -0.001246164               0.999999984               0.000019264              -0.001258119               0.999999984               0.000017847              -0.001275404               0.999999984               0.000017843              -0.001297982               0.999999984               0.000018355              -0.001325171               0.999999984               0.000018768              -0.001356120               0.999999984               0.000018727              -0.001389931               0.999999984               0.000018177              -0.001425771               0.999999984               0.000016811              -0.001463044               0.999999984               0.000014246              -0.001501164               0.999999984               0.000010138              -0.001539591               0.999999984               0.000004173              -0.001577684               0.999999984              -0.000004117              -0.001615044               0.999999984              -0.000015529              -0.001651086               0.999999984              -0.000031271              -0.001685222               0.999999984               0.000000000              -0.001225778               0.999999984              -0.000000000              -0.001246704               0.999999984               0.000000000              -0.001258277               0.999999984              -0.000000000              -0.001271491               0.999999984              -0.000000000              -0.001289371               0.999999984              -0.000000000              -0.001312334               0.999999984               0.000000000              -0.001339905               0.999999984              -0.000000000              -0.001371145               0.999999984              -0.000000000              -0.001405274               0.999999984              -0.000000000              -0.001441582               0.999999984               0.000000000              -0.001479517               0.999999984               0.000000000              -0.001518361               0.999999984               0.000000000              -0.001557674               0.999999984              -0.000000000              -0.001596929               0.999999984              -0.000000000              -0.001635653               0.999999984              -0.000000000              -0.001673197               0.999999984              -0.000000000              -0.001708822               0.999999984               0.000581765               0.000000000               0.999999984               0.000627897              -0.000000000               0.999999984               0.000648256               0.000000000               0.999999984               0.000659643               0.000000000               0.999999984               0.000668529               0.000000000               0.999999984               0.000677563               0.000000000               0.999999984               0.000687576               0.000000000               0.999999984               0.000698680              -0.000000000               0.999999984               0.000710886               0.000000000               0.999999984               0.000724110               0.000000000               0.999999984               0.000738011               0.000000000               0.999999984               0.000752485               0.000000000               0.999999984               0.000767367               0.000000000               0.999999984               0.000782279               0.000000000               0.999999984               0.000796760               0.000000000               0.999999984               0.000810388               0.000000000               0.999999984               0.000822676               0.000000000               0.999999984               0.000578610               0.000118648               0.999999984               0.000621467               0.000097754               0.999999984               0.000639737               0.000089143               0.999999984               0.000649897               0.000086791               0.999999984               0.000658062               0.000087832               0.999999984               0.000666500               0.000090484               0.999999984               0.000675904               0.000093855               0.999999984               0.000686509               0.000097567               0.999999984               0.000698233               0.000101280               0.999999984               0.000710845               0.000104617               0.999999984               0.000724124               0.000107288               0.999999984               0.000737796               0.000109130               0.999999984               0.000751535               0.000109959               0.999999984               0.000765110               0.000109273               0.999999984               0.000778138               0.000106663               0.999999984               0.000790263               0.000101588               0.999999984               0.000801117               0.000092932               0.999999984               0.000569037               0.000236128               0.999999984               0.000602375               0.000194815               0.999999984               0.000614920               0.000178573               0.999999984               0.000621679               0.000174711               0.999999984               0.000627699               0.000177310               0.999999984               0.000634671               0.000183056               0.999999984               0.000643015               0.000190138               0.999999984               0.000652542               0.000197619               0.999999984               0.000662820               0.000205008               0.999999984               0.000673643               0.000211582               0.999999984               0.000684657               0.000217014               0.999999984               0.000695582               0.000220886               0.999999984               0.000706161               0.000222803               0.999999984               0.000716126               0.000222170               0.999999984               0.000725310               0.000218434               0.999999984               0.000733562               0.000210785               0.999999984               0.000740850               0.000197786               0.999999984               0.000553213               0.000351254               0.999999984               0.000571573               0.000290733               0.999999984               0.000575864               0.000268565               0.999999984               0.000578052               0.000264619               0.999999984               0.000581544               0.000269801               0.999999984               0.000586899               0.000279258               0.999999984               0.000593763               0.000290397               0.999999984               0.000601641               0.000301927               0.999999984               0.000609980               0.000312960               0.999999984               0.000618345               0.000322947               0.999999984               0.000626397               0.000331327               0.999999984               0.000633854               0.000337422               0.999999984               0.000640526               0.000340814               0.999999984               0.000646206               0.000341140               0.999999984               0.000650885               0.000338078               0.999999984               0.000654624               0.000331010               0.999999984               0.000657502               0.000318906               0.999999984               0.000531472               0.000462902               0.999999984               0.000530579               0.000385241               0.999999984               0.000525679               0.000359418               0.999999984               0.000523700               0.000356878               0.999999984               0.000525109               0.000365464               0.999999984               0.000529029               0.000379156               0.999999984               0.000534651               0.000394766               0.999999984               0.000540969               0.000410484               0.999999984               0.000547340               0.000425274               0.999999984               0.000553199               0.000438508               0.999999984               0.000558109               0.000449513               0.999999984               0.000561810               0.000457855               0.999999984               0.000564303               0.000463253               0.999999984               0.000565615               0.000465379               0.999999984               0.000565736               0.000464132               0.999999984               0.000564508               0.000459192               0.999999984               0.000562027               0.000450263               0.999999984               0.000504107               0.000570048               0.999999984               0.000481599               0.000478207               0.999999984               0.000468409               0.000451018               0.999999984               0.000463489               0.000451153               0.999999984               0.000463919               0.000463771               0.999999984               0.000467498               0.000481922               0.999999984               0.000472349               0.000502009               0.999999984               0.000477287               0.000521827               0.999999984               0.000481564               0.000540082               0.999999984               0.000484530               0.000556114               0.999999984               0.000485953               0.000569406               0.999999984               0.000485654               0.000579814               0.999999984               0.000483701               0.000587264               0.999999984               0.000480091               0.000591569               0.999999984               0.000474715               0.000592566               0.999999984               0.000467622               0.000590192               0.999999984               0.000459130               0.000584830               0.999999984               0.000471758               0.000671585               0.999999984               0.000427256               0.000569543               0.999999984               0.000407856               0.000542935               0.999999984               0.000401979               0.000546530               0.999999984               0.000402972               0.000563371               0.999999984               0.000406839               0.000585990               0.999999984               0.000411314               0.000610114               0.999999984               0.000415035               0.000633305               0.999999984               0.000417062               0.000654280               0.999999984               0.000416972               0.000672515               0.999999984               0.000414479               0.000687657               0.999999984               0.000409631               0.000699878               0.999999984               0.000402390               0.000709203               0.999999984               0.000392824               0.000715527               0.999999984               0.000381167               0.000718761               0.999999984               0.000367747               0.000719199               0.999999984               0.000352991               0.000717683               0.999999984               0.000435136               0.000766448               0.999999984               0.000370201               0.000659050               0.999999984               0.000347532               0.000634423               0.999999984               0.000342941               0.000641680               0.999999984               0.000345522               0.000662613               0.999999984               0.000350306               0.000689029               0.999999984               0.000354518               0.000716400               0.999999984               0.000356601               0.000742301               0.999999984               0.000355932               0.000765397               0.999999984               0.000352061               0.000785321               0.999999984               0.000344868               0.000802002               0.999999984               0.000334485               0.000815649               0.999999984               0.000321106               0.000826372               0.999999984               0.000305031               0.000834366               0.999999984               0.000286639               0.000839803               0.999999984               0.000266666               0.000843281               0.999999984               0.000245662               0.000845438               0.999999984               0.000395542               0.000852975               0.999999984               0.000312556               0.000746571               0.999999984               0.000290728               0.000724271               0.999999984               0.000288838               0.000734876               0.999999984               0.000293664               0.000759351               0.999999984               0.000299324               0.000789061               0.999999984               0.000302803               0.000819159               0.999999984               0.000302803               0.000847055               0.999999984               0.000298622               0.000871753               0.999999984               0.000290025               0.000892918               0.999999984               0.000277127               0.000910647               0.999999984               0.000260378               0.000925275               0.999999984               0.000240042               0.000937191               0.999999984               0.000216751               0.000946771               0.999999984               0.000191569               0.000954590               0.999999984               0.000165588               0.000961253               0.999999984               0.000139227               0.000967094               0.999999984               0.000355003               0.000934340               0.999999984               0.000264986               0.000842488               0.999999984               0.000240112               0.000815592               0.999999984               0.000236979               0.000820257               0.999999984               0.000241350               0.000839871               0.999999984               0.000247199               0.000866479               0.999999984               0.000251575               0.000895239               0.999999984               0.000252771               0.000923552               0.999999984               0.000250197               0.000949716               0.999999984               0.000243384               0.000973193               0.999999984               0.000232329               0.000993783               0.999999984               0.000217255               0.001011701               0.999999984               0.000198406               0.001027120               0.999999984               0.000175925               0.001040424               0.999999984               0.000150563               0.001052097               0.999999984               0.000123976               0.001062654               0.999999984               0.000097201               0.001072450               0.999999984               0.000310658               0.001008000               0.999999984               0.000220315               0.000934740               0.999999984               0.000192495               0.000908669               0.999999984               0.000187315               0.000909395               0.999999984               0.000190453               0.000925113               0.999999984               0.000195833               0.000948993               0.999999984               0.000200451               0.000976443               0.999999984               0.000202506               0.001004898               0.999999984               0.000201323               0.001032427               0.999999984               0.000196147               0.001058170               0.999999984               0.000186922               0.001081670               0.999999984               0.000173528               0.001102859               0.999999984               0.000156020               0.001121721               0.999999984               0.000134465               0.001138502               0.999999984               0.000109157               0.001153522               0.999999984               0.000081172               0.001167427               0.999999984               0.000051974               0.001180722               0.999999984               0.000263525               0.001072264               0.999999984               0.000178509               0.001020599               0.999999984               0.000149237               0.000999287               0.999999984               0.000141750               0.000999018               0.999999984               0.000143030               0.001012350               0.999999984               0.000147393               0.001034040               0.999999984               0.000151705               0.001060498               0.999999984               0.000154079               0.001089076               0.999999984               0.000153751               0.001118058               0.999999984               0.000150003               0.001146244               0.999999984               0.000142605               0.001172884               0.999999984               0.000131139               0.001197602               0.999999984               0.000115218               0.001220218               0.999999984               0.000094757               0.001240853               0.999999984               0.000069765               0.001259672               0.999999984               0.000040472               0.001277095               0.999999984               0.000007910               0.001293667               0.999999984               0.000213975               0.001126226               0.999999984               0.000139399               0.001096738               0.999999984               0.000110933               0.001083064               0.999999984               0.000101903               0.001084377               0.999999984               0.000101318               0.001097171               0.999999984               0.000104132               0.001117781               0.999999984               0.000107665               0.001143602               0.999999984               0.000109926               0.001172461               0.999999984               0.000110013               0.001202757               0.999999984               0.000107419               0.001233355               0.999999984               0.000101705               0.001263343               0.999999984               0.000092262               0.001292059               0.999999984               0.000078481               0.001319095               0.999999984               0.000059784               0.001344336               0.999999984               0.000035778               0.001367762               0.999999984               0.000006366               0.001389518               0.999999984              -0.000028657               0.001409998               0.999999984               0.000162358               0.001169188               0.999999984               0.000102604               0.001159880               0.999999984               0.000077678               0.001155097               0.999999984               0.000068531               0.001159935               0.999999984               0.000066666               0.001173646               0.999999984               0.000068015               0.001194381               0.999999984               0.000070361               0.001220278               0.999999984               0.000072085               0.001249666               0.999999984               0.000072291               0.001281297               0.999999984               0.000070503               0.001314078               0.999999984               0.000066336               0.001347181               0.999999984               0.000059098               0.001379846               0.999999984               0.000047997               0.001411551               0.999999984               0.000032213               0.001441889               0.999999984               0.000011164               0.001470605               0.999999984              -0.000015798               0.001497525               0.999999984              -0.000050053               0.001522724               0.999999984               0.000109139               0.001200433               0.999999984               0.000067518               0.001207320               0.999999984               0.000048927               0.001210798               0.999999984               0.000041395               0.001219680               0.999999984               0.000039236               0.001235261               0.999999984               0.000039567               0.001256803               0.999999984               0.000040817               0.001283314               0.999999984               0.000041865               0.001313520               0.999999984               0.000041951               0.001346426               0.999999984               0.000040749               0.001381057               0.999999984               0.000038004               0.001416677               0.999999984               0.000033101               0.001452646               0.999999984               0.000025214               0.001488410               0.999999984               0.000013727               0.001523362               0.999999984              -0.000001824               0.001557048               0.999999984              -0.000022768               0.001589150               0.999999984              -0.000050734               0.001619382               0.999999984               0.000054841               0.001219387               0.999999984               0.000033505               0.001236751               0.999999984               0.000023587               0.001246164               0.999999984               0.000019264               0.001258119               0.999999984               0.000017847               0.001275404               0.999999984               0.000017843               0.001297982               0.999999984               0.000018355               0.001325171               0.999999984               0.000018768               0.001356120               0.999999984               0.000018727               0.001389931               0.999999984               0.000018177               0.001425771               0.999999984               0.000016811               0.001463044               0.999999984               0.000014246               0.001501164               0.999999984               0.000010138               0.001539591               0.999999984               0.000004173               0.001577684               0.999999984              -0.000004117               0.001615044               0.999999984              -0.000015529               0.001651086               0.999999984              -0.000031271               0.001685222               0.999999984              -0.000000000               0.001225778               0.999999984               0.000000000               0.001246704               0.999999984               0.000000000               0.001258277               0.999999984              -0.000000000               0.001271491               0.999999984              -0.000000000               0.001289371               0.999999984               0.000000000               0.001312334               0.999999984              -0.000000000               0.001339905               0.999999984              -0.000000000               0.001371145               0.999999984               0.000000000               0.001405274               0.999999984               0.000000000               0.001441582               0.999999984              -0.000000000               0.001479517               0.999999984              -0.000000000               0.001518361               0.999999984               0.000000000               0.001557674               0.999999984               0.000000000               0.001596929               0.999999984               0.000000000               0.001635653               0.999999984               0.000000000               0.001673197               0.999999984               0.000000000               0.001708822               0.999999984 </DataArray>
<DataArray type="Float64"                                    Name="defo"                                                      NumberOfComponents=" 3" format="ascii">
             -0.000581765               0.000000000               0.999999984              -0.000627897              -0.000000000               0.999999984              -0.000648256              -0.000000000               0.999999984              -0.000659643              -0.000000000               0.999999984              -0.000668529               0.000000000               0.999999984              -0.000677563               0.000000000               0.999999984              -0.000687576              -0.000000000               0.999999984              -0.000698680               0.000000000               0.999999984              -0.000710886              -0.000000000               0.999999984              -0.000724110               0.000000000               0.999999984              -0.000738011               0.000000000               0.999999984              -0.000752485              -0.000000000               0.999999984              -0.000767367               0.000000000               0.999999984              -0.000782279               0.000000000               0.999999984              -0.000796760               0.000000000               0.999999984              -0.000810388              -0.000000000               0.999999984              -0.000822676               0.000000000               0.999999984              -0.000578610               0.000118648               0.999999984              -0.000621467               0.000097754               0.999999984              -0.000639737               0.000089143               0.999999984              -0.000649897               0.000086791               0.999999984              -0.000658062               0.000087832               0.999999984              -0.000666500               0.000090484               0.999999984              -0.000675904               0.000093855               0.999999984              -0.000686509               0.000097567               0.999999984              -0.000698233               0.000101280               0.999999984              -0.000710845               0.000104617               0.999999984              -0.000724124               0.000107288               0.999999984              -0.000737796               0.000109130               0.999999984              -0.000751535               0.000109959               0.999999984              -0.000765110               0.000109273               0.999999984              -0.000778138               0.000106663               0.999999984              -0.000790263               0.000101588               0.999999984              -0.000801117               0.000092932               0.999999984              -0.000569037               0.000236128               0.999999984              -0.000602375               0.000194815               0.999999984              -0.000614920               0.000178573               0.999999984              -0.000621679               0.000174711               0.999999984              -0.000627699               0.000177310               0.999999984              -0.000634671               0.000183056               0.999999984              -0.000643015               0.000190138               0.999999984              -0.000652542               0.000197619               0.999999984              -0.000662820               0.000205008               0.999999984              -0.000673643               0.000211582               0.999999984              -0.000684657               0.000217014               0.999999984              -0.000695582               0.000220886               0.999999984              -0.000706161               0.000222803               0.999999984              -0.000716126               0.000222170               0.999999984              -0.000725310               0.000218434               0.999999984              -0.000733562               0.000210785               0.999999984              -0.000740850               0.000197786               0.999999984              -0.000553213               0.000351254               0.999999984              -0.000571573               0.000290733               0.999999984              -0.000575864               0.000268565               0.999999984              -0.000578052               0.000264619               0.999999984              -0.000581544               0.000269801               0.999999984              -0.000586899               0.000279258               0.999999984              -0.000593763               0.000290397               0.999999984              -0.000601641               0.000301927               0.999999984              -0.000609980               0.000312960               0.999999984              -0.000618345               0.000322947               0.999999984              -0.000626397               0.000331327               0.999999984              -0.000633854               0.000337422               0.999999984              -0.000640526               0.000340814               0.999999984              -0.000646206               0.000341140               0.999999984              -0.000650885               0.000338078               0.999999984              -0.000654624               0.000331010               0.999999984              -0.000657502               0.000318906               0.999999984              -0.000531472               0.000462902               0.999999984              -0.000530579               0.000385241               0.999999984              -0.000525679               0.000359418               0.999999984              -0.000523700               0.000356878               0.999999984              -0.000525109               0.000365464               0.999999984              -0.000529029               0.000379156               0.999999984              -0.000534651               0.000394766               0.999999984              -0.000540969               0.000410484               0.999999984              -0.000547340               0.000425274               0.999999984              -0.000553199               0.000438508               0.999999984              -0.000558109               0.000449513               0.999999984              -0.000561810               0.000457855               0.999999984              -0.000564303               0.000463253               0.999999984              -0.000565615               0.000465379               0.999999984              -0.000565736               0.000464132               0.999999984              -0.000564508               0.000459192               0.999999984              -0.000562027               0.000450263               0.999999984              -0.000504107               0.000570048               0.999999984              -0.000481599               0.000478207               0.999999984              -0.000468409               0.000451018               0.999999984              -0.000463489               0.000451153               0.999999984              -0.000463919               0.000463771               0.999999984              -0.000467498               0.000481922               0.999999984              -0.000472349               0.000502009               0.999999984              -0.000477287               0.000521827               0.999999984              -0.000481564               0.000540082               0.999999984              -0.000484530               0.000556114               0.999999984              -0.000485953               0.000569406               0.999999984              -0.000485654               0.000579814               0.999999984              -0.000483701               0.000587264               0.999999984              -0.000480091               0.000591569               0.999999984              -0.000474715               0.000592566               0.999999984              -0.000467622               0.000590192               0.999999984              -0.000459130               0.000584830               0.999999984              -0.000471758               0.000671585               0.999999984              -0.000427256               0.000569543               0.999999984              -0.000407856               0.000542935               0.999999984              -0.000401979               0.000546530               0.999999984              -0.000402972               0.000563371               0.999999984              -0.000406839               0.000585990               0.999999984              -0.000411314               0.000610114               0.999999984              -0.000415035               0.000633305               0.999999984              -0.000417062               0.000654280               0.999999984              -0.000416972               0.000672515               0.999999984              -0.000414479               0.000687657               0.999999984              -0.000409631               0.000699878               0.999999984              -0.000402390               0.000709203               0.999999984              -0.000392824               0.000715527               0.999999984              -0.000381167               0.000718761               0.999999984              -0.000367747               0.000719199               0.999999984              -0.000352991               0.000717683               0.999999984              -0.000435136               0.000766448               0.999999984              -0.000370201               0.000659050               0.999999984              -0.000347532               0.000634423               0.999999984              -0.000342941               0.000641680               0.999999984              -0.000345522               0.000662613               0.999999984              -0.000350306               0.000689029               0.999999984              -0.000354518               0.000716400               0.999999984              -0.000356601               0.000742301               0.999999984              -0.000355932               0.000765397               0.999999984              -0.000352061               0.000785321               0.999999984              -0.000344868               0.000802002               0.999999984              -0.000334485               0.000815649               0.999999984              -0.000321106               0.000826372               0.999999984              -0.000305031               0.000834366               0.999999984              -0.000286639               0.000839803               0.999999984              -0.000266666               0.000843281               0.999999984              -0.000245662               0.000845438               0.999999984              -0.000395542               0.000852975               0.999999984              -0.000312556               0.000746571               0.999999984              -0.000290728               0.000724271               0.999999984              -0.000288838               0.000734876               0.999999984              -0.000293664               0.000759351               0.999999984              -0.000299324               0.000789061               0.999999984              -0.000302803               0.000819159               0.999999984              -0.000302803               0.000847055               0.999999984              -0.000298622               0.000871753               0.999999984              -0.000290025               0.000892918               0.999999984              -0.000277127               0.000910647               0.999999984              -0.000260378               0.000925275               0.999999984              -0.000240042               0.000937191               0.999999984              -0.000216751               0.000946771               0.999999984              -0.000191569               0.000954590               0.999999984              -0.000165588               0.000961253               0.999999984              -0.000139227               0.000967094               0.999999984              -0.000355003               0.000934340               0.999999984              -0.000264986               0.000842488               0.999999984              -0.000240112               0.000815592               0.999999984              -0.000236979               0.000820257               0.999999984              -0.000241350               0.000839871               0.999999984              -0.000247199               0.000866479               0.999999984              -0.000251575               0.000895239               0.999999984              -0.000252771               0.000923552               0.999999984              -0.000250197               0.000949716               0.999999984              -0.000243384               0.000973193               0.999999984              -0.000232329               0.000993783               0.999999984              -0.000217255               0.001011701               0.999999984              -0.000198406               0.001027120               0.999999984              -0.000175925               0.001040424               0.999999984              -0.000150563               0.001052097               0.999999984              -0.000123976               0.001062654               0.999999984              -0.000097201               0.001072450               0.999999984              -0.000310658               0.001008000               0.999999984              -0.000220315               0.000934740               0.999999984              -0.000192495               0.000908669               0.999999984              -0.000187315               0.000909395               0.999999984              -0.000190453               0.000925113               0.999999984              -0.000195833               0.000948993               0.999999984              -0.000200451               0.000976443               0.999999984              -0.000202506               0.001004898               0.999999984              -0.000201323               0.001032427               0.999999984              -0.000196147               0.001058170               0.999999984              -0.000186922               0.001081670               0.999999984              -0.000173528               0.001102859               0.999999984              -0.000156020               0.001121721               0.999999984              -0.000134465               0.001138502               0.999999984              -0.000109157               0.001153522               0.999999984              -0.000081172               0.001167427               0.999999984              -0.000051974               0.001180722               0.999999984              -0.000263525               0.001072264               0.999999984              -0.000178509               0.001020599               0.999999984              -0.000149237               0.000999287               0.999999984              -0.000141750               0.000999018               0.999999984              -0.000143030               0.001012350               0.999999984              -0.000147393               0.001034040               0.999999984              -0.000151705               0.001060498               0.999999984              -0.000154079               0.001089076               0.999999984              -0.000153751               0.001118058               0.999999984              -0.000150003               0.001146244               0.999999984              -0.000142605               0.001172884               0.999999984              -0.000131139               0.001197602               0.999999984              -0.000115218               0.001220218               0.999999984              -0.000094757               0.001240853               0.999999984              -0.000069765               0.001259672               0.999999984              -0.000040472               0.001277095               0.999999984              -0.000007910               0.001293667               0.999999984              -0.000213975               0.001126226               0.999999984              -0.000139399               0.001096738               0.999999984              -0.000110933               0.001083064               0.999999984              -0.000101903               0.001084377               0.999999984              -0.000101318               0.001097171               0.999999984              -0.000104132               0.001117781               0.999999984              -0.000107665               0.001143602               0.999999984              -0.000109926               0.001172461               0.999999984              -0.000110013               0.001202757               0.999999984              -0.000107419               0.001233355               0.999999984              -0.000101705               0.001263343               0.999999984              -0.000092262               0.001292059               0.999999984              -0.000078481               0.001319095               0.999999984              -0.000059784               0.001344336               0.999999984              -0.000035778               0.001367762               0.999999984              -0.000006366               0.001389518               0.999999984               0.000028657               0.001409998               0.999999984              -0.000162358               0.001169188               0.999999984              -0.000102604               0.001159880               0.999999984              -0.000077678               0.001155097               0.999999984              -0.000068531               0.001159935               0.999999984              -0.000066666               0.001173646               0.999999984              -0.000068015               0.001194381               0.999999984              -0.000070361               0.001220278               0.999999984              -0.000072085               0.001249666               0.999999984              -0.000072291               0.001281297               0.999999984              -0.000070503               0.001314078               0.999999984              -0.000066336               0.001347181               0.999999984              -0.000059098               0.001379846               0.999999984              -0.000047997               0.001411551               0.999999984              -0.000032213               0.001441889               0.999999984              -0.000011164               0.001470605               0.999999984               0.000015798               0.001497525               0.999999984               0.000050053               0.001522724               0.999999984              -0.000109139               0.001200433               0.999999984              -0.000067518               0.001207320               0.999999984              -0.000048927               0.001210798               0.999999984              -0.000041395               0.001219680               0.999999984              -0.000039236               0.001235261               0.999999984              -0.000039567               0.001256803               0.999999984              -0.000040817               0.001283314               0.999999984              -0.000041865               0.001313520               0.999999984              -0.000041951               0.001346426               0.999999984              -0.000040749               0.001381057               0.999999984              -0.000038004               0.001416677               0.999999984              -0.000033101               0.001452646               0.999999984              -0.000025214               0.001488410               0.999999984              -0.000013727               0.001523362               0.999999984               0.000001824               0.001557048               0.999999984               0.000022768               0.001589150               0.999999984               0.000050734               0.001619382               0.999999984              -0.000054841               0.001219387               0.999999984              -0.000033505               0.001236751               0.999999984              -0.000023587               0.001246164               0.999999984              -0.000019264               0.001258119               0.999999984              -0.000017847               0.001275404               0.999999984              -0.000017843               0.001297982               0.999999984              -0.000018355               0.001325171               0.999999984              -0.000018768               0.001356120               0.999999984              -0.000018727               0.001389931               0.999999984              -0.000018177               0.001425771               0.999999984              -0.000016811               0.001463044               0.999999984              -0.000014246               0.001501164               0.999999984              -0.000010138               0.001539591               0.999999984              -0.000004173               0.001577684               0.999999984               0.000004117               0.001615044               0.999999984               0.000015529               0.001651086               0.999999984               0.000031271               0.001685222               0.999999984              -0.000000000               0.001225778               0.999999984               0.000000000               0.001246704               0.999999984               0.000000000               0.001258277               0.999999984              -0.000000000               0.001271491               0.999999984              -0.000000000               0.001289371               0.999999984               0.000000000               0.001312334               0.999999984              -0.000000000               0.001339905               0.999999984              -0.000000000               0.001371145               0.999999984               0.000000000               0.001405274               0.999999984               0.000000000               0.001441582               0.999999984              -0.000000000               0.001479517               0.999999984              -0.000000000               0.001518361               0.999999984               0.000000000               0.001557674               0.999999984               0.000000000               0.001596929               0.999999984               0.000000000               0.001635653               0.999999984               0.000000000               0.001673197               0.999999984               0.000000000               0.001708822               0.999999984              -0.000581765               0.000000000               0.999999984              -0.000627897              -0.000000000               0.999999984              -0.000648256              -0.000000000               0.999999984              -0.000659643              -0.000000000               0.999999984              -0.000668529               0.000000000               0.999999984              -0.000677563               0.000000000               0.999999984              -0.000687576              -0.000000000               0.999999984              -0.000698680               0.000000000               0.999999984              -0.000710886              -0.000000000               0.999999984              -0.000724110               0.000000000               0.999999984              -0.000738011               0.000000000               0.999999984              -0.000752485              -0.000000000               0.999999984              -0.000767367               0.000000000               0.999999984              -0.000782279               0.000000000               0.999999984              -0.000796760               0.000000000               0.999999984              -0.000810388              -0.000000000               0.999999984              -0.000822676               0.000000000               0.999999984              -0.000578610              -0.000118648               0.999999984              -0.000621467              -0.000097754               0.999999984              -0.000639737              -0.000089143               0.999999984              -0.000649897              -0.000086791               0.999999984              -0.000658062              -0.000087832               0.999999984              -0.000666500              -0.000090484               0.999999984              -0.000675904              -0.000093855               0.999999984              -0.000686509              -0.000097567               0.999999984              -0.000698233              -0.000101280               0.999999984              -0.000710845              -0.000104617               0.999999984              -0.000724124              -0.000107288               0.999999984              -0.000737796              -0.000109130               0.999999984              -0.000751535              -0.000109959               0.999999984              -0.000765110              -0.000109273               0.999999984              -0.000778138              -0.000106663               0.999999984              -0.000790263              -0.000101588               0.999999984              -0.000801117              -0.000092932               0.999999984              -0.000569037              -0.000236128               0.999999984              -0.000602375              -0.000194815               0.999999984              -0.000614920              -0.000178573               0.999999984              -0.000621679              -0.000174711               0.999999984              -0.000627699              -0.000177310               0.999999984              -0.000634671              -0.000183056               0.999999984              -0.000643015              -0.000190138               0.999999984              -0.000652542              -0.000197619               0.999999984              -0.000662820              -0.000205008               0.999999984              -0.000673643              -0.000211582               0.999999984              -0.000684657              -0.000217014               0.999999984              -0.000695582              -0.000220886               0.999999984              -0.000706161              -0.000222803               0.999999984              -0.000716126              -0.000222170               0.999999984              -0.000725310              -0.000218434               0.999999984              -0.000733562              -0.000210785               0.999999984              -0.000740850              -0.000197786               0.999999984              -0.000553213              -0.000351254               0.999999984              -0.000571573              -0.000290733               0.999999984              -0.000575864              -0.000268565               0.999999984              -0.000578052              -0.000264619               0.999999984              -0.000581544              -0.000269801               0.999999984              -0.000586899              -0.000279258               0.999999984              -0.000593763              -0.000290397               0.999999984              -0.000601641              -0.000301927               0.999999984              -0.000609980              -0.000312960               0.999999984              -0.000618345              -0.000322947               0.999999984              -0.000626397              -0.000331327               0.999999984              -0.000633854              -0.000337422               0.999999984              -0.000640526              -0.000340814               0.999999984              -0.000646206              -0.000341140               0.999999984              -0.000650885              -0.000338078               0.999999984              -0.000654624              -0.000331010               0.999999984              -0.000657502              -0.000318906               0.999999984              -0.000531472              -0.000462902               0.999999984              -0.000530579              -0.000385241               0.999999984              -0.000525679              -0.000359418               0.999999984              -0.000523700              -0.000356878               0.999999984              -0.000525109              -0.000365464               0.999999984              -0.000529029              -0.000379156               0.999999984              -0.000534651              -0.000394766               0.999999984              -0.000540969              -0.000410484               0.999999984              -0.000547340              -0.000425274               0.999999984              -0.000553199              -0.000438508               0.999999984              -0.000558109              -0.000449513               0.999999984              -0.000561810              -0.000457855               0.999999984              -0.000564303              -0.000463253               0.999999984              -0.000565615              -0.000465379               0.999999984              -0.000565736              -0.000464132               0.999999984              -0.000564508              -0.000459192               0.999999984              -0.000562027              -0.000450263               0.999999984              -0.000504107              -0.000570048               0.999999984              -0.000481599              -0.000478207               0.999999984              -0.000468409              -0.000451018               0.999999984              -0.000463489              -0.000451153               0.999999984              -0.000463919              -0.000463771               0.999999984              -0.000467498              -0.000481922               0.999999984              -0.000472349              -0.000502009               0.999999984              -0.000477287              -0.000521827               0.999999984              -0.000481564              -0.000540082               0.999999984              -0.000484530              -0.000556114               0.999999984              -0.000485953              -0.000569406               0.999999984              -0.000485654              -0.000579814               0.999999984              -0.000483701              -0.000587264               0.999999984              -0.000480091              -0.000591569               0.999999984              -0.000474715              -0.000592566               0.999999984              -0.000467622              -0.000590192               0.999999984              -0.000459130              -0.000584830               0.999999984              -0.000471758              -0.000671585               0.999999984              -0.000427256              -0.000569543               0.999999984              -0.000407856              -0.000542935               0.999999984              -0.000401979              -0.000546530               0.999999984              -0.000402972              -0.000563371               0.999999984              -0.000406839              -0.000585990               0.999999984              -0.000411314              -0.000610114               0.999999984              -0.000415035              -0.000633305               0.999999984              -0.000417062              -0.000654280               0.999999984              -0.000416972              -0.000672515               0.999999984              -0.000414479              -0.000687657               0.999999984              -0.000409631              -0.000699878               0.999999984              -0.000402390              -0.000709203               0.999999984              -0.000392824              -0.000715527               0.999999984              -0.000381167              -0.000718761               0.999999984              -0.000367747              -0.000719199               0.999999984              -0.000352991              -0.000717683               0.999999984              -0.000435136              -0.000766448               0.999999984              -0.000370201              -0.000659050               0.999999984              -0.000347532              -0.000634423               0.999999984              -0.000342941              -0.000641680               0.999999984              -0.000345522              -0.000662613               0.999999984              -0.000350306              -0.000689029               0.999999984              -0.000354518              -0.000716400               0.999999984              -0.000356601              -0.000742301               0.999999984              -0.000355932              -0.000765397               0.999999984              -0.000352061              -0.000785321               0.999999984              -0.000344868              -0.000802002               0.999999984              -0.000334485              -0.000815649               0.999999984              -0.000321106              -0.000826372               0.999999984              -0.000305031              -0.000834366               0.999999984              -0.000286639              -0.000839803               0.999999984              -0.000266666              -0.000843281               0.999999984              -0.000245662              -0.000845438               0.999999984              -0.000395542              -0.000852975               0.999999984              -0.000312556              -0.000746571               0.999999984              -0.000290728              -0.000724271               0.999999984              -0.000288838              -0.000734876               0.999999984              -0.000293664              -0.000759351               0.999999984              -0.000299324              -0.000789061               0.999999984              -0.000302803              -0.000819159               0.999999984              -0.000302803              -0.000847055               0.999999984              -0.000298622              -0.000871753               0.999999984              -0.000290025              -0.000892918               0.999999984              -0.000277127              -0.000910647               0.999999984              -0.000260378              -0.000925275               0.999999984              -0.000240042              -0.000937191               0.999999984              -0.000216751              -0.000946771               0.999999984              -0.000191569              -0.000954590               0.999999984              -0.000165588              -0.000961253               0.999999984              -0.000139227              -0.000967094               0.999999984              -0.000355003              -0.000934340               0.999999984              -0.000264986              -0.000842488               0.999999984              -0.000240112              -0.000815592               0.999999984              -0.000236979              -0.000820257               0.999999984              -0.000241350              -0.000839871               0.999999984              -0.000247199              -0.000866479               0.999999984              -0.000251575              -0.000895239               0.999999984              -0.000252771              -0.000923552               0.999999984              -0.000250197              -0.000949716               0.999999984              -0.000243384              -0.000973193               0.999999984              -0.000232329              -0.000993783               0.999999984              -0.000217255              -0.001011701               0.999999984              -0.000198406              -0.001027120               0.999999984              -0.000175925              -0.001040424               0.999999984              -0.000150563              -0.001052097               0.999999984              -0.000123976              -0.001062654               0.999999984              -0.000097201              -0.001072450               0.999999984              -0.000310658              -0.001008000               0.999999984              -0.000220315              -0.000934740               0.999999984              -0.000192495              -0.000908669               0.999999984              -0.000187315              -0.000909395               0.999999984              -0.000190453              -0.000925113               0.999999984              -0.000195833              -0.000948993               0.999999984              -0.000200451              -0.000976443               0.999999984              -0.000202506              -0.001004898               0.999999984              -0.000201323              -0.001032427               0.999999984              -0.000196147              -0.001058170               0.999999984              -0.000186922              -0.001081670               0.999999984              -0.000173528              -0.001102859               0.999999984              -0.000156020              -0.001121721               0.999999984              -0.000134465              -0.001138502               0.999999984              -0.000109157              -0.001153522               0.999999984              -0.000081172              -0.001167427               0.999999984              -0.000051974              -0.001180722               0.999999984              -0.000263525              -0.001072264               0.999999984              -0.000178509              -0.001020599               0.999999984              -0.000149237              -0.000999287               0.999999984              -0.000141750              -0.000999018               0.999999984              -0.000143030              -0.001012350               0.999999984              -0.000147393              -0.001034040               0.999999984              -0.000151705              -0.001060498               0.999999984              -0.000154079              -0.001089076               0.999999984              -0.000153751              -0.001118058               0.999999984              -0.000150003              -0.001146244               0.999999984              -0.000142605              -0.001172884               0.999999984              -0.000131139              -0.001197602               0.999999984              -0.000115218              -0.001220218               0.999999984              -0.000094757              -0.001240853               0.999999984              -0.000069765              -0.001259672               0.999999984              -0.000040472              -0.001277095               0.999999984              -0.000007910              -0.001293667               0.999999984              -0.000213975              -0.001126226               0.999999984              -0.000139399              -0.001096738               0.999999984              -0.000110933              -0.001083064               0.999999984              -0.000101903              -0.001084377               0.999999984              -0.000101318              -0.001097171               0.999999984              -0.000104132              -0.001117781               0.999999984              -0.000107665              -0.001143602               0.999999984              -0.000109926              -0.001172461               0.999999984              -0.000110013              -0.001202757               0.999999984              -0.000107419              -0.001233355               0.999999984              -0.000101705              -0.001263343               0.999999984              -0.000092262              -0.001292059               0.999999984              -0.000078481              -0.001319095               0.999999984              -0.000059784              -0.001344336               0.999999984              -0.000035778              -0.001367762               0.999999984              -0.000006366              -0.001389518               0.999999984               0.000028657              -0.001409998               0.999999984              -0.000162358              -0.001169188               0.999999984              -0.000102604              -0.001159880               0.999999984              -0.000077678              -0.001155097               0.999999984              -0.000068531              -0.001159935               0.999999984              -0.000066666              -0.001173646               0.999999984              -0.000068015              -0.001194381               0.999999984              -0.000070361              -0.001220278               0.999999984              -0.000072085              -0.001249666               0.999999984              -0.000072291              -0.001281297               0.999999984              -0.000070503              -0.001314078               0.999999984              -0.000066336              -0.001347181               0.999999984              -0.000059098              -0.001379846               0.999999984              -0.000047997              -0.001411551               0.999999984              -0.000032213              -0.001441889               0.999999984              -0.000011164              -0.001470605               0.999999984               0.000015798              -0.001497525               0.999999984               0.000050053              -0.001522724               0.999999984              -0.000109139              -0.001200433               0.999999984              -0.000067518              -0.001207320               0.999999984              -0.000048927              -0.001210798               0.999999984              -0.000041395              -0.001219680               0.999999984              -0.000039236              -0.001235261               0.999999984              -0.000039567              -0.001256803               0.999999984              -0.000040817              -0.001283314               0.999999984              -0.000041865              -0.001313520               0.999999984              -0.000041951              -0.001346426               0.999999984              -0.000040749              -0.001381057               0.999999984              -0.000038004              -0.001416677               0.999999984              -0.000033101              -0.001452646               0.999999984              -0.000025214              -0.001488410               0.999999984              -0.000013727              -0.001523362               0.999999984               0.000001824              -0.001557048               0.999999984               0.000022768              -0.001589150               0.999999984               0.000050734              -0.001619382               0.999999984              -0.000054841              -0.001219387               0.999999984              -0.000033505              -0.001236751               0.999999984              -0.000023587              -0.001246164               0.999999984              -0.000019264              -0.001258119               0.999999984              -0.000017847              -0.001275404               0.999999984              -0.000017843              -0.001297982               0.999999984              -0.000018355              -0.001325171               0.999999984              -0.000018768              -0.001356120               0.999999984              -0.000018727              -0.001389931               0.999999984              -0.000018177              -0.001425771               0.999999984              -0.000016811              -0.001463044               0.999999984              -0.000014246              -0.001501164               0.999999984              -0.000010138              -0.001539591               0.999999984              -0.000004173              -0.001577684               0.999999984               0.000004117              -0.001615044               0.999999984               0.000015529              -0.001651086               0.999999984               0.000031271              -0.001685222               0.999999984               0.000000000              -0.001225778               0.999999984              -0.000000000              -0.001246704               0.999999984               0.000000000              -0.001258277               0.999999984              -0.000000000              -0.001271491               0.999999984              -0.000000000              -0.001289371               0.999999984              -0.000000000              -0.001312334               0.999999984               0.000000000              -0.001339905               0.999999984              -0.000000000              -0.001371145               0.999999984              -0.000000000              -0.001405274               0.999999984              -0.000000000              -0.001441582               0.999999984               0.000000000              -0.001479517               0.999999984               0.000000000              -0.001518361               0.999999984               0.000000000              -0.001557674               0.999999984              -0.000000000              -0.001596929               0.999999984              -0.000000000              -0.001635653               0.999999984              -0.000000000              -0.001673197               0.999999984              -0.000000000              -0.001708822               0.999999984               0.000581765               0.000000000               0.999999984               0.000627897              -0.000000000               0.999999984               0.000648256               0.000000000               0.999999984               0.000659643               0.000000000               0.999999984               0.000668529               0.000000000               0.999999984               0.000677563               0.000000000               0.999999984               0.000687576               0.000000000               0.999999984               0.000698680              -0.000000000               0.999999984               0.000710886               0.000000000               0.999999984               0.000724110               0.000000000               0.999999984               0.000738011               0.000000000               0.999999984               0.000752485               0.000000000               0.999999984               0.000767367               0.000000000               0.999999984               0.000782279               0.000000000               0.999999984               0.000796760               0.000000000               0.999999984               0.000810388               0.000000000               0.999999984               0.000822676               0.000000000               0.999999984               0.000578610              -0.000118648               0.999999984               0.000621467              -0.000097754               0.999999984               0.000639737              -0.000089143               0.999999984               0.000649897              -0.000086791               0.999999984               0.000658062              -0.000087832               0.999999984               0.000666500              -0.000090484               0.999999984               0.000675904              -0.000093855               0.999999984               0.000686509              -0.000097567               0.999999984               0.000698233              -0.000101280               0.999999984               0.000710845              -0.000104617               0.999999984               0.000724124              -0.000107288               0.999999984               0.000737796              -0.000109130               0.999999984               0.000751535              -0.000109959               0.999999984               0.000765110              -0.000109273               0.999999984               0.000778138              -0.000106663               0.999999984               0.000790263              -0.000101588               0.999999984               0.000801117              -0.000092932               0.999999984               0.000569037              -0.000236128               0.999999984               0.000602375              -0.000194815               0.999999984               0.000614920              -0.000178573               0.999999984               0.000621679              -0.000174711               0.999999984               0.000627699              -0.000177310               0.999999984               0.000634671              -0.000183056               0.999999984               0.000643015              -0.000190138               0.999999984               0.000652542              -0.000197619               0.999999984               0.000662820              -0.000205008               0.999999984               0.000673643              -0.000211582               0.999999984               0.000684657              -0.000217014               0.999999984               0.000695582              -0.000220886               0.999999984               0.000706161              -0.000222803               0.999999984               0.000716126              -0.000222170               0.999999984               0.000725310              -0.000218434               0.999999984               0.000733562              -0.000210785               0.999999984               0.000740850              -0.000197786               0.999999984               0.000553213              -0.000351254               0.999999984               0.000571573              -0.000290733               0.999999984               0.000575864              -0.000268565               0.999999984               0.000578052              -0.000264619               0.999999984               0.000581544              -0.000269801               0.999999984               0.000586899              -0.000279258               0.999999984               0.000593763              -0.000290397               0.999999984               0.000601641              -0.000301927               0.999999984               0.000609980              -0.000312960               0.999999984               0.000618345              -0.000322947               0.999999984               0.000626397              -0.000331327               0.999999984               0.000633854              -0.000337422               0.999999984               0.000640526              -0.000340814               0.999999984               0.000646206              -0.000341140               0.999999984               0.000650885              -0.000338078               0.999999984               0.000654624              -0.000331010               0.999999984               0.000657502              -0.000318906               0.999999984               0.000531472              -0.000462902               0.999999984               0.000530579              -0.000385241               0.999999984               0.000525679              -0.000359418               0.999999984               0.000523700              -0.000356878               0.999999984               0.000525109              -0.000365464               0.999999984               0.000529029              -0.000379156               0.999999984               0.000534651              -0.000394766               0.999999984               0.000540969              -0.000410484               0.999999984               0.000547340              -0.000425274               0.999999984               0.000553199              -0.000438508               0.999999984               0.000558109              -0.000449513               0.999999984               0.000561810              -0.000457855               0.999999984               0.000564303              -0.000463253               0.999999984               0.000565615              -0.000465379               0.999999984               0.000565736              -0.000464132               0.999999984               0.000564508              -0.000459192               0.999999984               0.000562027              -0.000450263               0.999999984               0.000504107              -0.000570048               0.999999984               0.000481599              -0.000478207               0.999999984               0.000468409              -0.000451018               0.999999984               0.000463489              -0.000451153               0.999999984               0.000463919              -0.000463771               0.999999984               0.000467498              -0.000481922               0.999999984               0.000472349              -0.000502009               0.999999984               0.000477287              -0.000521827               0.999999984               0.000481564              -0.000540082               0.999999984               0.000484530              -0.000556114               0.999999984               0.000485953              -0.000569406               0.999999984               0.000485654              -0.000579814               0.999999984               0.000483701              -0.000587264               0.999999984               0.000480091              -0.000591569               0.999999984               0.000474715              -0.000592566               0.999999984               0.000467622              -0.000590192               0.999999984               0.000459130              -0.000584830               0.999999984               0.000471758              -0.000671585               0.999999984               0.000427256              -0.000569543               0.999999984               0.000407856              -0.000542935               0.999999984               0.000401979              -0.000546530               0.999999984               0.000402972              -0.000563371               0.999999984               0.000406839              -0.000585990               0.999999984               0.000411314              -0.000610114               0.999999984               0.000415035              -0.000633305               0.999999984               0.000417062              -0.000654280               0.999999984               0.000416972              -0.000672515               0.999999984               0.000414479              -0.000687657               0.999999984               0.000409631              -0.000699878               0.999999984               0.000402390              -0.000709203               0.999999984               0.000392824              -0.000715527               0.999999984               0.000381167              -0.000718761               0.999999984               0.000367747              -0.000719199               0.999999984               0.000352991              -0.000717683               0.999999984               0.000435136              -0.000766448               0.999999984               0.000370201              -0.000659050               0.999999984               0.000347532              -0.000634423               0.999999984               0.000342941              -0.000641680               0.999999984               0.000345522              -0.000662613               0.999999984               0.000350306              -0.000689029               0.999999984               0.000354518              -0.000716400               0.999999984               0.000356601              -0.000742301               0.999999984               0.000355932              -0.000765397               0.999999984               0.000352061              -0.000785321               0.999999984               0.000344868              -0.000802002               0.999999984               0.000334485              -0.000815649               0.999999984               0.000321106              -0.000826372               0.999999984               0.000305031              -0.000834366               0.999999984               0.000286639              -0.000839803               0.999999984               0.000266666              -0.000843281               0.999999984               0.000245662              -0.000845438               0.999999984               0.000395542              -0.000852975               0.999999984               0.000312556              -0.000746571               0.999999984               0.000290728              -0.000724271               0.999999984               0.000288838              -0.000734876               0.999999984               0.000293664              -0.000759351               0.999999984               0.000299324              -0.000789061               0.999999984               0.000302803              -0.000819159               0.999999984               0.000302803              -0.000847055               0.999999984               0.000298622              -0.000871753               0.999999984               0.000290025              -0.000892918               0.999999984               0.000277127              -0.000910647               0.999999984               0.000260378              -0.000925275               0.999999984               0.000240042              -0.000937191               0.999999984               0.000216751              -0.000946771               0.999999984               0.000191569              -0.000954590               0.999999984               0.000165588              -0.000961253               0.999999984               0.000139227              -0.000967094               0.999999984               0.000355003              -0.000934340               0.999999984               0.000264986              -0.000842488               0.999999984               0.000240112              -0.000815592               0.999999984               0.000236979              -0.000820257               0.999999984               0.000241350              -0.000839871               0.999999984               0.000247199              -0.000866479               0.999999984               0.000251575              -0.000895239               0.999999984               0.000252771              -0.000923552               0.999999984               0.000250197              -0.000949716               0.999999984               0.000243384              -0.000973193               0.999999984               0.000232329              -0.000993783               0.999999984               0.000217255              -0.001011701               0.999999984               0.000198406              -0.001027120               0.999999984               0.000175925              -0.001040424               0.999999984               0.000150563              -0.001052097               0.999999984               0.000123976              -0.001062654               0.999999984               0.000097201              -0.001072450               0.999999984               0.000310658              -0.001008000               0.999999984               0.000220315              -0.000934740               0.999999984               0.000192495              -0.000908669               0.999999984               0.000187315              -0.000909395               0.999999984               0.000190453              -0.000925113               0.999999984               0.000195833              -0.000948993               0.999999984               0.000200451              -0.000976443               0.999999984               0.000202506              -0.001004898               0.999999984               0.000201323              -0.001032427               0.999999984               0.000196147              -0.001058170               0.999999984               0.000186922              -0.001081670               0.999999984               0.000173528              -0.001102859               0.999999984               0.000156020              -0.001121721               0.999999984               0.000134465              -0.001138502               0.999999984               0.000109157              -0.001153522               0.999999984               0.000081172              -0.001167427               0.999999984               0.000051974              -0.001180722               0.999999984               0.000263525              -0.001072264               0.999999984               0.000178509              -0.001020599               0.999999984               0.000149237              -0.000999287               0.999999984               0.000141750              -0.000999018               0.999999984               0.000143030              -0.001012350               0.999999984               0.000147393              -0.001034040               0.999999984               0.000151705              -0.001060498               0.999999984               0.000154079              -0.001089076               0.999999984               0.000153751              -0.001118058               0.999999984               0.000150003              -0.001146244               0.999999984               0.000142605              -0.001172884               0.999999984               0.000131139              -0.001197602               0.999999984               0.000115218              -0.001220218               0.999999984               0.000094757              -0.001240853               0.999999984               0.000069765              -0.001259672               0.999999984               0.000040472              -0.001277095               0.999999984               0.000007910              -0.001293667               0.999999984               0.000213975              -0.001126226               0.999999984               0.000139399              -0.001096738               0.999999984               0.000110933              -0.001083064               0.999999984               0.000101903              -0.001084377               0.999999984               0.000101318              -0.001097171               0.999999984               0.000104132              -0.001117781               0.999999984               0.000107665              -0.001143602               0.999999984               0.000109926              -0.001172461               0.999999984               0.000110013              -0.001202757               0.999999984               0.000107419              -0.001233355               0.999999984               0.000101705              -0.001263343               0.999999984               0.000092262              -0.001292059               0.999999984               0.000078481              -0.001319095               0.999999984               0.000059784              -0.001344336               0.999999984               0.000035778              -0.001367762               0.999999984               0.000006366              -0.001389518               0.999999984              -0.000028657              -0.001409998               0.999999984               0.000162358              -0.001169188               0.999999984               0.000102604              -0.001159880               0.999999984               0.000077678              -0.001155097               0.999999984               0.000068531              -0.001159935               0.999999984               0.000066666              -0.001173646               0.999999984               0.000068015              -0.001194381               0.999999984               0.000070361              -0.001220278               0.999999984               0.000072085              -0.001249666               0.999999984               0.000072291              -0.001281297               0.999999984               0.000070503              -0.001314078               0.999999984               0.000066336              -0.001347181               0.999999984               0.000059098              -0.001379846               0.999999984               0.000047997              -0.001411551               0.999999984               0.000032213              -0.001441889               0.999999984               0.000011164              -0.001470605               0.999999984              -0.000015798              -0.001497525               0.999999984              -0.000050053              -0.001522724               0.999999984               0.000109139              -0.001200433               0.999999984               0.000067518              -0.001207320               0.999999984               0.000048927              -0.001210798               0.999999984               0.000041395              -0.001219680               0.999999984               0.000039236              -0.001235261               0.999999984               0.000039567              -0.001256803               0.999999984               0.000040817              -0.001283314               0.999999984               0.000041865              -0.001313520               0.999999984               0.000041951              -0.001346426               0.999999984               0.000040749              -0.001381057               0.999999984               0.000038004              -0.001416677               0.999999984               0.000033101              -0.001452646               0.999999984               0.000025214              -0.001488410               0.999999984               0.000013727              -0.001523362               0.999999984              -0.000001824              -0.001557048               0.999999984              -0.000022768              -0.001589150               0.999999984              -0.000050734              -0.001619382               0.999999984               0.000054841              -0.001219387               0.999999984               0.000033505              -0.001236751               0.999999984               0.000023587              -0.001246164               0.999999984               0.000019264              -0.001258119               0.999999984               0.000017847              -0.001275404               0.999999984               0.000017843              -0.001297982               0.999999984               0.000018355              -0.001325171               0.999999984               0.000018768              -0.001356120               0.999999984               0.000018727              -0.001389931               0.999999984               0.000018177              -0.001425771               0.999999984               0.000016811              -0.001463044               0.999999984               0.000014246              -0.001501164               0.999999984               0.000010138              -0.001539591               0.999999984               0.000004173              -0.001577684               0.999999984              -0.000004117              -0.001615044               0.999999984              -0.000015529              -0.001651086               0.999999984              -0.000031271              -0.001685222               0.999999984               0.000000000              -0.001225778               0.999999984              -0.000000000              -0.001246704               0.999999984               0.000000000              -0.001258277               0.999999984              -0.000000000              -0.001271491               0.999999984              -0.000000000              -0.001289371               0.999999984              -0.000000000              -0.001312334               0.999999984               0.000000000              -0.001339905               0.999999984              -0.000000000              -0.001371145               0.999999984              -0.000000000              -0.001405274               0.999999984              -0.000000000              -0.001441582               0.999999984               0.000000000              -0.001479517               0.999999984               0.000000000              -0.001518361               0.999999984               0.000000000              -0.001557674               0.999999984              -0.000000000              -0.001596929               0.999999984              -0.000000000              -0.001635653               0.999999984              -0.000000000              -0.001673197               0.999999984              -0.000000000              -0.001708822               0.999999984               0.000581765               0.000000000               0.999999984               0.000627897              -0.000000000               0.999999984               0.000648256               0.000000000               0.999999984               0.000659643               0.000000000               0.999999984               0.000668529               0.000000000               0.999999984               0.000677563               0.000000000               0.999999984               0.000687576               0.000000000               0.999999984               0.000698680              -0.000000000               0.999999984               0.000710886               0.000000000               0.999999984               0.000724110               0.000000000               0.999999984               0.000738011               0.000000000               0.999999984               0.000752485               0.000000000               0.999999984               0.000767367               0.000000000               0.999999984               0.000782279               0.000000000               0.999999984               0.000796760               0.000000000               0.999999984               0.000810388               0.000000000               0.999999984               0.000822676               0.000000000               0.999999984               0.000578610               0.000118648               0.999999984               0.000621467               0.000097754               0.999999984               0.000639737               0.000089143               0.999999984               0.000649897               0.000086791               0.999999984               0.000658062               0.000087832               0.999999984               0.000666500               0.000090484               0.999999984               0.000675904               0.000093855               0.999999984               0.000686509               0.000097567               0.999999984               0.000698233               0.000101280               0.999999984               0.000710845               0.000104617               0.999999984               0.000724124               0.000107288               0.999999984               0.000737796               0.000109130               0.999999984               0.000751535               0.000109959               0.999999984               0.000765110               0.000109273               0.999999984               0.000778138               0.000106663               0.999999984               0.000790263               0.000101588               0.999999984               0.000801117               0.000092932               0.999999984               0.000569037               0.000236128               0.999999984               0.000602375               0.000194815               0.999999984               0.000614920               0.000178573               0.999999984               0.000621679               0.000174711               0.999999984               0.000627699               0.000177310               0.999999984               0.000634671               0.000183056               0.999999984               0.000643015               0.000190138               0.999999984               0.000652542               0.000197619               0.999999984               0.000662820               0.000205008               0.999999984               0.000673643               0.000211582               0.999999984               0.000684657               0.000217014               0.999999984               0.000695582               0.000220886               0.999999984               0.000706161               0.000222803               0.999999984               0.000716126               0.000222170               0.999999984               0.000725310               0.000218434               0.999999984               0.000733562               0.000210785               0.999999984               0.000740850               0.000197786               0.999999984               0.000553213               0.000351254               0.999999984               0.000571573               0.000290733               0.999999984               0.000575864               0.000268565               0.999999984               0.000578052               0.000264619               0.999999984               0.000581544               0.000269801               0.999999984               0.000586899               0.000279258               0.999999984               0.000593763               0.000290397               0.999999984               0.000601641               0.000301927               0.999999984               0.000609980               0.000312960               0.999999984               0.000618345               0.000322947               0.999999984               0.000626397               0.000331327               0.999999984               0.000633854               0.000337422               0.999999984               0.000640526               0.000340814               0.999999984               0.000646206               0.000341140               0.999999984               0.000650885               0.000338078               0.999999984               0.000654624               0.000331010               0.999999984               0.000657502               0.000318906               0.999999984               0.000531472               0.000462902               0.999999984               0.000530579               0.000385241               0.999999984               0.000525679               0.000359418               0.999999984               0.000523700               0.000356878               0.999999984               0.000525109               0.000365464               0.999999984               0.000529029               0.000379156               0.999999984               0.000534651               0.000394766               0.999999984               0.000540969               0.000410484               0.999999984               0.000547340               0.000425274               0.999999984               0.000553199               0.000438508               0.999999984               0.000558109               0.000449513               0.999999984               0.000561810               0.000457855               0.999999984               0.000564303               0.000463253               0.999999984               0.000565615               0.000465379               0.999999984               0.000565736               0.000464132               0.999999984               0.000564508               0.000459192               0.999999984               0.000562027               0.000450263               0.999999984               0.000504107               0.000570048               0.999999984               0.000481599               0.000478207               0.999999984               0.000468409               0.000451018               0.999999984               0.000463489               0.000451153               0.999999984               0.000463919               0.000463771               0.999999984               0.000467498               0.000481922               0.999999984               0.000472349               0.000502009               0.999999984               0.000477287               0.000521827               0.999999984               0.000481564               0.000540082               0.999999984               0.000484530               0.000556114               0.999999984               0.000485953               0.000569406               0.999999984               0.000485654               0.000579814               0.999999984               0.000483701               0.000587264               0.999999984               0.000480091               0.000591569               0.999999984               0.000474715               0.000592566               0.999999984               0.000467622               0.000590192               0.999999984               0.000459130               0.000584830               0.999999984               0.000471758               0.000671585               0.999999984               0.000427256               0.000569543               0.999999984               0.000407856               0.000542935               0.999999984               0.000401979               0.000546530               0.999999984               0.000402972               0.000563371               0.999999984               0.000406839               0.000585990               0.999999984               0.000411314               0.000610114               0.999999984               0.000415035               0.000633305               0.999999984               0.000417062               0.000654280               0.999999984               0.000416972               0.000672515               0.999999984               0.000414479               0.000687657               0.999999984               0.000409631               0.000699878               0.999999984               0.000402390               0.000709203               0.999999984               0.000392824               0.000715527               0.999999984               0.000381167               0.000718761               0.999999984               0.000367747               0.000719199               0.999999984               0.000352991               0.000717683               0.999999984               0.000435136               0.000766448               0.999999984               0.000370201               0.000659050               0.999999984               0.000347532               0.000634423               0.999999984               0.000342941               0.000641680               0.999999984               0.000345522               0.000662613               0.999999984               0.000350306               0.000689029               0.999999984               0.000354518               0.000716400               0.999999984               0.000356601               0.000742301               0.999999984               0.000355932               0.000765397               0.999999984               0.000352061               0.000785321               0.999999984               0.000344868               0.000802002               0.999999984               0.000334485               0.000815649               0.999999984               0.000321106               0.000826372               0.999999984               0.000305031               0.000834366               0.999999984               0.000286639               0.000839803               0.999999984               0.000266666               0.000843281               0.999999984               0.000245662               0.000845438               0.999999984               0.000395542               0.000852975               0.999999984               0.000312556               0.000746571               0.999999984               0.000290728               0.000724271               0.999999984               0.000288838               0.000734876               0.999999984               0.000293664               0.000759351               0.999999984               0.000299324               0.000789061               0.999999984               0.000302803               0.000819159               0.999999984               0.000302803               0.000847055               0.999999984               0.000298622               0.000871753               0.999999984               0.000290025               0.000892918               0.999999984               0.000277127               0.000910647               0.999999984               0.000260378               0.000925275               0.999999984               0.000240042               0.000937191               0.999999984               0.000216751               0.000946771               0.999999984               0.000191569               0.000954590               0.999999984               0.000165588               0.000961253               0.999999984               0.000139227               0.000967094               0.999999984               0.000355003               0.000934340               0.999999984               0.000264986               0.000842488               0.999999984               0.000240112               0.000815592               0.999999984               0.000236979               0.000820257               0.999999984               0.000241350               0.000839871               0.999999984               0.000247199               0.000866479               0.999999984               0.000251575               0.000895239               0.999999984               0.000252771               0.000923552               0.999999984               0.000250197               0.000949716               0.999999984               0.000243384               0.000973193               0.999999984               0.000232329               0.000993783               0.999999984               0.000217255               0.001011701               0.999999984               0.000198406               0.001027120               0.999999984               0.000175925               0.001040424               0.999999984               0.000150563               0.001052097               0.999999984               0.000123976               0.001062654               0.999999984               0.000097201               0.001072450               0.999999984               0.000310658               0.001008000               0.999999984               0.000220315               0.000934740               0.999999984               0.000192495               0.000908669               0.999999984               0.000187315               0.000909395               0.999999984               0.000190453               0.000925113               0.999999984               0.000195833               0.000948993               0.999999984               0.000200451               0.000976443               0.999999984               0.000202506               0.001004898               0.999999984               0.000201323               0.001032427               0.999999984               0.000196147               0.001058170               0.999999984               0.000186922               0.001081670               0.999999984               0.000173528               0.001102859               0.999999984               0.000156020               0.001121721               0.999999984               0.000134465               0.001138502               0.999999984               0.000109157               0.001153522               0.999999984               0.000081172               0.001167427               0.999999984               0.000051974               0.001180722               0.999999984               0.000263525               0.001072264               0.999999984               0.000178509               0.001020599               0.999999984               0.000149237               0.000999287               0.999999984               0.000141750               0.000999018               0.999999984               0.000143030               0.001012350               0.999999984               0.000147393               0.001034040               0.999999984               0.000151705               0.001060498               0.999999984               0.000154079               0.001089076               0.999999984               0.000153751               0.001118058               0.999999984               0.000150003               0.001146244               0.999999984               0.000142605               0.001172884               0.999999984               0.000131139               0.001197602               0.999999984               0.000115218               0.001220218               0.999999984               0.000094757               0.001240853               0.999999984               0.000069765               0.001259672               0.999999984               0.000040472               0.001277095               0.999999984               0.000007910               0.001293667               0.999999984               0.000213975               0.001126226               0.999999984               0.000139399               0.001096738               0.999999984               0.000110933               0.001083064               0.999999984               0.000101903               0.001084377               0.999999984               0.000101318               0.001097171               0.999999984               0.000104132               0.001117781               0.999999984               0.000107665               0.001143602               0.999999984               0.000109926               0.001172461               0.999999984               0.000110013               0.001202757               0.999999984               0.000107419               0.001233355               0.999999984               0.000101705               0.001263343               0.999999984               0.000092262               0.001292059               0.999999984               0.000078481               0.001319095               0.999999984               0.000059784               0.001344336               0.999999984               0.000035778               0.001367762               0.999999984               0.000006366               0.001389518               0.999999984              -0.000028657               0.001409998               0.999999984               0.000162358               0.001169188               0.999999984               0.000102604               0.001159880               0.999999984               0.000077678               0.001155097               0.999999984               0.000068531               0.001159935               0.999999984               0.000066666               0.001173646               0.999999984               0.000068015               0.001194381               0.999999984               0.000070361               0.001220278               0.999999984               0.000072085               0.001249666               0.999999984               0.000072291               0.001281297               0.999999984               0.000070503               0.001314078               0.999999984               0.000066336               0.001347181               0.999999984               0.000059098               0.001379846               0.999999984               0.000047997               0.001411551               0.999999984               0.000032213               0.001441889               0.999999984               0.000011164               0.001470605               0.999999984              -0.000015798               0.001497525               0.999999984              -0.000050053               0.001522724               0.999999984               0.000109139               0.001200433               0.999999984               0.000067518               0.001207320               0.999999984               0.000048927               0.001210798               0.999999984               0.000041395               0.001219680               0.999999984               0.000039236               0.001235261               0.999999984               0.000039567               0.001256803               0.999999984               0.000040817               0.001283314               0.999999984               0.000041865               0.001313520               0.999999984               0.000041951               0.001346426               0.999999984               0.000040749               0.001381057               0.999999984               0.000038004               0.001416677               0.999999984               0.000033101               0.001452646               0.999999984               0.000025214               0.001488410               0.999999984               0.000013727               0.001523362               0.999999984              -0.000001824               0.001557048               0.999999984              -0.000022768               0.001589150               0.999999984              -0.000050734               0.001619382               0.999999984               0.000054841               0.001219387               0.999999984               0.000033505               0.001236751               0.999999984               0.000023587               0.001246164               0.999999984               0.000019264               0.001258119               0.999999984               0.000017847               0.001275404               0.999999984               0.000017843               0.001297982               0.999999984               0.000018355               0.001325171               0.999999984               0.000018768               0.001356120               0.999999984               0.000018727               0.001389931               0.999999984               0.000018177               0.001425771               0.999999984               0.000016811               0.001463044               0.999999984               0.000014246               0.001501164               0.999999984               0.000010138               0.001539591               0.999999984               0.000004173               0.001577684               0.999999984              -0.000004117               0.001615044               0.999999984              -0.000015529               0.001651086               0.999999984              -0.000031271               0.001685222               0.999999984              -0.000000000               0.001225778               0.999999984               0.000000000               0.001246704               0.999999984               0.000000000               0.001258277               0.999999984              -0.000000000               0.001271491               0.999999984              -0.000000000               0.001289371               0.999999984               0.000000000               0.001312334               0.999999984              -0.000000000               0.001339905               0.999999984              -0.000000000               0.001371145               0.999999984               0.000000000               0.001405274               0.999999984               0.000000000               0.001441582               0.999999984              -0.000000000               0.001479517               0.999999984              -0.000000000               0.001518361               0.999999984               0.000000000               0.001557674               0.999999984               0.000000000               0.001596929               0.999999984               0.000000000               0.001635653               0.999999984               0.000000000               0.001673197               0.999999984               0.000000000               0.001708822               0.999999984 </DataArray>
<DataArray type="Float64"                                    Name="stress"                                                      NumberOfComponents="10" format="ascii">
              0.001993971               0.021758538              -0.000000000              -0.001972073               0.007910131               0.005938058               0.000000000               0.000000000               0.000000000               0.000000000               0.002001961               0.017120256              -0.000000000              -0.001389293               0.006169793               0.004780499               0.000000000               0.000000000               0.000000000               0.000000000               0.002655880               0.013376106              -0.000000000              -0.000676057               0.004684010               0.004007953               0.000000000               0.000000000               0.000000000               0.000000000               0.002578669               0.011289324               0.000000000              -0.000444164               0.003911125               0.003466961               0.000000000               0.000000000               0.000000000               0.000000000               0.002268432               0.009998339               0.000000000              -0.000399129               0.003465789               0.003066660               0.000000000               0.000000000               0.000000000               0.000000000               0.001905972               0.009110756              -0.000000000              -0.000424104               0.003178256               0.002754152               0.000000000               0.000000000               0.000000000               0.000000000               0.001564940               0.008447709              -0.000000000              -0.000469110               0.002972245               0.002503135               0.000000000               0.000000000               0.000000000               0.000000000               0.001262082               0.007921766              -0.000000000              -0.000516939               0.002812875               0.002295937               0.000000000               0.000000000               0.000000000               0.000000000               0.000994885               0.007476696              -0.000000000              -0.000561504               0.002679375               0.002117871               0.000000000               0.000000000               0.000000000               0.000000000               0.000767004               0.007074915               0.000000000              -0.000596736               0.002557193               0.001960457               0.000000000               0.000000000               0.000000000               0.000000000               0.000571103               0.006690473              -0.000000000              -0.000622144               0.002437517               0.001815373               0.000000000               0.000000000               0.000000000               0.000000000               0.000397371               0.006308153               0.000000000              -0.000639503               0.002315864               0.001676361               0.000000000               0.000000000               0.000000000               0.000000000               0.000252429               0.005918738               0.000000000              -0.000645180               0.002187953               0.001542773               0.000000000               0.000000000               0.000000000               0.000000000               0.000143766               0.005505943              -0.000000000              -0.000634329               0.002046739               0.001412410               0.000000000               0.000000000               0.000000000               0.000000000               0.000070378               0.005054139              -0.000000000              -0.000605374               0.001886488               0.001281113               0.000000000               0.000000000               0.000000000               0.000000000               0.000025977               0.004541582               0.000000000              -0.000557955               0.001699830               0.001141875               0.000000000               0.000000000               0.000000000               0.000000000              -0.000031181               0.004146264               0.000000000              -0.000529975               0.001558732               0.001028758               0.000000000               0.000000000               0.000000000               0.000000000               0.002071692               0.021319179              -0.001500628              -0.001888008               0.007735658               0.005847649               0.000000000               0.000000000               0.000000000               0.000000000               0.001971543               0.016831271              -0.000767244              -0.001364577               0.006065226               0.004700650               0.000000000               0.000000000               0.000000000               0.000000000               0.002507854               0.013247777              -0.000035663              -0.000715525               0.004654390               0.003938865               0.000000000               0.000000000               0.000000000               0.000000000               0.002381877               0.011243688               0.000274771              -0.000512256               0.003918611               0.003406355               0.000000000               0.000000000               0.000000000               0.000000000               0.002062589               0.009994057               0.000399573              -0.000475785               0.003489914               0.003014129               0.000000000               0.000000000               0.000000000               0.000000000               0.001712699               0.009131863               0.000438705              -0.000499220               0.003210330               0.002711111               0.000000000               0.000000000               0.000000000               0.000000000               0.001386789               0.008482117               0.000442313              -0.000540218               0.003007417               0.002467199               0.000000000               0.000000000               0.000000000               0.000000000               0.001098809               0.007957875               0.000432143              -0.000582680               0.002846825               0.002264145               0.000000000               0.000000000               0.000000000               0.000000000               0.000851148               0.007511398               0.000414409              -0.000619743               0.002710355               0.002090612               0.000000000               0.000000000               0.000000000               0.000000000               0.000640368               0.007107173               0.000391770              -0.000648257               0.002585120               0.001936863               0.000000000               0.000000000               0.000000000               0.000000000               0.000462932               0.006725746               0.000367718              -0.000667117               0.002464265               0.001797148               0.000000000               0.000000000               0.000000000               0.000000000               0.000315916               0.006352722               0.000343923              -0.000675620               0.002342760               0.001667139               0.000000000               0.000000000               0.000000000               0.000000000               0.000196695               0.005976083               0.000314449              -0.000673248               0.002216424               0.001543176               0.000000000               0.000000000               0.000000000               0.000000000               0.000106763               0.005584798               0.000273714              -0.000658062               0.002080935               0.001422872               0.000000000               0.000000000               0.000000000               0.000000000               0.000048172               0.005169530               0.000217518              -0.000628125               0.001932535               0.001304409               0.000000000               0.000000000               0.000000000               0.000000000               0.000015286               0.004714383               0.000129989              -0.000583564               0.001765967               0.001182403               0.000000000               0.000000000               0.000000000               0.000000000              -0.000030686               0.004373571               0.000081961              -0.000558202               0.001643910               0.001085707               0.000000000               0.000000000               0.000000000               0.000000000               0.002260164               0.020059077              -0.002790124              -0.001659820               0.007239565               0.005579745               0.000000000               0.000000000               0.000000000               0.000000000               0.001861732               0.016012890              -0.001425866              -0.001303459               0.005772063               0.004468604               0.000000000               0.000000000               0.000000000               0.000000000               0.002079854               0.012887389              -0.000076393              -0.000830977               0.004572746               0.003741769               0.000000000               0.000000000               0.000000000               0.000000000               0.001839577               0.011117525               0.000478847              -0.000699848               0.003939087               0.003239240               0.000000000               0.000000000               0.000000000               0.000000000               0.001502243               0.009986206               0.000694668              -0.000684933               0.003557013               0.002872080               0.000000000               0.000000000               0.000000000               0.000000000               0.001175793               0.009183998               0.000756498              -0.000707076               0.003296994               0.002589918               0.000000000               0.000000000               0.000000000               0.000000000               0.000893318               0.008564723               0.000754785              -0.000735594               0.003100077               0.002364483               0.000000000               0.000000000               0.000000000               0.000000000               0.000666217               0.008055730               0.000732152              -0.000757133               0.002937594               0.002180461               0.000000000               0.000000000               0.000000000               0.000000000               0.000483232               0.007613594               0.000699462              -0.000770485               0.002794668               0.002024182               0.000000000               0.000000000               0.000000000               0.000000000               0.000335033               0.007216451               0.000660468              -0.000776417               0.002664265               0.001887848               0.000000000               0.000000000               0.000000000               0.000000000               0.000220166               0.006848853               0.000618505              -0.000773543               0.002540776               0.001767233               0.000000000               0.000000000               0.000000000               0.000000000               0.000131016               0.006493058               0.000571865              -0.000762499               0.002418498               0.001655998               0.000000000               0.000000000               0.000000000               0.000000000               0.000066268               0.006142624               0.000514980              -0.000742976               0.002295179               0.001552204               0.000000000               0.000000000               0.000000000               0.000000000               0.000023794               0.005799428               0.000442201              -0.000716004               0.002171791               0.001455787               0.000000000               0.000000000               0.000000000               0.000000000               0.000001102               0.005464792               0.000344896              -0.000682684               0.002049141               0.001366456               0.000000000               0.000000000               0.000000000               0.000000000              -0.000005741               0.005137077               0.000201013              -0.000644286               0.001927104               0.001282818               0.000000000               0.000000000               0.000000000               0.000000000              -0.000027191               0.004916243               0.000121625              -0.000624726               0.001846973               0.001222248               0.000000000               0.000000000               0.000000000               0.000000000               0.002458252               0.018144069              -0.003715284              -0.001346163               0.006496683               0.005150520               0.000000000               0.000000000               0.000000000               0.000000000               0.001642647               0.014792336              -0.001906451              -0.001233047               0.005341745               0.004108698               0.000000000               0.000000000               0.000000000               0.000000000               0.001420994               0.012359741              -0.000140417              -0.001012092               0.004457237               0.003445144               0.000000000               0.000000000               0.000000000               0.000000000               0.001050730               0.010920359               0.000548725              -0.000971019               0.003963756               0.002992738               0.000000000               0.000000000               0.000000000               0.000000000               0.000713306               0.009948121               0.000803354              -0.000976023               0.003641348               0.002665325               0.000000000               0.000000000               0.000000000               0.000000000               0.000446057               0.009226652               0.000871396              -0.000986058               0.003404206               0.002418148               0.000000000               0.000000000               0.000000000               0.000000000               0.000249191               0.008653545               0.000863569              -0.000988244               0.003213901               0.002225656               0.000000000               0.000000000               0.000000000               0.000000000               0.000111574               0.008169278               0.000828861              -0.000979317               0.003049505               0.002070187               0.000000000               0.000000000               0.000000000               0.000000000               0.000018896               0.007740008               0.000783759              -0.000960413               0.002900114               0.001939702               0.000000000               0.000000000               0.000000000               0.000000000              -0.000040906               0.007352328               0.000733345              -0.000934378               0.002762211               0.001827833               0.000000000               0.000000000               0.000000000               0.000000000              -0.000076585               0.006991515               0.000675241              -0.000902656               0.002631367               0.001728711               0.000000000               0.000000000               0.000000000               0.000000000              -0.000096129               0.006651135               0.000608665              -0.000867438               0.002506169               0.001638731               0.000000000               0.000000000               0.000000000               0.000000000              -0.000098975               0.006332818               0.000532373              -0.000828716               0.002387157               0.001558441               0.000000000               0.000000000               0.000000000               0.000000000              -0.000086898               0.006040624               0.000442966              -0.000787663               0.002276075               0.001488413               0.000000000               0.000000000               0.000000000               0.000000000              -0.000065276               0.005779857               0.000332553              -0.000746959               0.002175586               0.001428627               0.000000000               0.000000000               0.000000000               0.000000000              -0.000036179               0.005559272               0.000184766              -0.000708474               0.002089230               0.001380756               0.000000000               0.000000000               0.000000000               0.000000000              -0.000031751               0.005433699               0.000106001              -0.000691117               0.002041587               0.001350470               0.000000000               0.000000000               0.000000000               0.000000000               0.002541218               0.015805145              -0.004197935              -0.001022687               0.005609224               0.004586537               0.000000000               0.000000000               0.000000000               0.000000000               0.001290642               0.013328505              -0.002188933              -0.001182071               0.004836814               0.003654743               0.000000000               0.000000000               0.000000000               0.000000000               0.000606227               0.011726903              -0.000257550              -0.001238525               0.004321770               0.003083245               0.000000000               0.000000000               0.000000000               0.000000000               0.000148784               0.010652554               0.000452624              -0.001275772               0.003976073               0.002700301               0.000000000               0.000000000               0.000000000               0.000000000              -0.000131631               0.009850434               0.000705011              -0.001280663               0.003710333               0.002429670               0.000000000               0.000000000               0.000000000               0.000000000              -0.000295868               0.009214656               0.000768924              -0.001262780               0.003492448               0.002229668               0.000000000               0.000000000               0.000000000               0.000000000              -0.000380377               0.008688128               0.000756005              -0.001228654               0.003305565               0.002076911               0.000000000               0.000000000               0.000000000               0.000000000              -0.000412457               0.008226255               0.000715121              -0.001182950               0.003136374               0.001953424               0.000000000               0.000000000               0.000000000               0.000000000              -0.000411347               0.007804737               0.000667051              -0.001129845               0.002978168               0.001848323               0.000000000               0.000000000               0.000000000               0.000000000              -0.000386152               0.007413413               0.000615642              -0.001071481               0.002828273               0.001756792               0.000000000               0.000000000               0.000000000               0.000000000              -0.000344926               0.007050085               0.000558093              -0.001010605               0.002686873               0.001676268               0.000000000               0.000000000               0.000000000               0.000000000              -0.000298272               0.006720632               0.000494306              -0.000951929               0.002557498               0.001605569               0.000000000               0.000000000               0.000000000               0.000000000              -0.000251193               0.006427763               0.000420666              -0.000897666               0.002441788               0.001544122               0.000000000               0.000000000               0.000000000               0.000000000              -0.000198612               0.006172721               0.000336786              -0.000846068               0.002339576               0.001493508               0.000000000               0.000000000               0.000000000               0.000000000              -0.000134890               0.005957482               0.000241478              -0.000795267               0.002250897               0.001455629               0.000000000               0.000000000               0.000000000               0.000000000              -0.000064788               0.005789532               0.000128671              -0.000747985               0.002179153               0.001431168               0.000000000               0.000000000               0.000000000               0.000000000              -0.000040805               0.005701259               0.000074098              -0.000727957               0.002143053               0.001415096               0.000000000               0.000000000               0.000000000               0.000000000               0.002391519               0.013274153              -0.004250488              -0.000762451               0.004678823               0.003916371               0.000000000               0.000000000               0.000000000               0.000000000               0.000797379               0.011772448              -0.002301553              -0.001172538               0.004314955               0.003142418               0.000000000               0.000000000               0.000000000               0.000000000              -0.000262986               0.011036870              -0.000446353              -0.001478225               0.004171661               0.002693437               0.000000000               0.000000000               0.000000000               0.000000000              -0.000721445               0.010315708               0.000202142              -0.001560001               0.003958535               0.002398534               0.000000000               0.000000000               0.000000000               0.000000000              -0.000893238               0.009674371               0.000428646              -0.001544257               0.003739510               0.002195254               0.000000000               0.000000000               0.000000000               0.000000000              -0.000921889               0.009118094               0.000491036              -0.001485466               0.003534490               0.002049023               0.000000000               0.000000000               0.000000000               0.000000000              -0.000877512               0.008621795               0.000487270              -0.001406788               0.003342832               0.001936044               0.000000000               0.000000000               0.000000000               0.000000000              -0.000801666               0.008162616               0.000456787              -0.001320949               0.003161161               0.001840212               0.000000000               0.000000000               0.000000000               0.000000000              -0.000710399               0.007733184               0.000421269              -0.001233045               0.002988717               0.001755673               0.000000000               0.000000000               0.000000000               0.000000000              -0.000611981               0.007333789               0.000384214              -0.001146214               0.002826643               0.001680429               0.000000000               0.000000000               0.000000000               0.000000000              -0.000514135               0.006969350               0.000345554              -0.001063967               0.002677749               0.001613782               0.000000000               0.000000000               0.000000000               0.000000000              -0.000420091               0.006648323               0.000305050              -0.000988572               0.002545609               0.001557037               0.000000000               0.000000000               0.000000000               0.000000000              -0.000333990               0.006370758               0.000258189              -0.000921589               0.002430761               0.001509172               0.000000000               0.000000000               0.000000000               0.000000000              -0.000247146               0.006137217               0.000202291              -0.000859830               0.002332328               0.001472499               0.000000000               0.000000000               0.000000000               0.000000000              -0.000156385               0.005945942               0.000137596              -0.000801885               0.002249256               0.001447371               0.000000000               0.000000000               0.000000000               0.000000000              -0.000071471               0.005801435               0.000068143              -0.000751979               0.002184452               0.001432473               0.000000000               0.000000000               0.000000000               0.000000000              -0.000043681               0.005726229               0.000039963              -0.000732157               0.002152776               0.001420619               0.000000000               0.000000000               0.000000000               0.000000000               0.001955036               0.010763252              -0.003944321              -0.000612270               0.003791804               0.003179533               0.000000000               0.000000000               0.000000000               0.000000000               0.000194140               0.010252308              -0.002290147              -0.001208735               0.003820313               0.002611578               0.000000000               0.000000000               0.000000000               0.000000000              -0.001087086               0.010326161              -0.000709187              -0.001698423               0.004008160               0.002309737               0.000000000               0.000000000               0.000000000               0.000000000              -0.001452183               0.009911005              -0.000166432              -0.001783440               0.003898115               0.002114675               0.000000000               0.000000000               0.000000000               0.000000000              -0.001471350               0.009406511               0.000040502              -0.001727566               0.003711328               0.001983762               0.000000000               0.000000000               0.000000000               0.000000000              -0.001357399               0.008904320               0.000119193              -0.001622061               0.003508764               0.001886703               0.000000000               0.000000000               0.000000000               0.000000000              -0.001199038               0.008415410               0.000140535              -0.001501562               0.003305629               0.001804068               0.000000000               0.000000000               0.000000000               0.000000000              -0.001031201               0.007948678               0.000138453              -0.001380282               0.003109627               0.001729345               0.000000000               0.000000000               0.000000000               0.000000000              -0.000865604               0.007512040               0.000131209              -0.001263603               0.002925189               0.001661586               0.000000000               0.000000000               0.000000000               0.000000000              -0.000707607               0.007112937               0.000123375              -0.001154467               0.002755778               0.001601311               0.000000000               0.000000000               0.000000000               0.000000000              -0.000565127               0.006756519               0.000117783              -0.001056485               0.002604312               0.001547827               0.000000000               0.000000000               0.000000000               0.000000000              -0.000438091               0.006444909               0.000114334              -0.000969895               0.002471580               0.001501685               0.000000000               0.000000000               0.000000000               0.000000000              -0.000322137               0.006176919               0.000105658              -0.000892914               0.002356591               0.001463676               0.000000000               0.000000000               0.000000000               0.000000000              -0.000217865               0.005953188               0.000085444              -0.000825846               0.002259658               0.001433812               0.000000000               0.000000000               0.000000000               0.000000000              -0.000128518               0.005775047               0.000055332              -0.000770073               0.002181688               0.001411614               0.000000000               0.000000000               0.000000000               0.000000000              -0.000055647               0.005646732               0.000025601              -0.000726707               0.002124461               0.001397754               0.000000000               0.000000000               0.000000000               0.000000000              -0.000034848               0.005579352               0.000019181              -0.000710485               0.002096594               0.001386109               0.000000000               0.000000000               0.000000000               0.000000000               0.001258417               0.008433587              -0.003369973              -0.000582294               0.003005264               0.002422970               0.000000000               0.000000000               0.000000000               0.000000000              -0.000475638               0.008856806              -0.002200955              -0.001285463               0.003380726               0.002095263               0.000000000               0.000000000               0.000000000               0.000000000              -0.001776609               0.009605891              -0.001039098              -0.001866960               0.003824252               0.001957291               0.000000000               0.000000000               0.000000000               0.000000000              -0.001971299               0.009433171              -0.000594533              -0.001918379               0.003783819               0.001865440               0.000000000               0.000000000               0.000000000               0.000000000              -0.001832356               0.009032504              -0.000384003              -0.001816192               0.003616202               0.001800010               0.000000000               0.000000000               0.000000000               0.000000000              -0.001593843               0.008568367              -0.000272826              -0.001668733               0.003412338               0.001743605               0.000000000               0.000000000               0.000000000               0.000000000              -0.001337567               0.008091120              -0.000209682              -0.001512974               0.003201338               0.001688364               0.000000000               0.000000000               0.000000000               0.000000000              -0.001097685               0.007626287              -0.000169393              -0.001364914               0.002997042               0.001632127               0.000000000               0.000000000               0.000000000               0.000000000              -0.000880292               0.007194018              -0.000136748              -0.001229359               0.002807768               0.001578410               0.000000000               0.000000000               0.000000000               0.000000000              -0.000684603               0.006803116              -0.000103306              -0.001107113               0.002636720               0.001529607               0.000000000               0.000000000               0.000000000               0.000000000              -0.000516793               0.006456077              -0.000068318              -0.001000804               0.002485606               0.001484801               0.000000000               0.000000000               0.000000000               0.000000000              -0.000374708               0.006151585              -0.000033769              -0.000909461               0.002353662               0.001444200               0.000000000               0.000000000               0.000000000               0.000000000              -0.000254216               0.005890995              -0.000005581              -0.000831703               0.002240880               0.001409176               0.000000000               0.000000000               0.000000000               0.000000000              -0.000156573               0.005677645               0.000010254              -0.000768419               0.002148669               0.001380250               0.000000000               0.000000000               0.000000000               0.000000000              -0.000087519               0.005514677               0.000013376              -0.000722152               0.002078925               0.001356772               0.000000000               0.000000000               0.000000000               0.000000000              -0.000040634               0.005400118               0.000009994              -0.000690251               0.002030105               0.001339854               0.000000000               0.000000000               0.000000000               0.000000000              -0.000027378               0.005339457               0.000012783              -0.000677697               0.002005700               0.001328003               0.000000000               0.000000000               0.000000000               0.000000000               0.000409803               0.006448524              -0.002639224              -0.000652390               0.002366949               0.001714559               0.000000000               0.000000000               0.000000000               0.000000000              -0.001117007               0.007607341              -0.002083763              -0.001369793               0.002992352               0.001622559               0.000000000               0.000000000               0.000000000               0.000000000              -0.002287661               0.008895004              -0.001424792              -0.001969744               0.003621553               0.001651809               0.000000000               0.000000000               0.000000000               0.000000000              -0.002304912               0.008954852              -0.001043206              -0.001983694               0.003646152               0.001662458               0.000000000               0.000000000               0.000000000               0.000000000              -0.002042741               0.008668905              -0.000807488              -0.001849636               0.003506151               0.001656515               0.000000000               0.000000000               0.000000000               0.000000000              -0.001713258               0.008268625              -0.000650455              -0.001676046               0.003314863               0.001638817               0.000000000               0.000000000               0.000000000               0.000000000              -0.001388659               0.007826005              -0.000541209              -0.001498994               0.003108307               0.001609313               0.000000000               0.000000000               0.000000000               0.000000000              -0.001095502               0.007385258              -0.000457651              -0.001333967               0.002906384               0.001572417               0.000000000               0.000000000               0.000000000               0.000000000              -0.000836863               0.006970385              -0.000383009              -0.001185119               0.002718478               0.001533359               0.000000000               0.000000000               0.000000000               0.000000000              -0.000614874               0.006591463              -0.000310206              -0.001054508               0.002548635               0.001494127               0.000000000               0.000000000               0.000000000               0.000000000              -0.000433198               0.006251819              -0.000239158              -0.000943924               0.002398560               0.001454636               0.000000000               0.000000000               0.000000000               0.000000000              -0.000286632               0.005953627              -0.000169854              -0.000851688               0.002268419               0.001416730               0.000000000               0.000000000               0.000000000               0.000000000              -0.000174566               0.005695373              -0.000103755              -0.000777382               0.002157566               0.001380184               0.000000000               0.000000000               0.000000000               0.000000000              -0.000109221               0.005478651              -0.000047561              -0.000725788               0.002068128               0.001342340               0.000000000               0.000000000               0.000000000               0.000000000              -0.000088541               0.005309984              -0.000011241              -0.000696949               0.002002294               0.001305344               0.000000000               0.000000000               0.000000000               0.000000000              -0.000084197               0.005187688               0.000003812              -0.000680033               0.001955890               0.001275856               0.000000000               0.000000000               0.000000000               0.000000000              -0.000078969               0.005130736               0.000008117              -0.000670954               0.001933880               0.001262926               0.000000000               0.000000000               0.000000000               0.000000000              -0.000601179               0.004591859              -0.001854961              -0.000799424               0.001797078               0.000997654               0.000000000               0.000000000               0.000000000               0.000000000              -0.001638773               0.006159232              -0.001946768              -0.001384441               0.002514537               0.001130095               0.000000000               0.000000000               0.000000000               0.000000000              -0.002560771               0.007826492              -0.001834963              -0.001938596               0.003255003               0.001316407               0.000000000               0.000000000               0.000000000               0.000000000              -0.002488094               0.008213534              -0.001525631              -0.001959722               0.003391058               0.001431336               0.000000000               0.000000000               0.000000000               0.000000000              -0.002180183               0.008153796              -0.001260750              -0.001836789               0.003330167               0.001493379               0.000000000               0.000000000               0.000000000               0.000000000              -0.001825478               0.007916405              -0.001054624              -0.001674101               0.003196809               0.001522708               0.000000000               0.000000000               0.000000000               0.000000000              -0.001480342               0.007595419              -0.000893668              -0.001504552               0.003033298               0.001528746               0.000000000               0.000000000               0.000000000               0.000000000              -0.001169923               0.007241999              -0.000765064              -0.001343968               0.002861965               0.001517997               0.000000000               0.000000000               0.000000000               0.000000000              -0.000897150               0.006881847              -0.000653695              -0.001196659               0.002692812               0.001496153               0.000000000               0.000000000               0.000000000               0.000000000              -0.000663173               0.006539925              -0.000548131              -0.001066178               0.002535346               0.001469168               0.000000000               0.000000000               0.000000000               0.000000000              -0.000468587               0.006225697              -0.000447839              -0.000953930               0.002393188               0.001439258               0.000000000               0.000000000               0.000000000               0.000000000              -0.000317522               0.005938661              -0.000347800              -0.000861401               0.002266667               0.001405266               0.000000000               0.000000000               0.000000000               0.000000000              -0.000209896               0.005676643              -0.000243525              -0.000788290               0.002154959               0.001366669               0.000000000               0.000000000               0.000000000               0.000000000              -0.000147797               0.005449179              -0.000141280              -0.000736569               0.002061898               0.001325328               0.000000000               0.000000000               0.000000000               0.000000000              -0.000135076               0.005261545              -0.000063037              -0.000708345               0.001989946               0.001281601               0.000000000               0.000000000               0.000000000               0.000000000              -0.000159164               0.005113844              -0.000018992              -0.000698915               0.001937569               0.001238654               0.000000000               0.000000000               0.000000000               0.000000000              -0.000179439               0.005044031              -0.000002437              -0.000697792               0.001913924               0.001216132               0.000000000               0.000000000               0.000000000               0.000000000              -0.001915447               0.002909342              -0.001066767              -0.001081958               0.001330423               0.000248465               0.000000000               0.000000000               0.000000000               0.000000000              -0.002227548               0.004705053              -0.001737368              -0.001423459               0.002042821               0.000619362               0.000000000               0.000000000               0.000000000               0.000000000              -0.002744952               0.006574210              -0.002153020              -0.001851129               0.002808424               0.000957294               0.000000000               0.000000000               0.000000000               0.000000000              -0.002596505               0.007272236              -0.001978635              -0.001882715               0.003051626               0.001168911               0.000000000               0.000000000               0.000000000               0.000000000              -0.002270964               0.007477971              -0.001716943              -0.001786354               0.003088083               0.001301729               0.000000000               0.000000000               0.000000000               0.000000000              -0.001910044               0.007444678              -0.001477989              -0.001646847               0.003030483               0.001383636               0.000000000               0.000000000               0.000000000               0.000000000              -0.001560335               0.007286118              -0.001275736              -0.001495887               0.002927311               0.001431424               0.000000000               0.000000000               0.000000000               0.000000000              -0.001241891               0.007055511              -0.001108193              -0.001347645               0.002801028               0.001453383               0.000000000               0.000000000               0.000000000               0.000000000              -0.000957548               0.006789831              -0.000965747              -0.001207807               0.002665856               0.001458050               0.000000000               0.000000000               0.000000000               0.000000000              -0.000705009               0.006518610              -0.000836245              -0.001079202               0.002532582               0.001453380               0.000000000               0.000000000               0.000000000               0.000000000              -0.000487154               0.006252571              -0.000714266              -0.000964252               0.002405587               0.001441335               0.000000000               0.000000000               0.000000000               0.000000000              -0.000313904               0.005991249              -0.000588551              -0.000866618               0.002285936               0.001419318               0.000000000               0.000000000               0.000000000               0.000000000              -0.000191499               0.005738105              -0.000454495              -0.000789073               0.002175707               0.001386633               0.000000000               0.000000000               0.000000000               0.000000000              -0.000117281               0.005504450              -0.000314545              -0.000732035               0.002078810               0.001346775               0.000000000               0.000000000               0.000000000               0.000000000              -0.000097522               0.005301730              -0.000183435              -0.000699285               0.002000321               0.001301035               0.000000000               0.000000000               0.000000000               0.000000000              -0.000144100               0.005134369              -0.000077487              -0.000695832               0.001943383               0.001247551               0.000000000               0.000000000               0.000000000               0.000000000              -0.000203512               0.005044794              -0.000024791              -0.000706914               0.001917219               0.001210305               0.000000000               0.000000000               0.000000000               0.000000000              -0.003444757               0.001531940              -0.000339850              -0.001483274               0.001005065              -0.000478209               0.000000000               0.000000000               0.000000000               0.000000000              -0.002937481               0.003337349              -0.001435953              -0.001518721               0.001618678               0.000099957               0.000000000               0.000000000               0.000000000               0.000000000              -0.002879609               0.005168005              -0.002274212              -0.001725851               0.002297934               0.000572083               0.000000000               0.000000000               0.000000000               0.000000000              -0.002580959               0.006084107              -0.002273087              -0.001728370               0.002604138               0.000875768               0.000000000               0.000000000               0.000000000               0.000000000              -0.002225928               0.006528399              -0.002065194              -0.001650770               0.002726367               0.001075598               0.000000000               0.000000000               0.000000000               0.000000000              -0.001868575               0.006707644              -0.001826675              -0.001539168               0.002748914               0.001209746               0.000000000               0.000000000               0.000000000               0.000000000              -0.001523288               0.006733020              -0.001603775              -0.001412857               0.002715270               0.001302412               0.000000000               0.000000000               0.000000000               0.000000000              -0.001207405               0.006656223              -0.001409708              -0.001284802               0.002646986               0.001362184               0.000000000               0.000000000               0.000000000               0.000000000              -0.000922675               0.006518917              -0.001244393              -0.001160865               0.002559906               0.001399040               0.000000000               0.000000000               0.000000000               0.000000000              -0.000660353               0.006346871              -0.001100724              -0.001040989               0.002462599               0.001421610               0.000000000               0.000000000               0.000000000               0.000000000              -0.000424749               0.006153866              -0.000966893              -0.000928512               0.002360772               0.001432260               0.000000000               0.000000000               0.000000000               0.000000000              -0.000224688               0.005946102              -0.000826131              -0.000827519               0.002257854               0.001430335               0.000000000               0.000000000               0.000000000               0.000000000              -0.000069336               0.005733978              -0.000673234              -0.000742747               0.002158889               0.001416142               0.000000000               0.000000000               0.000000000               0.000000000               0.000033866               0.005525690              -0.000507842              -0.000678010               0.002067881               0.001389872               0.000000000               0.000000000               0.000000000               0.000000000               0.000077693               0.005329669              -0.000333374              -0.000637072               0.001988896               0.001351824               0.000000000               0.000000000               0.000000000               0.000000000               0.000048357               0.005155173              -0.000161439              -0.000626261               0.001927128               0.001300866               0.000000000               0.000000000               0.000000000               0.000000000              -0.000012791               0.005057837              -0.000069815              -0.000637025               0.001898270               0.001261246               0.000000000               0.000000000               0.000000000               0.000000000              -0.005085484               0.000527050               0.000224950              -0.001972936               0.000833323              -0.001139613               0.000000000               0.000000000               0.000000000               0.000000000              -0.003728054               0.002129368              -0.001084587              -0.001664188               0.001264510              -0.000399679               0.000000000               0.000000000               0.000000000               0.000000000              -0.002992539               0.003726933              -0.002176230              -0.001588066               0.001771653               0.000183587               0.000000000               0.000000000               0.000000000               0.000000000              -0.002467140               0.004748141              -0.002335901              -0.001518692               0.002088927               0.000570235               0.000000000               0.000000000               0.000000000               0.000000000              -0.002046854               0.005378081              -0.002209019              -0.001439828               0.002272618               0.000832790               0.000000000               0.000000000               0.000000000               0.000000000              -0.001689009               0.005751172              -0.002007078              -0.001352272               0.002367795               0.001015523               0.000000000               0.000000000               0.000000000               0.000000000              -0.001361524               0.005958037              -0.001793641              -0.001255324               0.002404433               0.001149109               0.000000000               0.000000000               0.000000000               0.000000000              -0.001058123               0.006046601              -0.001594318              -0.001152619               0.002399719               0.001247100               0.000000000               0.000000000               0.000000000               0.000000000              -0.000778599               0.006055489              -0.001421923              -0.001048909               0.002368112               0.001319203               0.000000000               0.000000000               0.000000000               0.000000000              -0.000515399               0.006007899              -0.001273997              -0.000944260               0.002317366               0.001373106               0.000000000               0.000000000               0.000000000               0.000000000              -0.000269266               0.005915999              -0.001136944              -0.000840473               0.002252137               0.001411664               0.000000000               0.000000000               0.000000000               0.000000000              -0.000044739               0.005790304              -0.000994335              -0.000740564               0.002176937               0.001436373               0.000000000               0.000000000               0.000000000               0.000000000               0.000152077               0.005645605              -0.000836839              -0.000648670               0.002098073               0.001449403               0.000000000               0.000000000               0.000000000               0.000000000               0.000309168               0.005488186              -0.000659759              -0.000570084               0.002019405               0.001449321               0.000000000               0.000000000               0.000000000               0.000000000               0.000416851               0.005322268              -0.000464178              -0.000508963               0.001943726               0.001434763               0.000000000               0.000000000               0.000000000               0.000000000               0.000461022               0.005158951              -0.000245172              -0.000471985               0.001876961               0.001404977               0.000000000               0.000000000               0.000000000               0.000000000               0.000451502               0.005071790              -0.000125018              -0.000464659               0.001845466               0.001380807               0.000000000               0.000000000               0.000000000               0.000000000              -0.006677479              -0.000131844               0.000538640              -0.002487572               0.000785237              -0.001702335               0.000000000               0.000000000               0.000000000               0.000000000              -0.004523587               0.001145233              -0.000739811              -0.001839497               0.000994903              -0.000844594               0.000000000               0.000000000               0.000000000               0.000000000              -0.003092524               0.002396481              -0.001861551              -0.001459254               0.001285235              -0.000174019               0.000000000               0.000000000               0.000000000               0.000000000              -0.002302801               0.003414069              -0.002119118              -0.001290307               0.001568113               0.000277806               0.000000000               0.000000000               0.000000000               0.000000000              -0.001787924               0.004160136              -0.002072000              -0.001190487               0.001783526               0.000593039               0.000000000               0.000000000               0.000000000               0.000000000              -0.001407764               0.004690206              -0.001925429              -0.001114186               0.001934781               0.000820595               0.000000000               0.000000000               0.000000000               0.000000000              -0.001094486               0.005055584              -0.001750202              -0.001042379               0.002032637               0.000990258               0.000000000               0.000000000               0.000000000               0.000000000              -0.000809835               0.005299290              -0.001575471              -0.000966098               0.002088445               0.001122347               0.000000000               0.000000000               0.000000000               0.000000000              -0.000543003               0.005452034              -0.001418952              -0.000885129               0.002112369               0.001227240               0.000000000               0.000000000               0.000000000               0.000000000              -0.000287545               0.005531994              -0.001283000              -0.000799327               0.002110422               0.001311094               0.000000000               0.000000000               0.000000000               0.000000000              -0.000037066               0.005553987              -0.001156364              -0.000708147               0.002087359               0.001379212               0.000000000               0.000000000               0.000000000               0.000000000               0.000208954               0.005529574              -0.001023973              -0.000612838               0.002047452               0.001434614               0.000000000               0.000000000               0.000000000               0.000000000               0.000446919               0.005469300              -0.000876566              -0.000516067               0.001995104               0.001479037               0.000000000               0.000000000               0.000000000               0.000000000               0.000675226               0.005379718              -0.000711358              -0.000419254               0.001932973               0.001513719               0.000000000               0.000000000               0.000000000               0.000000000               0.000888722               0.005266904              -0.000522963              -0.000325091               0.001863981               0.001538889               0.000000000               0.000000000               0.000000000               0.000000000               0.001065712               0.005136637              -0.000287916              -0.000242437               0.001793008               0.001550570               0.000000000               0.000000000               0.000000000               0.000000000               0.001166236               0.005077290              -0.000159607              -0.000197323               0.001758187               0.001560865               0.000000000               0.000000000               0.000000000               0.000000000              -0.008019110              -0.000503770               0.000570836              -0.002944193               0.000813469              -0.002130724               0.000000000               0.000000000               0.000000000               0.000000000              -0.005218651               0.000429710              -0.000442133              -0.002010706               0.000813466              -0.001197240               0.000000000               0.000000000               0.000000000               0.000000000              -0.003178931               0.001316751              -0.001359864              -0.001356691               0.000891141              -0.000465550               0.000000000               0.000000000               0.000000000               0.000000000              -0.002133889               0.002265163              -0.001615656              -0.001083352               0.001116163               0.000032811               0.000000000               0.000000000               0.000000000               0.000000000              -0.001516107               0.003064881              -0.001621233              -0.000951649               0.001338832               0.000387184               0.000000000               0.000000000               0.000000000               0.000000000              -0.001099637               0.003700003              -0.001533552              -0.000874863               0.001524942               0.000650080               0.000000000               0.000000000               0.000000000               0.000000000              -0.000783637               0.004188647              -0.001413083              -0.000817444               0.001668683               0.000851239               0.000000000               0.000000000               0.000000000               0.000000000              -0.000513285               0.004555289              -0.001285523              -0.000761892               0.001772378               0.001010486               0.000000000               0.000000000               0.000000000               0.000000000              -0.000261665               0.004823091              -0.001166830              -0.000701009               0.001841351               0.001140341               0.000000000               0.000000000               0.000000000               0.000000000              -0.000014675               0.005010769              -0.001062838              -0.000631848               0.001880855               0.001249007               0.000000000               0.000000000               0.000000000               0.000000000               0.000234152               0.005136082              -0.000964092              -0.000554202               0.001896744               0.001342542               0.000000000               0.000000000               0.000000000               0.000000000               0.000492261               0.005209782              -0.000858120              -0.000466624               0.001892118               0.001425494               0.000000000               0.000000000               0.000000000               0.000000000               0.000766660               0.005235045              -0.000741318              -0.000366882               0.001867291               0.001500409               0.000000000               0.000000000               0.000000000               0.000000000               0.001063874               0.005218482              -0.000615046              -0.000253357               0.001823929               0.001570572               0.000000000               0.000000000               0.000000000               0.000000000               0.001384443               0.005171294              -0.000463512              -0.000127246               0.001766163               0.001638917               0.000000000               0.000000000               0.000000000               0.000000000               0.001722196               0.005095964              -0.000258913               0.000008827               0.001695695               0.001704523               0.000000000               0.000000000               0.000000000               0.000000000               0.001968292               0.005078790              -0.000150665               0.000103260               0.001658493               0.001761753               0.000000000               0.000000000               0.000000000               0.000000000              -0.008917577              -0.000675140               0.000357231              -0.003259697               0.000861513              -0.002398184               0.000000000               0.000000000               0.000000000               0.000000000              -0.005697784               0.000000388              -0.000201164              -0.002136716               0.000712363              -0.001424353               0.000000000               0.000000000               0.000000000               0.000000000              -0.003243492               0.000607985              -0.000717400              -0.001292306               0.000633426              -0.000658880               0.000000000               0.000000000               0.000000000               0.000000000              -0.002004532               0.001480212              -0.000875938              -0.000936724               0.000805639              -0.000131085               0.000000000               0.000000000               0.000000000               0.000000000              -0.001303091               0.002300340              -0.000893037              -0.000776200               0.001025505               0.000249305               0.000000000               0.000000000               0.000000000               0.000000000              -0.000856852               0.002991472              -0.000854723              -0.000695252               0.001228898               0.000533646               0.000000000               0.000000000               0.000000000               0.000000000              -0.000534991               0.003551690              -0.000794254              -0.000644582               0.001398745               0.000754164               0.000000000               0.000000000               0.000000000               0.000000000              -0.000269615               0.003993654              -0.000726705              -0.000600311               0.001531308               0.000930997               0.000000000               0.000000000               0.000000000               0.000000000              -0.000025458               0.004334511              -0.000663968              -0.000551360               0.001628609               0.001077250               0.000000000               0.000000000               0.000000000               0.000000000               0.000214167               0.004595927              -0.000608352              -0.000494177               0.001696686               0.001202509               0.000000000               0.000000000               0.000000000               0.000000000               0.000459696               0.004793145              -0.000552911              -0.000426756               0.001739951               0.001313195               0.000000000               0.000000000               0.000000000               0.000000000               0.000725391               0.004935288              -0.000493086              -0.000344889               0.001760042               0.001415154               0.000000000               0.000000000               0.000000000               0.000000000               0.001025217               0.005026023              -0.000429457              -0.000243796               0.001756590               0.001512794               0.000000000               0.000000000               0.000000000               0.000000000               0.001368733               0.005074413              -0.000360875              -0.000121027               0.001731796               0.001610770               0.000000000               0.000000000               0.000000000               0.000000000               0.001763045               0.005085654              -0.000275949               0.000025435               0.001686723               0.001712158               0.000000000               0.000000000               0.000000000               0.000000000               0.002224387               0.005055533              -0.000157052               0.000202202               0.001617760               0.001819962               0.000000000               0.000000000               0.000000000               0.000000000               0.002589378               0.005071608              -0.000094896               0.000337063               0.001578165               0.001915227               0.000000000               0.000000000               0.000000000               0.000000000              -0.009234963              -0.000725086              -0.000000000              -0.003372473               0.000882456              -0.002490017               0.000000000               0.000000000               0.000000000               0.000000000              -0.005869861              -0.000143256               0.000000000              -0.002183289               0.000680006              -0.001503283               0.000000000               0.000000000               0.000000000               0.000000000              -0.003268522               0.000362970              -0.000000000              -0.001271066               0.000544675              -0.000726391               0.000000000               0.000000000               0.000000000               0.000000000              -0.001954856               0.001201238              -0.000000000              -0.000883224               0.000694816              -0.000188408               0.000000000               0.000000000               0.000000000               0.000000000              -0.001222018               0.002022224               0.000000000              -0.000711033               0.000911079               0.000200046               0.000000000               0.000000000               0.000000000               0.000000000              -0.000765691               0.002733653               0.000000000              -0.000628839               0.001120822               0.000491982               0.000000000               0.000000000               0.000000000               0.000000000              -0.000441892               0.003317194              -0.000000000              -0.000580357               0.001299173               0.000718815               0.000000000               0.000000000               0.000000000               0.000000000              -0.000176134               0.003782215               0.000000000              -0.000538826               0.001440334               0.000901508               0.000000000               0.000000000               0.000000000               0.000000000               0.000067679               0.004149965               0.000000000              -0.000493365               0.001547763               0.001054398               0.000000000               0.000000000               0.000000000               0.000000000               0.000303105               0.004439752              -0.000000000              -0.000441304               0.001627004               0.001185700               0.000000000               0.000000000               0.000000000               0.000000000               0.000546412               0.004660813              -0.000000000              -0.000377696               0.001679487               0.001301791               0.000000000               0.000000000               0.000000000               0.000000000               0.000816046               0.004824929               0.000000000              -0.000297098               0.001707326               0.001410228               0.000000000               0.000000000               0.000000000               0.000000000               0.001125392               0.004942423               0.000000000              -0.000195780               0.001712718               0.001516937               0.000000000               0.000000000               0.000000000               0.000000000               0.001483691               0.005018113              -0.000000000              -0.000070880               0.001696314               0.001625435               0.000000000               0.000000000               0.000000000               0.000000000               0.001904207               0.005052347              -0.000000000               0.000082534               0.001656588               0.001739121               0.000000000               0.000000000               0.000000000               0.000000000               0.002409237               0.005038450               0.000000000               0.000273655               0.001588248               0.001861903               0.000000000               0.000000000               0.000000000               0.000000000               0.002817681               0.005065793              -0.000000000               0.000423402               0.001547447               0.001970849               0.000000000               0.000000000               0.000000000               0.000000000               0.000000000               0.000000000               0.000000000               0.000000000               0.000000000               0.000000000               0.000000000               0.000000000               0.000000000               0.000000000               0.000000000               0.000000000               0.000000000               0.000000000               0.000000000               0.000000000               0.000000000               0.000000000               0.000000000               0.000000000               0.000000000               0.000000000               0.000000000               0.000000000               0.000000000               0.000000000               0.000000000               0.000000000               0.000000000               0.000000000               0.000000000               0.000000000               0.000000000               0.000000000               0.000000000               0.000000000               0.000000000               0.000000000               0.000000000               0.000000000               0.000000000               0.000000000               0.000000000               0.000000000               0.000000000               0.000000000               0.000000000               0.000000000               0.000000000               0.000000000               0.000000000               0.000000000               0.000000000               0.000000000               0.000000000               0.000000000               0.000000000               0.000000000               0.000000000               0.000000000               0.000000000               0.000000000               0.000000000               0.000000000               0.000000000               0.000000000               0.000000000               0.000000000               0.000000000               0.000000000               0.000000000               0.000000000               0.000000000               0.000000000               0.000000000               0.000000000               0.000000000               0.000000000               0.000000000               0.000000000               0.000000000               0.000000000               0.000000000               0.000000000               0.000000000               0.000000000               0.000000000               0.000000000               0.000000000               0.000000000               0.000000000               0.000000000               0.000000000               0.000000000               0.000000000               0.000000000               0.000000000               0.000000000               0.000000000               0.000000000               0.000000000               0.000000000               0.000000000               0.000000000               0.000000000               0.000000000               0.000000000               0.000000000               0.000000000               0.000000000               0.000000000               0.000000000               0.000000000               0.000000000               0.000000000               0.000000000               0.000000000               0.000000000               0.000000000               0.000000000               0.000000000               0.000000000               0.000000000               0.000000000               0.000000000               0.000000000               0.000000000               0.000000000               0.000000000               0.000000000               0.000000000               0.000000000               0.000000000               0.000000000               0.000000000               0.000000000               0.000000000               0.000000000               0.000000000               0.000000000               0.000000000               0.000000000               0.000000000               0.000000000               0.000000000               0.000000000               0.000000000               0.000000000               0.000000000               0.000000000               0.000000000               0.000000000               0.000000000               0.000000000               0.000000000               0.000000000               0.000000000               0.000000000               0.000000000               0.000000000               0.000000000               0.000000000               0.000000000               0.000000000               0.000000000               0.000000000               0.000000000               0.000000000               0.000000000               0.000000000               0.002071692               0.021319179               0.001500628              -0.001888008               0.007735658               0.005847649               0.000000000               0.000000000               0.000000000               0.000000000               0.001971543               0.016831271               0.000767244              -0.001364577               0.006065226               0.004700650               0.000000000               0.000000000               0.000000000               0.000000000               0.002507854               0.013247777               0.000035663              -0.000715525               0.004654390               0.003938865               0.000000000               0.000000000               0.000000000               0.000000000               0.002381877               0.011243688              -0.000274771              -0.000512256               0.003918611               0.003406355               0.000000000               0.000000000               0.000000000               0.000000000               0.002062589               0.009994057              -0.000399573              -0.000475785               0.003489914               0.003014129               0.000000000               0.000000000               0.000000000               0.000000000               0.001712699               0.009131863              -0.000438705              -0.000499220               0.003210330               0.002711111               0.000000000               0.000000000               0.000000000               0.000000000               0.001386789               0.008482117              -0.000442313              -0.000540218               0.003007417               0.002467199               0.000000000               0.000000000               0.000000000               0.000000000               0.001098809               0.007957875              -0.000432143              -0.000582680               0.002846825               0.002264145               0.000000000               0.000000000               0.000000000               0.000000000               0.000851148               0.007511398              -0.000414409              -0.000619743               0.002710355               0.002090612               0.000000000               0.000000000               0.000000000               0.000000000               0.000640368               0.007107173              -0.000391770              -0.000648257               0.002585120               0.001936863               0.000000000               0.000000000               0.000000000               0.000000000               0.000462932               0.006725746              -0.000367718              -0.000667117               0.002464265               0.001797148               0.000000000               0.000000000               0.000000000               0.000000000               0.000315916               0.006352722              -0.000343923              -0.000675620               0.002342760               0.001667139               0.000000000               0.000000000               0.000000000               0.000000000               0.000196695               0.005976083              -0.000314449              -0.000673248               0.002216424               0.001543176               0.000000000               0.000000000               0.000000000               0.000000000               0.000106763               0.005584798              -0.000273714              -0.000658062               0.002080935               0.001422872               0.000000000               0.000000000               0.000000000               0.000000000               0.000048172               0.005169530              -0.000217518              -0.000628125               0.001932535               0.001304409               0.000000000               0.000000000               0.000000000               0.000000000               0.000015286               0.004714383              -0.000129989              -0.000583564               0.001765967               0.001182403               0.000000000               0.000000000               0.000000000               0.000000000              -0.000030686               0.004373571              -0.000081961              -0.000558202               0.001643910               0.001085707               0.000000000               0.000000000               0.000000000               0.000000000               0.002260164               0.020059077               0.002790124              -0.001659820               0.007239565               0.005579745               0.000000000               0.000000000               0.000000000               0.000000000               0.001861732               0.016012890               0.001425866              -0.001303459               0.005772063               0.004468604               0.000000000               0.000000000               0.000000000               0.000000000               0.002079854               0.012887389               0.000076393              -0.000830977               0.004572746               0.003741769               0.000000000               0.000000000               0.000000000               0.000000000               0.001839577               0.011117525              -0.000478847              -0.000699848               0.003939087               0.003239240               0.000000000               0.000000000               0.000000000               0.000000000               0.001502243               0.009986206              -0.000694668              -0.000684933               0.003557013               0.002872080               0.000000000               0.000000000               0.000000000               0.000000000               0.001175793               0.009183998              -0.000756498              -0.000707076               0.003296994               0.002589918               0.000000000               0.000000000               0.000000000               0.000000000               0.000893318               0.008564723              -0.000754785              -0.000735594               0.003100077               0.002364483               0.000000000               0.000000000               0.000000000               0.000000000               0.000666217               0.008055730              -0.000732152              -0.000757133               0.002937594               0.002180461               0.000000000               0.000000000               0.000000000               0.000000000               0.000483232               0.007613594              -0.000699462              -0.000770485               0.002794668               0.002024182               0.000000000               0.000000000               0.000000000               0.000000000               0.000335033               0.007216451              -0.000660468              -0.000776417               0.002664265               0.001887848               0.000000000               0.000000000               0.000000000               0.000000000               0.000220166               0.006848853              -0.000618505              -0.000773543               0.002540776               0.001767233               0.000000000               0.000000000               0.000000000               0.000000000               0.000131016               0.006493058              -0.000571865              -0.000762499               0.002418498               0.001655998               0.000000000               0.000000000               0.000000000               0.000000000               0.000066268               0.006142624              -0.000514980              -0.000742976               0.002295179               0.001552204               0.000000000               0.000000000               0.000000000               0.000000000               0.000023794               0.005799428              -0.000442201              -0.000716004               0.002171791               0.001455787               0.000000000               0.000000000               0.000000000               0.000000000               0.000001102               0.005464792              -0.000344896              -0.000682684               0.002049141               0.001366456               0.000000000               0.000000000               0.000000000               0.000000000              -0.000005741               0.005137077              -0.000201013              -0.000644286               0.001927104               0.001282818               0.000000000               0.000000000               0.000000000               0.000000000              -0.000027191               0.004916243              -0.000121625              -0.000624726               0.001846973               0.001222248               0.000000000               0.000000000               0.000000000               0.000000000               0.002458252               0.018144069               0.003715284              -0.001346163               0.006496683               0.005150520               0.000000000               0.000000000               0.000000000               0.000000000               0.001642647               0.014792336               0.001906451              -0.001233047               0.005341745               0.004108698               0.000000000               0.000000000               0.000000000               0.000000000               0.001420994               0.012359741               0.000140417              -0.001012092               0.004457237               0.003445144               0.000000000               0.000000000               0.000000000               0.000000000               0.001050730               0.010920359              -0.000548725              -0.000971019               0.003963756               0.002992738               0.000000000               0.000000000               0.000000000               0.000000000               0.000713306               0.009948121              -0.000803354              -0.000976023               0.003641348               0.002665325               0.000000000               0.000000000               0.000000000               0.000000000               0.000446057               0.009226652              -0.000871396              -0.000986058               0.003404206               0.002418148               0.000000000               0.000000000               0.000000000               0.000000000               0.000249191               0.008653545              -0.000863569              -0.000988244               0.003213901               0.002225656               0.000000000               0.000000000               0.000000000               0.000000000               0.000111574               0.008169278              -0.000828861              -0.000979317               0.003049505               0.002070187               0.000000000               0.000000000               0.000000000               0.000000000               0.000018896               0.007740008              -0.000783759              -0.000960413               0.002900114               0.001939702               0.000000000               0.000000000               0.000000000               0.000000000              -0.000040906               0.007352328              -0.000733345              -0.000934378               0.002762211               0.001827833               0.000000000               0.000000000               0.000000000               0.000000000              -0.000076585               0.006991515              -0.000675241              -0.000902656               0.002631367               0.001728711               0.000000000               0.000000000               0.000000000               0.000000000              -0.000096129               0.006651135              -0.000608665              -0.000867438               0.002506169               0.001638731               0.000000000               0.000000000               0.000000000               0.000000000              -0.000098975               0.006332818              -0.000532373              -0.000828716               0.002387157               0.001558441               0.000000000               0.000000000               0.000000000               0.000000000              -0.000086898               0.006040624              -0.000442966              -0.000787663               0.002276075               0.001488413               0.000000000               0.000000000               0.000000000               0.000000000              -0.000065276               0.005779857              -0.000332553              -0.000746959               0.002175586               0.001428627               0.000000000               0.000000000               0.000000000               0.000000000              -0.000036179               0.005559272              -0.000184766              -0.000708474               0.002089230               0.001380756               0.000000000               0.000000000               0.000000000               0.000000000              -0.000031751               0.005433699              -0.000106001              -0.000691117               0.002041587               0.001350470               0.000000000               0.000000000               0.000000000               0.000000000               0.002541218               0.015805145               0.004197935              -0.001022687               0.005609224               0.004586537               0.000000000               0.000000000               0.000000000               0.000000000               0.001290642               0.013328505               0.002188933              -0.001182071               0.004836814               0.003654743               0.000000000               0.000000000               0.000000000               0.000000000               0.000606227               0.011726903               0.000257550              -0.001238525               0.004321770               0.003083245               0.000000000               0.000000000               0.000000000               0.000000000               0.000148784               0.010652554              -0.000452624              -0.001275772               0.003976073               0.002700301               0.000000000               0.000000000               0.000000000               0.000000000              -0.000131631               0.009850434              -0.000705011              -0.001280663               0.003710333               0.002429670               0.000000000               0.000000000               0.000000000               0.000000000              -0.000295868               0.009214656              -0.000768924              -0.001262780               0.003492448               0.002229668               0.000000000               0.000000000               0.000000000               0.000000000              -0.000380377               0.008688128              -0.000756005              -0.001228654               0.003305565               0.002076911               0.000000000               0.000000000               0.000000000               0.000000000              -0.000412457               0.008226255              -0.000715121              -0.001182950               0.003136374               0.001953424               0.000000000               0.000000000               0.000000000               0.000000000              -0.000411347               0.007804737              -0.000667051              -0.001129845               0.002978168               0.001848323               0.000000000               0.000000000               0.000000000               0.000000000              -0.000386152               0.007413413              -0.000615642              -0.001071481               0.002828273               0.001756792               0.000000000               0.000000000               0.000000000               0.000000000              -0.000344926               0.007050085              -0.000558093              -0.001010605               0.002686873               0.001676268               0.000000000               0.000000000               0.000000000               0.000000000              -0.000298272               0.006720632              -0.000494306              -0.000951929               0.002557498               0.001605569               0.000000000               0.000000000               0.000000000               0.000000000              -0.000251193               0.006427763              -0.000420666              -0.000897666               0.002441788               0.001544122               0.000000000               0.000000000               0.000000000               0.000000000              -0.000198612               0.006172721              -0.000336786              -0.000846068               0.002339576               0.001493508               0.000000000               0.000000000               0.000000000               0.000000000              -0.000134890               0.005957482              -0.000241478              -0.000795267               0.002250897               0.001455629               0.000000000               0.000000000               0.000000000               0.000000000              -0.000064788               0.005789532              -0.000128671              -0.000747985               0.002179153               0.001431168               0.000000000               0.000000000               0.000000000               0.000000000              -0.000040805               0.005701259              -0.000074098              -0.000727957               0.002143053               0.001415096               0.000000000               0.000000000               0.000000000               0.000000000               0.002391519               0.013274153               0.004250488              -0.000762451               0.004678823               0.003916371               0.000000000               0.000000000               0.000000000               0.000000000               0.000797379               0.011772448               0.002301553              -0.001172538               0.004314955               0.003142418               0.000000000               0.000000000               0.000000000               0.000000000              -0.000262986               0.011036870               0.000446353              -0.001478225               0.004171661               0.002693437               0.000000000               0.000000000               0.000000000               0.000000000              -0.000721445               0.010315708              -0.000202142              -0.001560001               0.003958535               0.002398534               0.000000000               0.000000000               0.000000000               0.000000000              -0.000893238               0.009674371              -0.000428646              -0.001544257               0.003739510               0.002195254               0.000000000               0.000000000               0.000000000               0.000000000              -0.000921889               0.009118094              -0.000491036              -0.001485466               0.003534490               0.002049023               0.000000000               0.000000000               0.000000000               0.000000000              -0.000877512               0.008621795              -0.000487270              -0.001406788               0.003342832               0.001936044               0.000000000               0.000000000               0.000000000               0.000000000              -0.000801666               0.008162616              -0.000456787              -0.001320949               0.003161161               0.001840212               0.000000000               0.000000000               0.000000000               0.000000000              -0.000710399               0.007733184              -0.000421269              -0.001233045               0.002988717               0.001755673               0.000000000               0.000000000               0.000000000               0.000000000              -0.000611981               0.007333789              -0.000384214              -0.001146214               0.002826643               0.001680429               0.000000000               0.000000000               0.000000000               0.000000000              -0.000514135               0.006969350              -0.000345554              -0.001063967               0.002677749               0.001613782               0.000000000               0.000000000               0.000000000               0.000000000              -0.000420091               0.006648323              -0.000305050              -0.000988572               0.002545609               0.001557037               0.000000000               0.000000000               0.000000000               0.000000000              -0.000333990               0.006370758              -0.000258189              -0.000921589               0.002430761               0.001509172               0.000000000               0.000000000               0.000000000               0.000000000              -0.000247146               0.006137217              -0.000202291              -0.000859830               0.002332328               0.001472499               0.000000000               0.000000000               0.000000000               0.000000000              -0.000156385               0.005945942              -0.000137596              -0.000801885               0.002249256               0.001447371               0.000000000               0.000000000               0.000000000               0.000000000              -0.000071471               0.005801435              -0.000068143              -0.000751979               0.002184452               0.001432473               0.000000000               0.000000000               0.000000000               0.000000000              -0.000043681               0.005726229              -0.000039963              -0.000732157               0.002152776               0.001420619               0.000000000               0.000000000               0.000000000               0.000000000               0.001955036               0.010763252               0.003944321              -0.000612270               0.003791804               0.003179533               0.000000000               0.000000000               0.000000000               0.000000000               0.000194140               0.010252308               0.002290147              -0.001208735               0.003820313               0.002611578               0.000000000               0.000000000               0.000000000               0.000000000              -0.001087086               0.010326161               0.000709187              -0.001698423               0.004008160               0.002309737               0.000000000               0.000000000               0.000000000               0.000000000              -0.001452183               0.009911005               0.000166432              -0.001783440               0.003898115               0.002114675               0.000000000               0.000000000               0.000000000               0.000000000              -0.001471350               0.009406511              -0.000040502              -0.001727566               0.003711328               0.001983762               0.000000000               0.000000000               0.000000000               0.000000000              -0.001357399               0.008904320              -0.000119193              -0.001622061               0.003508764               0.001886703               0.000000000               0.000000000               0.000000000               0.000000000              -0.001199038               0.008415410              -0.000140535              -0.001501562               0.003305629               0.001804068               0.000000000               0.000000000               0.000000000               0.000000000              -0.001031201               0.007948678              -0.000138453              -0.001380282               0.003109627               0.001729345               0.000000000               0.000000000               0.000000000               0.000000000              -0.000865604               0.007512040              -0.000131209              -0.001263603               0.002925189               0.001661586               0.000000000               0.000000000               0.000000000               0.000000000              -0.000707607               0.007112937              -0.000123375              -0.001154467               0.002755778               0.001601311               0.000000000               0.000000000               0.000000000               0.000000000              -0.000565127               0.006756519              -0.000117783              -0.001056485               0.002604312               0.001547827               0.000000000               0.000000000               0.000000000               0.000000000              -0.000438091               0.006444909              -0.000114334              -0.000969895               0.002471580               0.001501685               0.000000000               0.000000000               0.000000000               0.000000000              -0.000322137               0.006176919              -0.000105658              -0.000892914               0.002356591               0.001463676               0.000000000               0.000000000               0.000000000               0.000000000              -0.000217865               0.005953188              -0.000085444              -0.000825846               0.002259658               0.001433812               0.000000000               0.000000000               0.000000000               0.000000000              -0.000128518               0.005775047              -0.000055332              -0.000770073               0.002181688               0.001411614               0.000000000               0.000000000               0.000000000               0.000000000              -0.000055647               0.005646732              -0.000025601              -0.000726707               0.002124461               0.001397754               0.000000000               0.000000000               0.000000000               0.000000000              -0.000034848               0.005579352              -0.000019181              -0.000710485               0.002096594               0.001386109               0.000000000               0.000000000               0.000000000               0.000000000               0.001258417               0.008433587               0.003369973              -0.000582294               0.003005264               0.002422970               0.000000000               0.000000000               0.000000000               0.000000000              -0.000475638               0.008856806               0.002200955              -0.001285463               0.003380726               0.002095263               0.000000000               0.000000000               0.000000000               0.000000000              -0.001776609               0.009605891               0.001039098              -0.001866960               0.003824252               0.001957291               0.000000000               0.000000000               0.000000000               0.000000000              -0.001971299               0.009433171               0.000594533              -0.001918379               0.003783819               0.001865440               0.000000000               0.000000000               0.000000000               0.000000000              -0.001832356               0.009032504               0.000384003              -0.001816192               0.003616202               0.001800010               0.000000000               0.000000000               0.000000000               0.000000000              -0.001593843               0.008568367               0.000272826              -0.001668733               0.003412338               0.001743605               0.000000000               0.000000000               0.000000000               0.000000000              -0.001337567               0.008091120               0.000209682              -0.001512974               0.003201338               0.001688364               0.000000000               0.000000000               0.000000000               0.000000000              -0.001097685               0.007626287               0.000169393              -0.001364914               0.002997042               0.001632127               0.000000000               0.000000000               0.000000000               0.000000000              -0.000880292               0.007194018               0.000136748              -0.001229359               0.002807768               0.001578410               0.000000000               0.000000000               0.000000000               0.000000000              -0.000684603               0.006803116               0.000103306              -0.001107113               0.002636720               0.001529607               0.000000000               0.000000000               0.000000000               0.000000000              -0.000516793               0.006456077               0.000068318              -0.001000804               0.002485606               0.001484801               0.000000000               0.000000000               0.000000000               0.000000000              -0.000374708               0.006151585               0.000033769              -0.000909461               0.002353662               0.001444200               0.000000000               0.000000000               0.000000000               0.000000000              -0.000254216               0.005890995               0.000005581              -0.000831703               0.002240880               0.001409176               0.000000000               0.000000000               0.000000000               0.000000000              -0.000156573               0.005677645              -0.000010254              -0.000768419               0.002148669               0.001380250               0.000000000               0.000000000               0.000000000               0.000000000              -0.000087519               0.005514677              -0.000013376              -0.000722152               0.002078925               0.001356772               0.000000000               0.000000000               0.000000000               0.000000000              -0.000040634               0.005400118              -0.000009994              -0.000690251               0.002030105               0.001339854               0.000000000               0.000000000               0.000000000               0.000000000              -0.000027378               0.005339457              -0.000012783              -0.000677697               0.002005700               0.001328003               0.000000000               0.000000000               0.000000000               0.000000000               0.000409803               0.006448524               0.002639224              -0.000652390               0.002366949               0.001714559               0.000000000               0.000000000               0.000000000               0.000000000              -0.001117007               0.007607341               0.002083763              -0.001369793               0.002992352               0.001622559               0.000000000               0.000000000               0.000000000               0.000000000              -0.002287661               0.008895004               0.001424792              -0.001969744               0.003621553               0.001651809               0.000000000               0.000000000               0.000000000               0.000000000              -0.002304912               0.008954852               0.001043206              -0.001983694               0.003646152               0.001662458               0.000000000               0.000000000               0.000000000               0.000000000              -0.002042741               0.008668905               0.000807488              -0.001849636               0.003506151               0.001656515               0.000000000               0.000000000               0.000000000               0.000000000              -0.001713258               0.008268625               0.000650455              -0.001676046               0.003314863               0.001638817               0.000000000               0.000000000               0.000000000               0.000000000              -0.001388659               0.007826005               0.000541209              -0.001498994               0.003108307               0.001609313               0.000000000               0.000000000               0.000000000               0.000000000              -0.001095502               0.007385258               0.000457651              -0.001333967               0.002906384               0.001572417               0.000000000               0.000000000               0.000000000               0.000000000              -0.000836863               0.006970385               0.000383009              -0.001185119               0.002718478               0.001533359               0.000000000               0.000000000               0.000000000               0.000000000              -0.000614874               0.006591463               0.000310206              -0.001054508               0.002548635               0.001494127               0.000000000               0.000000000               0.000000000               0.000000000              -0.000433198               0.006251819               0.000239158              -0.000943924               0.002398560               0.001454636               0.000000000               0.000000000               0.000000000               0.000000000              -0.000286632               0.005953627               0.000169854              -0.000851688               0.002268419               0.001416730               0.000000000               0.000000000               0.000000000               0.000000000              -0.000174566               0.005695373               0.000103755              -0.000777382               0.002157566               0.001380184               0.000000000               0.000000000               0.000000000               0.000000000              -0.000109221               0.005478651               0.000047561              -0.000725788               0.002068128               0.001342340               0.000000000               0.000000000               0.000000000               0.000000000              -0.000088541               0.005309984               0.000011241              -0.000696949               0.002002294               0.001305344               0.000000000               0.000000000               0.000000000               0.000000000              -0.000084197               0.005187688              -0.000003812              -0.000680033               0.001955890               0.001275856               0.000000000               0.000000000               0.000000000               0.000000000              -0.000078969               0.005130736              -0.000008117              -0.000670954               0.001933880               0.001262926               0.000000000               0.000000000               0.000000000               0.000000000              -0.000601179               0.004591859               0.001854961              -0.000799424               0.001797078               0.000997654               0.000000000               0.000000000               0.000000000               0.000000000              -0.001638773               0.006159232               0.001946768              -0.001384441               0.002514537               0.001130095               0.000000000               0.000000000               0.000000000               0.000000000              -0.002560771               0.007826492               0.001834963              -0.001938596               0.003255003               0.001316407               0.000000000               0.000000000               0.000000000               0.000000000              -0.002488094               0.008213534               0.001525631              -0.001959722               0.003391058               0.001431336               0.000000000               0.000000000               0.000000000               0.000000000              -0.002180183               0.008153796               0.001260750              -0.001836789               0.003330167               0.001493379               0.000000000               0.000000000               0.000000000               0.000000000              -0.001825478               0.007916405               0.001054624              -0.001674101               0.003196809               0.001522708               0.000000000               0.000000000               0.000000000               0.000000000              -0.001480342               0.007595419               0.000893668              -0.001504552               0.003033298               0.001528746               0.000000000               0.000000000               0.000000000               0.000000000              -0.001169923               0.007241999               0.000765064              -0.001343968               0.002861965               0.001517997               0.000000000               0.000000000               0.000000000               0.000000000              -0.000897150               0.006881847               0.000653695              -0.001196659               0.002692812               0.001496153               0.000000000               0.000000000               0.000000000               0.000000000              -0.000663173               0.006539925               0.000548131              -0.001066178               0.002535346               0.001469168               0.000000000               0.000000000               0.000000000               0.000000000              -0.000468587               0.006225697               0.000447839              -0.000953930               0.002393188               0.001439258               0.000000000               0.000000000               0.000000000               0.000000000              -0.000317522               0.005938661               0.000347800              -0.000861401               0.002266667               0.001405266               0.000000000               0.000000000               0.000000000               0.000000000              -0.000209896               0.005676643               0.000243525              -0.000788290               0.002154959               0.001366669               0.000000000               0.000000000               0.000000000               0.000000000              -0.000147797               0.005449179               0.000141280              -0.000736569               0.002061898               0.001325328               0.000000000               0.000000000               0.000000000               0.000000000              -0.000135076               0.005261545               0.000063037              -0.000708345               0.001989946               0.001281601               0.000000000               0.000000000               0.000000000               0.000000000              -0.000159164               0.005113844               0.000018992              -0.000698915               0.001937569               0.001238654               0.000000000               0.000000000               0.000000000               0.000000000              -0.000179439               0.005044031               0.000002437              -0.000697792               0.001913924               0.001216132               0.000000000               0.000000000               0.000000000               0.000000000              -0.001915447               0.002909342               0.001066767              -0.001081958               0.001330423               0.000248465               0.000000000               0.000000000               0.000000000               0.000000000              -0.002227548               0.004705053               0.001737368              -0.001423459               0.002042821               0.000619362               0.000000000               0.000000000               0.000000000               0.000000000              -0.002744952               0.006574210               0.002153020              -0.001851129               0.002808424               0.000957294               0.000000000               0.000000000               0.000000000               0.000000000              -0.002596505               0.007272236               0.001978635              -0.001882715               0.003051626               0.001168911               0.000000000               0.000000000               0.000000000               0.000000000              -0.002270964               0.007477971               0.001716943              -0.001786354               0.003088083               0.001301729               0.000000000               0.000000000               0.000000000               0.000000000              -0.001910044               0.007444678               0.001477989              -0.001646847               0.003030483               0.001383636               0.000000000               0.000000000               0.000000000               0.000000000              -0.001560335               0.007286118               0.001275736              -0.001495887               0.002927311               0.001431424               0.000000000               0.000000000               0.000000000               0.000000000              -0.001241891               0.007055511               0.001108193              -0.001347645               0.002801028               0.001453383               0.000000000               0.000000000               0.000000000               0.000000000              -0.000957548               0.006789831               0.000965747              -0.001207807               0.002665856               0.001458050               0.000000000               0.000000000               0.000000000               0.000000000              -0.000705009               0.006518610               0.000836245              -0.001079202               0.002532582               0.001453380               0.000000000               0.000000000               0.000000000               0.000000000              -0.000487154               0.006252571               0.000714266              -0.000964252               0.002405587               0.001441335               0.000000000               0.000000000               0.000000000               0.000000000              -0.000313904               0.005991249               0.000588551              -0.000866618               0.002285936               0.001419318               0.000000000               0.000000000               0.000000000               0.000000000              -0.000191499               0.005738105               0.000454495              -0.000789073               0.002175707               0.001386633               0.000000000               0.000000000               0.000000000               0.000000000              -0.000117281               0.005504450               0.000314545              -0.000732035               0.002078810               0.001346775               0.000000000               0.000000000               0.000000000               0.000000000              -0.000097522               0.005301730               0.000183435              -0.000699285               0.002000321               0.001301035               0.000000000               0.000000000               0.000000000               0.000000000              -0.000144100               0.005134369               0.000077487              -0.000695832               0.001943383               0.001247551               0.000000000               0.000000000               0.000000000               0.000000000              -0.000203512               0.005044794               0.000024791              -0.000706914               0.001917219               0.001210305               0.000000000               0.000000000               0.000000000               0.000000000              -0.003444757               0.001531940               0.000339850              -0.001483274               0.001005065              -0.000478209               0.000000000               0.000000000               0.000000000               0.000000000              -0.002937481               0.003337349               0.001435953              -0.001518721               0.001618678               0.000099957               0.000000000               0.000000000               0.000000000               0.000000000              -0.002879609               0.005168005               0.002274212              -0.001725851               0.002297934               0.000572083               0.000000000               0.000000000               0.000000000               0.000000000              -0.002580959               0.006084107               0.002273087              -0.001728370               0.002604138               0.000875768               0.000000000               0.000000000               0.000000000               0.000000000              -0.002225928               0.006528399               0.002065194              -0.001650770               0.002726367               0.001075598               0.000000000               0.000000000               0.000000000               0.000000000              -0.001868575               0.006707644               0.001826675              -0.001539168               0.002748914               0.001209746               0.000000000               0.000000000               0.000000000               0.000000000              -0.001523288               0.006733020               0.001603775              -0.001412857               0.002715270               0.001302412               0.000000000               0.000000000               0.000000000               0.000000000              -0.001207405               0.006656223               0.001409708              -0.001284802               0.002646986               0.001362184               0.000000000               0.000000000               0.000000000               0.000000000              -0.000922675               0.006518917               0.001244393              -0.001160865               0.002559906               0.001399040               0.000000000               0.000000000               0.000000000               0.000000000              -0.000660353               0.006346871               0.001100724              -0.001040989               0.002462599               0.001421610               0.000000000               0.000000000               0.000000000               0.000000000              -0.000424749               0.006153866               0.000966893              -0.000928512               0.002360772               0.001432260               0.000000000               0.000000000               0.000000000               0.000000000              -0.000224688               0.005946102               0.000826131              -0.000827519               0.002257854               0.001430335               0.000000000               0.000000000               0.000000000               0.000000000              -0.000069336               0.005733978               0.000673234              -0.000742747               0.002158889               0.001416142               0.000000000               0.000000000               0.000000000               0.000000000               0.000033866               0.005525690               0.000507842              -0.000678010               0.002067881               0.001389872               0.000000000               0.000000000               0.000000000               0.000000000               0.000077693               0.005329669               0.000333374              -0.000637072               0.001988896               0.001351824               0.000000000               0.000000000               0.000000000               0.000000000               0.000048357               0.005155173               0.000161439              -0.000626261               0.001927128               0.001300866               0.000000000               0.000000000               0.000000000               0.000000000              -0.000012791               0.005057837               0.000069815              -0.000637025               0.001898270               0.001261246               0.000000000               0.000000000               0.000000000               0.000000000              -0.005085484               0.000527050              -0.000224950              -0.001972936               0.000833323              -0.001139613               0.000000000               0.000000000               0.000000000               0.000000000              -0.003728054               0.002129368               0.001084587              -0.001664188               0.001264510              -0.000399679               0.000000000               0.000000000               0.000000000               0.000000000              -0.002992539               0.003726933               0.002176230              -0.001588066               0.001771653               0.000183587               0.000000000               0.000000000               0.000000000               0.000000000              -0.002467140               0.004748141               0.002335901              -0.001518692               0.002088927               0.000570235               0.000000000               0.000000000               0.000000000               0.000000000              -0.002046854               0.005378081               0.002209019              -0.001439828               0.002272618               0.000832790               0.000000000               0.000000000               0.000000000               0.000000000              -0.001689009               0.005751172               0.002007078              -0.001352272               0.002367795               0.001015523               0.000000000               0.000000000               0.000000000               0.000000000              -0.001361524               0.005958037               0.001793641              -0.001255324               0.002404433               0.001149109               0.000000000               0.000000000               0.000000000               0.000000000              -0.001058123               0.006046601               0.001594318              -0.001152619               0.002399719               0.001247100               0.000000000               0.000000000               0.000000000               0.000000000              -0.000778599               0.006055489               0.001421923              -0.001048909               0.002368112               0.001319203               0.000000000               0.000000000               0.000000000               0.000000000              -0.000515399               0.006007899               0.001273997              -0.000944260               0.002317366               0.001373106               0.000000000               0.000000000               0.000000000               0.000000000              -0.000269266               0.005915999               0.001136944              -0.000840473               0.002252137               0.001411664               0.000000000               0.000000000               0.000000000               0.000000000              -0.000044739               0.005790304               0.000994335              -0.000740564               0.002176937               0.001436373               0.000000000               0.000000000               0.000000000               0.000000000               0.000152077               0.005645605               0.000836839              -0.000648670               0.002098073               0.001449403               0.000000000               0.000000000               0.000000000               0.000000000               0.000309168               0.005488186               0.000659759              -0.000570084               0.002019405               0.001449321               0.000000000               0.000000000               0.000000000               0.000000000               0.000416851               0.005322268               0.000464178              -0.000508963               0.001943726               0.001434763               0.000000000               0.000000000               0.000000000               0.000000000               0.000461022               0.005158951               0.000245172              -0.000471985               0.001876961               0.001404977               0.000000000               0.000000000               0.000000000               0.000000000               0.000451502               0.005071790               0.000125018              -0.000464659               0.001845466               0.001380807               0.000000000               0.000000000               0.000000000               0.000000000              -0.006677479              -0.000131844              -0.000538640              -0.002487572               0.000785237              -0.001702335               0.000000000               0.000000000               0.000000000               0.000000000              -0.004523587               0.001145233               0.000739811              -0.001839497               0.000994903              -0.000844594               0.000000000               0.000000000               0.000000000               0.000000000              -0.003092524               0.002396481               0.001861551              -0.001459254               0.001285235              -0.000174019               0.000000000               0.000000000               0.000000000               0.000000000              -0.002302801               0.003414069               0.002119118              -0.001290307               0.001568113               0.000277806               0.000000000               0.000000000               0.000000000               0.000000000              -0.001787924               0.004160136               0.002072000              -0.001190487               0.001783526               0.000593039               0.000000000               0.000000000               0.000000000               0.000000000              -0.001407764               0.004690206               0.001925429              -0.001114186               0.001934781               0.000820595               0.000000000               0.000000000               0.000000000               0.000000000              -0.001094486               0.005055584               0.001750202              -0.001042379               0.002032637               0.000990258               0.000000000               0.000000000               0.000000000               0.000000000              -0.000809835               0.005299290               0.001575471              -0.000966098               0.002088445               0.001122347               0.000000000               0.000000000               0.000000000               0.000000000              -0.000543003               0.005452034               0.001418952              -0.000885129               0.002112369               0.001227240               0.000000000               0.000000000               0.000000000               0.000000000              -0.000287545               0.005531994               0.001283000              -0.000799327               0.002110422               0.001311094               0.000000000               0.000000000               0.000000000               0.000000000              -0.000037066               0.005553987               0.001156364              -0.000708147               0.002087359               0.001379212               0.000000000               0.000000000               0.000000000               0.000000000               0.000208954               0.005529574               0.001023973              -0.000612838               0.002047452               0.001434614               0.000000000               0.000000000               0.000000000               0.000000000               0.000446919               0.005469300               0.000876566              -0.000516067               0.001995104               0.001479037               0.000000000               0.000000000               0.000000000               0.000000000               0.000675226               0.005379718               0.000711358              -0.000419254               0.001932973               0.001513719               0.000000000               0.000000000               0.000000000               0.000000000               0.000888722               0.005266904               0.000522963              -0.000325091               0.001863981               0.001538889               0.000000000               0.000000000               0.000000000               0.000000000               0.001065712               0.005136637               0.000287916              -0.000242437               0.001793008               0.001550570               0.000000000               0.000000000               0.000000000               0.000000000               0.001166236               0.005077290               0.000159607              -0.000197323               0.001758187               0.001560865               0.000000000               0.000000000               0.000000000               0.000000000              -0.008019110              -0.000503770              -0.000570836              -0.002944193               0.000813469              -0.002130724               0.000000000               0.000000000               0.000000000               0.000000000              -0.005218651               0.000429710               0.000442133              -0.002010706               0.000813466              -0.001197240               0.000000000               0.000000000               0.000000000               0.000000000              -0.003178931               0.001316751               0.001359864              -0.001356691               0.000891141              -0.000465550               0.000000000               0.000000000               0.000000000               0.000000000              -0.002133889               0.002265163               0.001615656              -0.001083352               0.001116163               0.000032811               0.000000000               0.000000000               0.000000000               0.000000000              -0.001516107               0.003064881               0.001621233              -0.000951649               0.001338832               0.000387184               0.000000000               0.000000000               0.000000000               0.000000000              -0.001099637               0.003700003               0.001533552              -0.000874863               0.001524942               0.000650080               0.000000000               0.000000000               0.000000000               0.000000000              -0.000783637               0.004188647               0.001413083              -0.000817444               0.001668683               0.000851239               0.000000000               0.000000000               0.000000000               0.000000000              -0.000513285               0.004555289               0.001285523              -0.000761892               0.001772378               0.001010486               0.000000000               0.000000000               0.000000000               0.000000000              -0.000261665               0.004823091               0.001166830              -0.000701009               0.001841351               0.001140341               0.000000000               0.000000000               0.000000000               0.000000000              -0.000014675               0.005010769               0.001062838              -0.000631848               0.001880855               0.001249007               0.000000000               0.000000000               0.000000000               0.000000000               0.000234152               0.005136082               0.000964092              -0.000554202               0.001896744               0.001342542               0.000000000               0.000000000               0.000000000               0.000000000               0.000492261               0.005209782               0.000858120              -0.000466624               0.001892118               0.001425494               0.000000000               0.000000000               0.000000000               0.000000000               0.000766660               0.005235045               0.000741318              -0.000366882               0.001867291               0.001500409               0.000000000               0.000000000               0.000000000               0.000000000               0.001063874               0.005218482               0.000615046              -0.000253357               0.001823929               0.001570572               0.000000000               0.000000000               0.000000000               0.000000000               0.001384443               0.005171294               0.000463512              -0.000127246               0.001766163               0.001638917               0.000000000               0.000000000               0.000000000               0.000000000               0.001722196               0.005095964               0.000258913               0.000008827               0.001695695               0.001704523               0.000000000               0.000000000               0.000000000               0.000000000               0.001968292               0.005078790               0.000150665               0.000103260               0.001658493               0.001761753               0.000000000               0.000000000               0.000000000               0.000000000              -0.008917577              -0.000675140              -0.000357231              -0.003259697               0.000861513              -0.002398184               0.000000000               0.000000000               0.000000000               0.000000000              -0.005697784               0.000000388               0.000201164              -0.002136716               0.000712363              -0.001424353               0.000000000               0.000000000               0.000000000               0.000000000              -0.003243492               0.000607985               0.000717400              -0.001292306               0.000633426              -0.000658880               0.000000000               0.000000000               0.000000000               0.000000000              -0.002004532               0.001480212               0.000875938              -0.000936724               0.000805639              -0.000131085               0.000000000               0.000000000               0.000000000               0.000000000              -0.001303091               0.002300340               0.000893037              -0.000776200               0.001025505               0.000249305               0.000000000               0.000000000               0.000000000               0.000000000              -0.000856852               0.002991472               0.000854723              -0.000695252               0.001228898               0.000533646               0.000000000               0.000000000               0.000000000               0.000000000              -0.000534991               0.003551690               0.000794254              -0.000644582               0.001398745               0.000754164               0.000000000               0.000000000               0.000000000               0.000000000              -0.000269615               0.003993654               0.000726705              -0.000600311               0.001531308               0.000930997               0.000000000               0.000000000               0.000000000               0.000000000              -0.000025458               0.004334511               0.000663968              -0.000551360               0.001628609               0.001077250               0.000000000               0.000000000               0.000000000               0.000000000               0.000214167               0.004595927               0.000608352              -0.000494177               0.001696686               0.001202509               0.000000000               0.000000000               0.000000000               0.000000000               0.000459696               0.004793145               0.000552911              -0.000426756               0.001739951               0.001313195               0.000000000               0.000000000               0.000000000               0.000000000               0.000725391               0.004935288               0.000493086              -0.000344889               0.001760042               0.001415154               0.000000000               0.000000000               0.000000000               0.000000000               0.001025217               0.005026023               0.000429457              -0.000243796               0.001756590               0.001512794               0.000000000               0.000000000               0.000000000               0.000000000               0.001368733               0.005074413               0.000360875              -0.000121027               0.001731796               0.001610770               0.000000000               0.000000000               0.000000000               0.000000000               0.001763045               0.005085654               0.000275949               0.000025435               0.001686723               0.001712158               0.000000000               0.000000000               0.000000000               0.000000000               0.002224387               0.005055533               0.000157052               0.000202202               0.001617760               0.001819962               0.000000000               0.000000000               0.000000000               0.000000000               0.002589378               0.005071608               0.000094896               0.000337063               0.001578165               0.001915227               0.000000000               0.000000000               0.000000000               0.000000000              -0.009234963              -0.000725086               0.000000000              -0.003372473               0.000882456              -0.002490017               0.000000000               0.000000000               0.000000000               0.000000000              -0.005869861              -0.000143256               0.000000000              -0.002183289               0.000680006              -0.001503283               0.000000000               0.000000000               0.000000000               0.000000000              -0.003268522               0.000362970              -0.000000000              -0.001271066               0.000544675              -0.000726391               0.000000000               0.000000000               0.000000000               0.000000000              -0.001954856               0.001201238              -0.000000000              -0.000883224               0.000694816              -0.000188408               0.000000000               0.000000000               0.000000000               0.000000000              -0.001222018               0.002022224              -0.000000000              -0.000711033               0.000911079               0.000200046               0.000000000               0.000000000               0.000000000               0.000000000              -0.000765691               0.002733653              -0.000000000              -0.000628839               0.001120822               0.000491982               0.000000000               0.000000000               0.000000000               0.000000000              -0.000441892               0.003317194              -0.000000000              -0.000580357               0.001299173               0.000718815               0.000000000               0.000000000               0.000000000               0.000000000              -0.000176134               0.003782215              -0.000000000              -0.000538826               0.001440334               0.000901508               0.000000000               0.000000000               0.000000000               0.000000000               0.000067679               0.004149965              -0.000000000              -0.000493365               0.001547763               0.001054398               0.000000000               0.000000000               0.000000000               0.000000000               0.000303105               0.004439752              -0.000000000              -0.000441304               0.001627004               0.001185700               0.000000000               0.000000000               0.000000000               0.000000000               0.000546412               0.004660813              -0.000000000              -0.000377696               0.001679487               0.001301791               0.000000000               0.000000000               0.000000000               0.000000000               0.000816046               0.004824929               0.000000000              -0.000297098               0.001707326               0.001410228               0.000000000               0.000000000               0.000000000               0.000000000               0.001125392               0.004942423               0.000000000              -0.000195780               0.001712718               0.001516937               0.000000000               0.000000000               0.000000000               0.000000000               0.001483691               0.005018113               0.000000000              -0.000070880               0.001696314               0.001625435               0.000000000               0.000000000               0.000000000               0.000000000               0.001904207               0.005052347              -0.000000000               0.000082534               0.001656588               0.001739121               0.000000000               0.000000000               0.000000000               0.000000000               0.002409237               0.005038450              -0.000000000               0.000273655               0.001588248               0.001861903               0.000000000               0.000000000               0.000000000               0.000000000               0.002817681               0.005065793              -0.000000000               0.000423402               0.001547447               0.001970849               0.000000000               0.000000000               0.000000000               0.000000000               0.001993971               0.021758538               0.000000000              -0.001972073               0.007910131               0.005938058               0.000000000               0.000000000               0.000000000               0.000000000               0.002001961               0.017120256              -0.000000000              -0.001389293               0.006169793               0.004780499               0.000000000               0.000000000               0.000000000               0.000000000               0.002655880               0.013376106              -0.000000000              -0.000676057               0.004684010               0.004007953               0.000000000               0.000000000               0.000000000               0.000000000               0.002578669               0.011289324              -0.000000000              -0.000444164               0.003911125               0.003466961               0.000000000               0.000000000               0.000000000               0.000000000               0.002268432               0.009998339               0.000000000              -0.000399129               0.003465789               0.003066660               0.000000000               0.000000000               0.000000000               0.000000000               0.001905972               0.009110756              -0.000000000              -0.000424104               0.003178256               0.002754152               0.000000000               0.000000000               0.000000000               0.000000000               0.001564940               0.008447709               0.000000000              -0.000469110               0.002972245               0.002503135               0.000000000               0.000000000               0.000000000               0.000000000               0.001262082               0.007921766              -0.000000000              -0.000516939               0.002812875               0.002295937               0.000000000               0.000000000               0.000000000               0.000000000               0.000994885               0.007476696              -0.000000000              -0.000561504               0.002679375               0.002117871               0.000000000               0.000000000               0.000000000               0.000000000               0.000767004               0.007074915               0.000000000              -0.000596736               0.002557193               0.001960457               0.000000000               0.000000000               0.000000000               0.000000000               0.000571103               0.006690473              -0.000000000              -0.000622144               0.002437517               0.001815373               0.000000000               0.000000000               0.000000000               0.000000000               0.000397371               0.006308153               0.000000000              -0.000639503               0.002315864               0.001676361               0.000000000               0.000000000               0.000000000               0.000000000               0.000252429               0.005918738               0.000000000              -0.000645180               0.002187953               0.001542773               0.000000000               0.000000000               0.000000000               0.000000000               0.000143766               0.005505943               0.000000000              -0.000634329               0.002046739               0.001412410               0.000000000               0.000000000               0.000000000               0.000000000               0.000070378               0.005054139              -0.000000000              -0.000605374               0.001886488               0.001281113               0.000000000               0.000000000               0.000000000               0.000000000               0.000025977               0.004541582              -0.000000000              -0.000557955               0.001699830               0.001141875               0.000000000               0.000000000               0.000000000               0.000000000              -0.000031181               0.004146264               0.000000000              -0.000529975               0.001558732               0.001028758               0.000000000               0.000000000               0.000000000               0.000000000               0.002071692               0.021319179              -0.001500628              -0.001888008               0.007735658               0.005847649               0.000000000               0.000000000               0.000000000               0.000000000               0.001971543               0.016831271              -0.000767244              -0.001364577               0.006065226               0.004700650               0.000000000               0.000000000               0.000000000               0.000000000               0.002507854               0.013247777              -0.000035663              -0.000715525               0.004654390               0.003938865               0.000000000               0.000000000               0.000000000               0.000000000               0.002381877               0.011243688               0.000274771              -0.000512256               0.003918611               0.003406355               0.000000000               0.000000000               0.000000000               0.000000000               0.002062589               0.009994057               0.000399573              -0.000475785               0.003489914               0.003014129               0.000000000               0.000000000               0.000000000               0.000000000               0.001712699               0.009131863               0.000438705              -0.000499220               0.003210330               0.002711111               0.000000000               0.000000000               0.000000000               0.000000000               0.001386789               0.008482117               0.000442313              -0.000540218               0.003007417               0.002467199               0.000000000               0.000000000               0.000000000               0.000000000               0.001098809               0.007957875               0.000432143              -0.000582680               0.002846825               0.002264145               0.000000000               0.000000000               0.000000000               0.000000000               0.000851148               0.007511398               0.000414409              -0.000619743               0.002710355               0.002090612               0.000000000               0.000000000               0.000000000               0.000000000               0.000640368               0.007107173               0.000391770              -0.000648257               0.002585120               0.001936863               0.000000000               0.000000000               0.000000000               0.000000000               0.000462932               0.006725746               0.000367718              -0.000667117               0.002464265               0.001797148               0.000000000               0.000000000               0.000000000               0.000000000               0.000315916               0.006352722               0.000343923              -0.000675620               0.002342760               0.001667139               0.000000000               0.000000000               0.000000000               0.000000000               0.000196695               0.005976083               0.000314449              -0.000673248               0.002216424               0.001543176               0.000000000               0.000000000               0.000000000               0.000000000               0.000106763               0.005584798               0.000273714              -0.000658062               0.002080935               0.001422872               0.000000000               0.000000000               0.000000000               0.000000000               0.000048172               0.005169530               0.000217518              -0.000628125               0.001932535               0.001304409               0.000000000               0.000000000               0.000000000               0.000000000               0.000015286               0.004714383               0.000129989              -0.000583564               0.001765967               0.001182403               0.000000000               0.000000000               0.000000000               0.000000000              -0.000030686               0.004373571               0.000081961              -0.000558202               0.001643910               0.001085707               0.000000000               0.000000000               0.000000000               0.000000000               0.002260164               0.020059077              -0.002790124              -0.001659820               0.007239565               0.005579745               0.000000000               0.000000000               0.000000000               0.000000000               0.001861732               0.016012890              -0.001425866              -0.001303459               0.005772063               0.004468604               0.000000000               0.000000000               0.000000000               0.000000000               0.002079854               0.012887389              -0.000076393              -0.000830977               0.004572746               0.003741769               0.000000000               0.000000000               0.000000000               0.000000000               0.001839577               0.011117525               0.000478847              -0.000699848               0.003939087               0.003239240               0.000000000               0.000000000               0.000000000               0.000000000               0.001502243               0.009986206               0.000694668              -0.000684933               0.003557013               0.002872080               0.000000000               0.000000000               0.000000000               0.000000000               0.001175793               0.009183998               0.000756498              -0.000707076               0.003296994               0.002589918               0.000000000               0.000000000               0.000000000               0.000000000               0.000893318               0.008564723               0.000754785              -0.000735594               0.003100077               0.002364483               0.000000000               0.000000000               0.000000000               0.000000000               0.000666217               0.008055730               0.000732152              -0.000757133               0.002937594               0.002180461               0.000000000               0.000000000               0.000000000               0.000000000               0.000483232               0.007613594               0.000699462              -0.000770485               0.002794668               0.002024182               0.000000000               0.000000000               0.000000000               0.000000000               0.000335033               0.007216451               0.000660468              -0.000776417               0.002664265               0.001887848               0.000000000               0.000000000               0.000000000               0.000000000               0.000220166               0.006848853               0.000618505              -0.000773543               0.002540776               0.001767233               0.000000000               0.000000000               0.000000000               0.000000000               0.000131016               0.006493058               0.000571865              -0.000762499               0.002418498               0.001655998               0.000000000               0.000000000               0.000000000               0.000000000               0.000066268               0.006142624               0.000514980              -0.000742976               0.002295179               0.001552204               0.000000000               0.000000000               0.000000000               0.000000000               0.000023794               0.005799428               0.000442201              -0.000716004               0.002171791               0.001455787               0.000000000               0.000000000               0.000000000               0.000000000               0.000001102               0.005464792               0.000344896              -0.000682684               0.002049141               0.001366456               0.000000000               0.000000000               0.000000000               0.000000000              -0.000005741               0.005137077               0.000201013              -0.000644286               0.001927104               0.001282818               0.000000000               0.000000000               0.000000000               0.000000000              -0.000027191               0.004916243               0.000121625              -0.000624726               0.001846973               0.001222248               0.000000000               0.000000000               0.000000000               0.000000000               0.002458252               0.018144069              -0.003715284              -0.001346163               0.006496683               0.005150520               0.000000000               0.000000000               0.000000000               0.000000000               0.001642647               0.014792336              -0.001906451              -0.001233047               0.005341745               0.004108698               0.000000000               0.000000000               0.000000000               0.000000000               0.001420994               0.012359741              -0.000140417              -0.001012092               0.004457237               0.003445144               0.000000000               0.000000000               0.000000000               0.000000000               0.001050730               0.010920359               0.000548725              -0.000971019               0.003963756               0.002992738               0.000000000               0.000000000               0.000000000               0.000000000               0.000713306               0.009948121               0.000803354              -0.000976023               0.003641348               0.002665325               0.000000000               0.000000000               0.000000000               0.000000000               0.000446057               0.009226652               0.000871396              -0.000986058               0.003404206               0.002418148               0.000000000               0.000000000               0.000000000               0.000000000               0.000249191               0.008653545               0.000863569              -0.000988244               0.003213901               0.002225656               0.000000000               0.000000000               0.000000000               0.000000000               0.000111574               0.008169278               0.000828861              -0.000979317               0.003049505               0.002070187               0.000000000               0.000000000               0.000000000               0.000000000               0.000018896               0.007740008               0.000783759              -0.000960413               0.002900114               0.001939702               0.000000000               0.000000000               0.000000000               0.000000000              -0.000040906               0.007352328               0.000733345              -0.000934378               0.002762211               0.001827833               0.000000000               0.000000000               0.000000000               0.000000000              -0.000076585               0.006991515               0.000675241              -0.000902656               0.002631367               0.001728711               0.000000000               0.000000000               0.000000000               0.000000000              -0.000096129               0.006651135               0.000608665              -0.000867438               0.002506169               0.001638731               0.000000000               0.000000000               0.000000000               0.000000000              -0.000098975               0.006332818               0.000532373              -0.000828716               0.002387157               0.001558441               0.000000000               0.000000000               0.000000000               0.000000000              -0.000086898               0.006040624               0.000442966              -0.000787663               0.002276075               0.001488413               0.000000000               0.000000000               0.000000000               0.000000000              -0.000065276               0.005779857               0.000332553              -0.000746959               0.002175586               0.001428627               0.000000000               0.000000000               0.000000000               0.000000000              -0.000036179               0.005559272               0.000184766              -0.000708474               0.002089230               0.001380756               0.000000000               0.000000000               0.000000000               0.000000000              -0.000031751               0.005433699               0.000106001              -0.000691117               0.002041587               0.001350470               0.000000000               0.000000000               0.000000000               0.000000000               0.002541218               0.015805145              -0.004197935              -0.001022687               0.005609224               0.004586537               0.000000000               0.000000000               0.000000000               0.000000000               0.001290642               0.013328505              -0.002188933              -0.001182071               0.004836814               0.003654743               0.000000000               0.000000000               0.000000000               0.000000000               0.000606227               0.011726903              -0.000257550              -0.001238525               0.004321770               0.003083245               0.000000000               0.000000000               0.000000000               0.000000000               0.000148784               0.010652554               0.000452624              -0.001275772               0.003976073               0.002700301               0.000000000               0.000000000               0.000000000               0.000000000              -0.000131631               0.009850434               0.000705011              -0.001280663               0.003710333               0.002429670               0.000000000               0.000000000               0.000000000               0.000000000              -0.000295868               0.009214656               0.000768924              -0.001262780               0.003492448               0.002229668               0.000000000               0.000000000               0.000000000               0.000000000              -0.000380377               0.008688128               0.000756005              -0.001228654               0.003305565               0.002076911               0.000000000               0.000000000               0.000000000               0.000000000              -0.000412457               0.008226255               0.000715121              -0.001182950               0.003136374               0.001953424               0.000000000               0.000000000               0.000000000               0.000000000              -0.000411347               0.007804737               0.000667051              -0.001129845               0.002978168               0.001848323               0.000000000               0.000000000               0.000000000               0.000000000              -0.000386152               0.007413413               0.000615642              -0.001071481               0.002828273               0.001756792               0.000000000               0.000000000               0.000000000               0.000000000              -0.000344926               0.007050085               0.000558093              -0.001010605               0.002686873               0.001676268               0.000000000               0.000000000               0.000000000               0.000000000              -0.000298272               0.006720632               0.000494306              -0.000951929               0.002557498               0.001605569               0.000000000               0.000000000               0.000000000               0.000000000              -0.000251193               0.006427763               0.000420666              -0.000897666               0.002441788               0.001544122               0.000000000               0.000000000               0.000000000               0.000000000              -0.000198612               0.006172721               0.000336786              -0.000846068               0.002339576               0.001493508               0.000000000               0.000000000               0.000000000               0.000000000              -0.000134890               0.005957482               0.000241478              -0.000795267               0.002250897               0.001455629               0.000000000               0.000000000               0.000000000               0.000000000              -0.000064788               0.005789532               0.000128671              -0.000747985               0.002179153               0.001431168               0.000000000               0.000000000               0.000000000               0.000000000              -0.000040805               0.005701259               0.000074098              -0.000727957               0.002143053               0.001415096               0.000000000               0.000000000               0.000000000               0.000000000               0.002391519               0.013274153              -0.004250488              -0.000762451               0.004678823               0.003916371               0.000000000               0.000000000               0.000000000               0.000000000               0.000797379               0.011772448              -0.002301553              -0.001172538               0.004314955               0.003142418               0.000000000               0.000000000               0.000000000               0.000000000              -0.000262986               0.011036870              -0.000446353              -0.001478225               0.004171661               0.002693437               0.000000000               0.000000000               0.000000000               0.000000000              -0.000721445               0.010315708               0.000202142              -0.001560001               0.003958535               0.002398534               0.000000000               0.000000000               0.000000000               0.000000000              -0.000893238               0.009674371               0.000428646              -0.001544257               0.003739510               0.002195254               0.000000000               0.000000000               0.000000000               0.000000000              -0.000921889               0.009118094               0.000491036              -0.001485466               0.003534490               0.002049023               0.000000000               0.000000000               0.000000000               0.000000000              -0.000877512               0.008621795               0.000487270              -0.001406788               0.003342832               0.001936044               0.000000000               0.000000000               0.000000000               0.000000000              -0.000801666               0.008162616               0.000456787              -0.001320949               0.003161161               0.001840212               0.000000000               0.000000000               0.000000000               0.000000000              -0.000710399               0.007733184               0.000421269              -0.001233045               0.002988717               0.001755673               0.000000000               0.000000000               0.000000000               0.000000000              -0.000611981               0.007333789               0.000384214              -0.001146214               0.002826643               0.001680429               0.000000000               0.000000000               0.000000000               0.000000000              -0.000514135               0.006969350               0.000345554              -0.001063967               0.002677749               0.001613782               0.000000000               0.000000000               0.000000000               0.000000000              -0.000420091               0.006648323               0.000305050              -0.000988572               0.002545609               0.001557037               0.000000000               0.000000000               0.000000000               0.000000000              -0.000333990               0.006370758               0.000258189              -0.000921589               0.002430761               0.001509172               0.000000000               0.000000000               0.000000000               0.000000000              -0.000247146               0.006137217               0.000202291              -0.000859830               0.002332328               0.001472499               0.000000000               0.000000000               0.000000000               0.000000000              -0.000156385               0.005945942               0.000137596              -0.000801885               0.002249256               0.001447371               0.000000000               0.000000000               0.000000000               0.000000000              -0.000071471               0.005801435               0.000068143              -0.000751979               0.002184452               0.001432473               0.000000000               0.000000000               0.000000000               0.000000000              -0.000043681               0.005726229               0.000039963              -0.000732157               0.002152776               0.001420619               0.000000000               0.000000000               0.000000000               0.000000000               0.001955036               0.010763252              -0.003944321              -0.000612270               0.003791804               0.003179533               0.000000000               0.000000000               0.000000000               0.000000000               0.000194140               0.010252308              -0.002290147              -0.001208735               0.003820313               0.002611578               0.000000000               0.000000000               0.000000000               0.000000000              -0.001087086               0.010326161              -0.000709187              -0.001698423               0.004008160               0.002309737               0.000000000               0.000000000               0.000000000               0.000000000              -0.001452183               0.009911005              -0.000166432              -0.001783440               0.003898115               0.002114675               0.000000000               0.000000000               0.000000000               0.000000000              -0.001471350               0.009406511               0.000040502              -0.001727566               0.003711328               0.001983762               0.000000000               0.000000000               0.000000000               0.000000000              -0.001357399               0.008904320               0.000119193              -0.001622061               0.003508764               0.001886703               0.000000000               0.000000000               0.000000000               0.000000000              -0.001199038               0.008415410               0.000140535              -0.001501562               0.003305629               0.001804068               0.000000000               0.000000000               0.000000000               0.000000000              -0.001031201               0.007948678               0.000138453              -0.001380282               0.003109627               0.001729345               0.000000000               0.000000000               0.000000000               0.000000000              -0.000865604               0.007512040               0.000131209              -0.001263603               0.002925189               0.001661586               0.000000000               0.000000000               0.000000000               0.000000000              -0.000707607               0.007112937               0.000123375              -0.001154467               0.002755778               0.001601311               0.000000000               0.000000000               0.000000000               0.000000000              -0.000565127               0.006756519               0.000117783              -0.001056485               0.002604312               0.001547827               0.000000000               0.000000000               0.000000000               0.000000000              -0.000438091               0.006444909               0.000114334              -0.000969895               0.002471580               0.001501685               0.000000000               0.000000000               0.000000000               0.000000000              -0.000322137               0.006176919               0.000105658              -0.000892914               0.002356591               0.001463676               0.000000000               0.000000000               0.000000000               0.000000000              -0.000217865               0.005953188               0.000085444              -0.000825846               0.002259658               0.001433812               0.000000000               0.000000000               0.000000000               0.000000000              -0.000128518               0.005775047               0.000055332              -0.000770073               0.002181688               0.001411614               0.000000000               0.000000000               0.000000000               0.000000000              -0.000055647               0.005646732               0.000025601              -0.000726707               0.002124461               0.001397754               0.000000000               0.000000000               0.000000000               0.000000000              -0.000034848               0.005579352               0.000019181              -0.000710485               0.002096594               0.001386109               0.000000000               0.000000000               0.000000000               0.000000000               0.001258417               0.008433587              -0.003369973              -0.000582294               0.003005264               0.002422970               0.000000000               0.000000000               0.000000000               0.000000000              -0.000475638               0.008856806              -0.002200955              -0.001285463               0.003380726               0.002095263               0.000000000               0.000000000               0.000000000               0.000000000              -0.001776609               0.009605891              -0.001039098              -0.001866960               0.003824252               0.001957291               0.000000000               0.000000000               0.000000000               0.000000000              -0.001971299               0.009433171              -0.000594533              -0.001918379               0.003783819               0.001865440               0.000000000               0.000000000               0.000000000               0.000000000              -0.001832356               0.009032504              -0.000384003              -0.001816192               0.003616202               0.001800010               0.000000000               0.000000000               0.000000000               0.000000000              -0.001593843               0.008568367              -0.000272826              -0.001668733               0.003412338               0.001743605               0.000000000               0.000000000               0.000000000               0.000000000              -0.001337567               0.008091120              -0.000209682              -0.001512974               0.003201338               0.001688364               0.000000000               0.000000000               0.000000000               0.000000000              -0.001097685               0.007626287              -0.000169393              -0.001364914               0.002997042               0.001632127               0.000000000               0.000000000               0.000000000               0.000000000              -0.000880292               0.007194018              -0.000136748              -0.001229359               0.002807768               0.001578410               0.000000000               0.000000000               0.000000000               0.000000000              -0.000684603               0.006803116              -0.000103306              -0.001107113               0.002636720               0.001529607               0.000000000               0.000000000               0.000000000               0.000000000              -0.000516793               0.006456077              -0.000068318              -0.001000804               0.002485606               0.001484801               0.000000000               0.000000000               0.000000000               0.000000000              -0.000374708               0.006151585              -0.000033769              -0.000909461               0.002353662               0.001444200               0.000000000               0.000000000               0.000000000               0.000000000              -0.000254216               0.005890995              -0.000005581              -0.000831703               0.002240880               0.001409176               0.000000000               0.000000000               0.000000000               0.000000000              -0.000156573               0.005677645               0.000010254              -0.000768419               0.002148669               0.001380250               0.000000000               0.000000000               0.000000000               0.000000000              -0.000087519               0.005514677               0.000013376              -0.000722152               0.002078925               0.001356772               0.000000000               0.000000000               0.000000000               0.000000000              -0.000040634               0.005400118               0.000009994              -0.000690251               0.002030105               0.001339854               0.000000000               0.000000000               0.000000000               0.000000000              -0.000027378               0.005339457               0.000012783              -0.000677697               0.002005700               0.001328003               0.000000000               0.000000000               0.000000000               0.000000000               0.000409803               0.006448524              -0.002639224              -0.000652390               0.002366949               0.001714559               0.000000000               0.000000000               0.000000000               0.000000000              -0.001117007               0.007607341              -0.002083763              -0.001369793               0.002992352               0.001622559               0.000000000               0.000000000               0.000000000               0.000000000              -0.002287661               0.008895004              -0.001424792              -0.001969744               0.003621553               0.001651809               0.000000000               0.000000000               0.000000000               0.000000000              -0.002304912               0.008954852              -0.001043206              -0.001983694               0.003646152               0.001662458               0.000000000               0.000000000               0.000000000               0.000000000              -0.002042741               0.008668905              -0.000807488              -0.001849636               0.003506151               0.001656515               0.000000000               0.000000000               0.000000000               0.000000000              -0.001713258               0.008268625              -0.000650455              -0.001676046               0.003314863               0.001638817               0.000000000               0.000000000               0.000000000               0.000000000              -0.001388659               0.007826005              -0.000541209              -0.001498994               0.003108307               0.001609313               0.000000000               0.000000000               0.000000000               0.000000000              -0.001095502               0.007385258              -0.000457651              -0.001333967               0.002906384               0.001572417               0.000000000               0.000000000               0.000000000               0.000000000              -0.000836863               0.006970385              -0.000383009              -0.001185119               0.002718478               0.001533359               0.000000000               0.000000000               0.000000000               0.000000000              -0.000614874               0.006591463              -0.000310206              -0.001054508               0.002548635               0.001494127               0.000000000               0.000000000               0.000000000               0.000000000              -0.000433198               0.006251819              -0.000239158              -0.000943924               0.002398560               0.001454636               0.000000000               0.000000000               0.000000000               0.000000000              -0.000286632               0.005953627              -0.000169854              -0.000851688               0.002268419               0.001416730               0.000000000               0.000000000               0.000000000               0.000000000              -0.000174566               0.005695373              -0.000103755              -0.000777382               0.002157566               0.001380184               0.000000000               0.000000000               0.000000000               0.000000000              -0.000109221               0.005478651              -0.000047561              -0.000725788               0.002068128               0.001342340               0.000000000               0.000000000               0.000000000               0.000000000              -0.000088541               0.005309984              -0.000011241              -0.000696949               0.002002294               0.001305344               0.000000000               0.000000000               0.000000000               0.000000000              -0.000084197               0.005187688               0.000003812              -0.000680033               0.001955890               0.001275856               0.000000000               0.000000000               0.000000000               0.000000000              -0.000078969               0.005130736               0.000008117              -0.000670954               0.001933880               0.001262926               0.000000000               0.000000000               0.000000000               0.000000000              -0.000601179               0.004591859              -0.001854961              -0.000799424               0.001797078               0.000997654               0.000000000               0.000000000               0.000000000               0.000000000              -0.001638773               0.006159232              -0.001946768              -0.001384441               0.002514537               0.001130095               0.000000000               0.000000000               0.000000000               0.000000000              -0.002560771               0.007826492              -0.001834963              -0.001938596               0.003255003               0.001316407               0.000000000               0.000000000               0.000000000               0.000000000              -0.002488094               0.008213534              -0.001525631              -0.001959722               0.003391058               0.001431336               0.000000000               0.000000000               0.000000000               0.000000000              -0.002180183               0.008153796              -0.001260750              -0.001836789               0.003330167               0.001493379               0.000000000               0.000000000               0.000000000               0.000000000              -0.001825478               0.007916405              -0.001054624              -0.001674101               0.003196809               0.001522708               0.000000000               0.000000000               0.000000000               0.000000000              -0.001480342               0.007595419              -0.000893668              -0.001504552               0.003033298               0.001528746               0.000000000               0.000000000               0.000000000               0.000000000              -0.001169923               0.007241999              -0.000765064              -0.001343968               0.002861965               0.001517997               0.000000000               0.000000000               0.000000000               0.000000000              -0.000897150               0.006881847              -0.000653695              -0.001196659               0.002692812               0.001496153               0.000000000               0.000000000               0.000000000               0.000000000              -0.000663173               0.006539925              -0.000548131              -0.001066178               0.002535346               0.001469168               0.000000000               0.000000000               0.000000000               0.000000000              -0.000468587               0.006225697              -0.000447839              -0.000953930               0.002393188               0.001439258               0.000000000               0.000000000               0.000000000               0.000000000              -0.000317522               0.005938661              -0.000347800              -0.000861401               0.002266667               0.001405266               0.000000000               0.000000000               0.000000000               0.000000000              -0.000209896               0.005676643              -0.000243525              -0.000788290               0.002154959               0.001366669               0.000000000               0.000000000               0.000000000               0.000000000              -0.000147797               0.005449179              -0.000141280              -0.000736569               0.002061898               0.001325328               0.000000000               0.000000000               0.000000000               0.000000000              -0.000135076               0.005261545              -0.000063037              -0.000708345               0.001989946               0.001281601               0.000000000               0.000000000               0.000000000               0.000000000              -0.000159164               0.005113844              -0.000018992              -0.000698915               0.001937569               0.001238654               0.000000000               0.000000000               0.000000000               0.000000000              -0.000179439               0.005044031              -0.000002437              -0.000697792               0.001913924               0.001216132               0.000000000               0.000000000               0.000000000               0.000000000              -0.001915447               0.002909342              -0.001066767              -0.001081958               0.001330423               0.000248465               0.000000000               0.000000000               0.000000000               0.000000000              -0.002227548               0.004705053              -0.001737368              -0.001423459               0.002042821               0.000619362               0.000000000               0.000000000               0.000000000               0.000000000              -0.002744952               0.006574210              -0.002153020              -0.001851129               0.002808424               0.000957294               0.000000000               0.000000000               0.000000000               0.000000000              -0.002596505               0.007272236              -0.001978635              -0.001882715               0.003051626               0.001168911               0.000000000               0.000000000               0.000000000               0.000000000              -0.002270964               0.007477971              -0.001716943              -0.001786354               0.003088083               0.001301729               0.000000000               0.000000000               0.000000000               0.000000000              -0.001910044               0.007444678              -0.001477989              -0.001646847               0.003030483               0.001383636               0.000000000               0.000000000               0.000000000               0.000000000              -0.001560335               0.007286118              -0.001275736              -0.001495887               0.002927311               0.001431424               0.000000000               0.000000000               0.000000000               0.000000000              -0.001241891               0.007055511              -0.001108193              -0.001347645               0.002801028               0.001453383               0.000000000               0.000000000               0.000000000               0.000000000              -0.000957548               0.006789831              -0.000965747              -0.001207807               0.002665856               0.001458050               0.000000000               0.000000000               0.000000000               0.000000000              -0.000705009               0.006518610              -0.000836245              -0.001079202               0.002532582               0.001453380               0.000000000               0.000000000               0.000000000               0.000000000              -0.000487154               0.006252571              -0.000714266              -0.000964252               0.002405587               0.001441335               0.000000000               0.000000000               0.000000000               0.000000000              -0.000313904               0.005991249              -0.000588551              -0.000866618               0.002285936               0.001419318               0.000000000               0.000000000               0.000000000               0.000000000              -0.000191499               0.005738105              -0.000454495              -0.000789073               0.002175707               0.001386633               0.000000000               0.000000000               0.000000000               0.000000000              -0.000117281               0.005504450              -0.000314545              -0.000732035               0.002078810               0.001346775               0.000000000               0.000000000               0.000000000               0.000000000              -0.000097522               0.005301730              -0.000183435              -0.000699285               0.002000321               0.001301035               0.000000000               0.000000000               0.000000000               0.000000000              -0.000144100               0.005134369              -0.000077487              -0.000695832               0.001943383               0.001247551               0.000000000               0.000000000               0.000000000               0.000000000              -0.000203512               0.005044794              -0.000024791              -0.000706914               0.001917219               0.001210305               0.000000000               0.000000000               0.000000000               0.000000000              -0.003444757               0.001531940              -0.000339850              -0.001483274               0.001005065              -0.000478209               0.000000000               0.000000000               0.000000000               0.000000000              -0.002937481               0.003337349              -0.001435953              -0.001518721               0.001618678               0.000099957               0.000000000               0.000000000               0.000000000               0.000000000              -0.002879609               0.005168005              -0.002274212              -0.001725851               0.002297934               0.000572083               0.000000000               0.000000000               0.000000000               0.000000000              -0.002580959               0.006084107              -0.002273087              -0.001728370               0.002604138               0.000875768               0.000000000               0.000000000               0.000000000               0.000000000              -0.002225928               0.006528399              -0.002065194              -0.001650770               0.002726367               0.001075598               0.000000000               0.000000000               0.000000000               0.000000000              -0.001868575               0.006707644              -0.001826675              -0.001539168               0.002748914               0.001209746               0.000000000               0.000000000               0.000000000               0.000000000              -0.001523288               0.006733020              -0.001603775              -0.001412857               0.002715270               0.001302412               0.000000000               0.000000000               0.000000000               0.000000000              -0.001207405               0.006656223              -0.001409708              -0.001284802               0.002646986               0.001362184               0.000000000               0.000000000               0.000000000               0.000000000              -0.000922675               0.006518917              -0.001244393              -0.001160865               0.002559906               0.001399040               0.000000000               0.000000000               0.000000000               0.000000000              -0.000660353               0.006346871              -0.001100724              -0.001040989               0.002462599               0.001421610               0.000000000               0.000000000               0.000000000               0.000000000              -0.000424749               0.006153866              -0.000966893              -0.000928512               0.002360772               0.001432260               0.000000000               0.000000000               0.000000000               0.000000000              -0.000224688               0.005946102              -0.000826131              -0.000827519               0.002257854               0.001430335               0.000000000               0.000000000               0.000000000               0.000000000              -0.000069336               0.005733978              -0.000673234              -0.000742747               0.002158889               0.001416142               0.000000000               0.000000000               0.000000000               0.000000000               0.000033866               0.005525690              -0.000507842              -0.000678010               0.002067881               0.001389872               0.000000000               0.000000000               0.000000000               0.000000000               0.000077693               0.005329669              -0.000333374              -0.000637072               0.001988896               0.001351824               0.000000000               0.000000000               0.000000000               0.000000000               0.000048357               0.005155173              -0.000161439              -0.000626261               0.001927128               0.001300866               0.000000000               0.000000000               0.000000000               0.000000000              -0.000012791               0.005057837              -0.000069815              -0.000637025               0.001898270               0.001261246               0.000000000               0.000000000               0.000000000               0.000000000              -0.005085484               0.000527050               0.000224950              -0.001972936               0.000833323              -0.001139613               0.000000000               0.000000000               0.000000000               0.000000000              -0.003728054               0.002129368              -0.001084587              -0.001664188               0.001264510              -0.000399679               0.000000000               0.000000000               0.000000000               0.000000000              -0.002992539               0.003726933              -0.002176230              -0.001588066               0.001771653               0.000183587               0.000000000               0.000000000               0.000000000               0.000000000              -0.002467140               0.004748141              -0.002335901              -0.001518692               0.002088927               0.000570235               0.000000000               0.000000000               0.000000000               0.000000000              -0.002046854               0.005378081              -0.002209019              -0.001439828               0.002272618               0.000832790               0.000000000               0.000000000               0.000000000               0.000000000              -0.001689009               0.005751172              -0.002007078              -0.001352272               0.002367795               0.001015523               0.000000000               0.000000000               0.000000000               0.000000000              -0.001361524               0.005958037              -0.001793641              -0.001255324               0.002404433               0.001149109               0.000000000               0.000000000               0.000000000               0.000000000              -0.001058123               0.006046601              -0.001594318              -0.001152619               0.002399719               0.001247100               0.000000000               0.000000000               0.000000000               0.000000000              -0.000778599               0.006055489              -0.001421923              -0.001048909               0.002368112               0.001319203               0.000000000               0.000000000               0.000000000               0.000000000              -0.000515399               0.006007899              -0.001273997              -0.000944260               0.002317366               0.001373106               0.000000000               0.000000000               0.000000000               0.000000000              -0.000269266               0.005915999              -0.001136944              -0.000840473               0.002252137               0.001411664               0.000000000               0.000000000               0.000000000               0.000000000              -0.000044739               0.005790304              -0.000994335              -0.000740564               0.002176937               0.001436373               0.000000000               0.000000000               0.000000000               0.000000000               0.000152077               0.005645605              -0.000836839              -0.000648670               0.002098073               0.001449403               0.000000000               0.000000000               0.000000000               0.000000000               0.000309168               0.005488186              -0.000659759              -0.000570084               0.002019405               0.001449321               0.000000000               0.000000000               0.000000000               0.000000000               0.000416851               0.005322268              -0.000464178              -0.000508963               0.001943726               0.001434763               0.000000000               0.000000000               0.000000000               0.000000000               0.000461022               0.005158951              -0.000245172              -0.000471985               0.001876961               0.001404977               0.000000000               0.000000000               0.000000000               0.000000000               0.000451502               0.005071790              -0.000125018              -0.000464659               0.001845466               0.001380807               0.000000000               0.000000000               0.000000000               0.000000000              -0.006677479              -0.000131844               0.000538640              -0.002487572               0.000785237              -0.001702335               0.000000000               0.000000000               0.000000000               0.000000000              -0.004523587               0.001145233              -0.000739811              -0.001839497               0.000994903              -0.000844594               0.000000000               0.000000000               0.000000000               0.000000000              -0.003092524               0.002396481              -0.001861551              -0.001459254               0.001285235              -0.000174019               0.000000000               0.000000000               0.000000000               0.000000000              -0.002302801               0.003414069              -0.002119118              -0.001290307               0.001568113               0.000277806               0.000000000               0.000000000               0.000000000               0.000000000              -0.001787924               0.004160136              -0.002072000              -0.001190487               0.001783526               0.000593039               0.000000000               0.000000000               0.000000000               0.000000000              -0.001407764               0.004690206              -0.001925429              -0.001114186               0.001934781               0.000820595               0.000000000               0.000000000               0.000000000               0.000000000              -0.001094486               0.005055584              -0.001750202              -0.001042379               0.002032637               0.000990258               0.000000000               0.000000000               0.000000000               0.000000000              -0.000809835               0.005299290              -0.001575471              -0.000966098               0.002088445               0.001122347               0.000000000               0.000000000               0.000000000               0.000000000              -0.000543003               0.005452034              -0.001418952              -0.000885129               0.002112369               0.001227240               0.000000000               0.000000000               0.000000000               0.000000000              -0.000287545               0.005531994              -0.001283000              -0.000799327               0.002110422               0.001311094               0.000000000               0.000000000               0.000000000               0.000000000              -0.000037066               0.005553987              -0.001156364              -0.000708147               0.002087359               0.001379212               0.000000000               0.000000000               0.000000000               0.000000000               0.000208954               0.005529574              -0.001023973              -0.000612838               0.002047452               0.001434614               0.000000000               0.000000000               0.000000000               0.000000000               0.000446919               0.005469300              -0.000876566              -0.000516067               0.001995104               0.001479037               0.000000000               0.000000000               0.000000000               0.000000000               0.000675226               0.005379718              -0.000711358              -0.000419254               0.001932973               0.001513719               0.000000000               0.000000000               0.000000000               0.000000000               0.000888722               0.005266904              -0.000522963              -0.000325091               0.001863981               0.001538889               0.000000000               0.000000000               0.000000000               0.000000000               0.001065712               0.005136637              -0.000287916              -0.000242437               0.001793008               0.001550570               0.000000000               0.000000000               0.000000000               0.000000000               0.001166236               0.005077290              -0.000159607              -0.000197323               0.001758187               0.001560865               0.000000000               0.000000000               0.000000000               0.000000000              -0.008019110              -0.000503770               0.000570836              -0.002944193               0.000813469              -0.002130724               0.000000000               0.000000000               0.000000000               0.000000000              -0.005218651               0.000429710              -0.000442133              -0.002010706               0.000813466              -0.001197240               0.000000000               0.000000000               0.000000000               0.000000000              -0.003178931               0.001316751              -0.001359864              -0.001356691               0.000891141              -0.000465550               0.000000000               0.000000000               0.000000000               0.000000000              -0.002133889               0.002265163              -0.001615656              -0.001083352               0.001116163               0.000032811               0.000000000               0.000000000               0.000000000               0.000000000              -0.001516107               0.003064881              -0.001621233              -0.000951649               0.001338832               0.000387184               0.000000000               0.000000000               0.000000000               0.000000000              -0.001099637               0.003700003              -0.001533552              -0.000874863               0.001524942               0.000650080               0.000000000               0.000000000               0.000000000               0.000000000              -0.000783637               0.004188647              -0.001413083              -0.000817444               0.001668683               0.000851239               0.000000000               0.000000000               0.000000000               0.000000000              -0.000513285               0.004555289              -0.001285523              -0.000761892               0.001772378               0.001010486               0.000000000               0.000000000               0.000000000               0.000000000              -0.000261665               0.004823091              -0.001166830              -0.000701009               0.001841351               0.001140341               0.000000000               0.000000000               0.000000000               0.000000000              -0.000014675               0.005010769              -0.001062838              -0.000631848               0.001880855               0.001249007               0.000000000               0.000000000               0.000000000               0.000000000               0.000234152               0.005136082              -0.000964092              -0.000554202               0.001896744               0.001342542               0.000000000               0.000000000               0.000000000               0.000000000               0.000492261               0.005209782              -0.000858120              -0.000466624               0.001892118               0.001425494               0.000000000               0.000000000               0.000000000               0.000000000               0.000766660               0.005235045              -0.000741318              -0.000366882               0.001867291               0.001500409               0.000000000               0.000000000               0.000000000               0.000000000               0.001063874               0.005218482              -0.000615046              -0.000253357               0.001823929               0.001570572               0.000000000               0.000000000               0.000000000               0.000000000               0.001384443               0.005171294              -0.000463512              -0.000127246               0.001766163               0.001638917               0.000000000               0.000000000               0.000000000               0.000000000               0.001722196               0.005095964              -0.000258913               0.000008827               0.001695695               0.001704523               0.000000000               0.000000000               0.000000000               0.000000000               0.001968292               0.005078790              -0.000150665               0.000103260               0.001658493               0.001761753               0.000000000               0.000000000               0.000000000               0.000000000              -0.008917577              -0.000675140               0.000357231              -0.003259697               0.000861513              -0.002398184               0.000000000               0.000000000               0.000000000               0.000000000              -0.005697784               0.000000388              -0.000201164              -0.002136716               0.000712363              -0.001424353               0.000000000               0.000000000               0.000000000               0.000000000              -0.003243492               0.000607985              -0.000717400              -0.001292306               0.000633426              -0.000658880               0.000000000               0.000000000               0.000000000               0.000000000              -0.002004532               0.001480212              -0.000875938              -0.000936724               0.000805639              -0.000131085               0.000000000               0.000000000               0.000000000               0.000000000              -0.001303091               0.002300340              -0.000893037              -0.000776200               0.001025505               0.000249305               0.000000000               0.000000000               0.000000000               0.000000000              -0.000856852               0.002991472              -0.000854723              -0.000695252               0.001228898               0.000533646               0.000000000               0.000000000               0.000000000               0.000000000              -0.000534991               0.003551690              -0.000794254              -0.000644582               0.001398745               0.000754164               0.000000000               0.000000000               0.000000000               0.000000000              -0.000269615               0.003993654              -0.000726705              -0.000600311               0.001531308               0.000930997               0.000000000               0.000000000               0.000000000               0.000000000              -0.000025458               0.004334511              -0.000663968              -0.000551360               0.001628609               0.001077250               0.000000000               0.000000000               0.000000000               0.000000000               0.000214167               0.004595927              -0.000608352              -0.000494177               0.001696686               0.001202509               0.000000000               0.000000000               0.000000000               0.000000000               0.000459696               0.004793145              -0.000552911              -0.000426756               0.001739951               0.001313195               0.000000000               0.000000000               0.000000000               0.000000000               0.000725391               0.004935288              -0.000493086              -0.000344889               0.001760042               0.001415154               0.000000000               0.000000000               0.000000000               0.000000000               0.001025217               0.005026023              -0.000429457              -0.000243796               0.001756590               0.001512794               0.000000000               0.000000000               0.000000000               0.000000000               0.001368733               0.005074413              -0.000360875              -0.000121027               0.001731796               0.001610770               0.000000000               0.000000000               0.000000000               0.000000000               0.001763045               0.005085654              -0.000275949               0.000025435               0.001686723               0.001712158               0.000000000               0.000000000               0.000000000               0.000000000               0.002224387               0.005055533              -0.000157052               0.000202202               0.001617760               0.001819962               0.000000000               0.000000000               0.000000000               0.000000000               0.002589378               0.005071608              -0.000094896               0.000337063               0.001578165               0.001915227               0.000000000               0.000000000               0.000000000               0.000000000               0.000000000               0.000000000               0.000000000               0.000000000               0.000000000               0.000000000               0.000000000               0.000000000               0.000000000               0.000000000               0.000000000               0.000000000               0.000000000               0.000000000               0.000000000               0.000000000               0.000000000               0.000000000               0.000000000               0.000000000               0.000000000               0.000000000               0.000000000               0.000000000               0.000000000               0.000000000               0.000000000               0.000000000               0.000000000               0.000000000               0.000000000               0.000000000               0.000000000               0.000000000               0.000000000               0.000000000               0.000000000               0.000000000               0.000000000               0.000000000               0.000000000               0.000000000               0.000000000               0.000000000               0.000000000               0.000000000               0.000000000               0.000000000               0.000000000               0.000000000               0.000000000               0.000000000               0.000000000               0.000000000               0.000000000               0.000000000               0.000000000               0.000000000               0.000000000               0.000000000               0.000000000               0.000000000               0.000000000               0.000000000               0.000000000               0.000000000               0.000000000               0.000000000               0.000000000               0.000000000               0.000000000               0.000000000               0.000000000               0.000000000               0.000000000               0.000000000               0.000000000               0.000000000               0.000000000               0.000000000               0.000000000               0.000000000               0.000000000               0.000000000               0.000000000               0.000000000               0.000000000               0.000000000               0.000000000               0.000000000               0.000000000               0.000000000               0.000000000               0.000000000               0.000000000               0.000000000               0.000000000               0.000000000               0.000000000               0.000000000               0.000000000               0.000000000               0.000000000               0.000000000               0.000000000               0.000000000               0.000000000               0.000000000               0.000000000               0.000000000               0.000000000               0.000000000               0.000000000               0.000000000               0.000000000               0.000000000               0.000000000               0.000000000               0.000000000               0.000000000               0.000000000               0.000000000               0.000000000               0.000000000               0.000000000               0.000000000               0.000000000               0.000000000               0.000000000               0.000000000               0.000000000               0.000000000               0.000000000               0.000000000               0.000000000               0.000000000               0.000000000               0.000000000               0.000000000               0.000000000               0.000000000               0.000000000               0.000000000               0.000000000               0.000000000               0.000000000               0.000000000               0.000000000               0.000000000               0.000000000               0.000000000               0.000000000               0.000000000               0.000000000               0.000000000               0.000000000               0.000000000               0.000000000               0.000000000               0.000000000               0.000000000               0.000000000               0.000000000               0.000000000               0.000000000               0.000000000               0.000000000               0.000000000               0.000000000               0.000000000               0.000000000               0.000000000               0.000000000               0.000000000               0.000000000               0.000000000               0.000000000               0.000000000               0.000000000               0.000000000               0.000000000               0.000000000               0.000000000               0.000000000               0.000000000               0.000000000               0.000000000               0.000000000               0.000000000               0.000000000               0.000000000               0.000000000               0.000000000               0.000000000               0.000000000               0.000000000               0.000000000               0.000000000               0.000000000               0.000000000               0.000000000               0.000000000               0.000000000               0.000000000               0.000000000               0.000000000               0.000000000               0.000000000               0.000000000               0.000000000               0.000000000               0.000000000               0.000000000               0.000000000               0.000000000               0.000000000               0.000000000               0.000000000               0.000000000               0.000000000               0.000000000               0.000000000               0.000000000               0.000000000               0.000000000               0.000000000               0.000000000               0.000000000               0.000000000               0.000000000               0.000000000               0.000000000               0.000000000               0.000000000               0.000000000               0.000000000               0.000000000               0.000000000               0.000000000               0.000000000               0.000000000               0.000000000               0.000000000               0.000000000               0.000000000               0.000000000               0.000000000               0.000000000               0.000000000               0.000000000               0.000000000               0.000000000               0.000000000               0.000000000               0.000000000               0.000000000               0.000000000               0.000000000               0.000000000               0.000000000               0.000000000               0.000000000               0.000000000               0.000000000               0.000000000               0.000000000               0.000000000               0.000000000               0.000000000               0.000000000               0.000000000               0.000000000               0.000000000               0.000000000               0.000000000               0.000000000               0.000000000               0.000000000               0.000000000               0.000000000               0.000000000               0.000000000               0.000000000               0.000000000               0.000000000               0.000000000               0.000000000               0.000000000               0.000000000               0.000000000               0.000000000               0.000000000               0.000000000               0.000000000               0.000000000               0.000000000               0.000000000               0.000000000               0.000000000               0.000000000               0.000000000               0.000000000               0.000000000               0.000000000               0.000000000               0.000000000               0.000000000               0.000000000               0.000000000               0.000000000               0.000000000               0.000000000               0.000000000               0.000000000               0.000000000               0.000000000               0.000000000               0.000000000               0.000000000               0.000000000               0.000000000               0.000000000               0.000000000               0.000000000               0.000000000               0.000000000               0.000000000               0.000000000               0.000000000               0.000000000               0.000000000               0.000000000               0.000000000               0.000000000               0.000000000               0.000000000               0.000000000               0.000000000               0.000000000               0.000000000               0.002071692               0.021319179               0.001500628              -0.001888008               0.007735658               0.005847649               0.000000000               0.000000000               0.000000000               0.000000000               0.001971543               0.016831271               0.000767244              -0.001364577               0.006065226               0.004700650               0.000000000               0.000000000               0.000000000               0.000000000               0.002507854               0.013247777               0.000035663              -0.000715525               0.004654390               0.003938865               0.000000000               0.000000000               0.000000000               0.000000000               0.002381877               0.011243688              -0.000274771              -0.000512256               0.003918611               0.003406355               0.000000000               0.000000000               0.000000000               0.000000000               0.002062589               0.009994057              -0.000399573              -0.000475785               0.003489914               0.003014129               0.000000000               0.000000000               0.000000000               0.000000000               0.001712699               0.009131863              -0.000438705              -0.000499220               0.003210330               0.002711111               0.000000000               0.000000000               0.000000000               0.000000000               0.001386789               0.008482117              -0.000442313              -0.000540218               0.003007417               0.002467199               0.000000000               0.000000000               0.000000000               0.000000000               0.001098809               0.007957875              -0.000432143              -0.000582680               0.002846825               0.002264145               0.000000000               0.000000000               0.000000000               0.000000000               0.000851148               0.007511398              -0.000414409              -0.000619743               0.002710355               0.002090612               0.000000000               0.000000000               0.000000000               0.000000000               0.000640368               0.007107173              -0.000391770              -0.000648257               0.002585120               0.001936863               0.000000000               0.000000000               0.000000000               0.000000000               0.000462932               0.006725746              -0.000367718              -0.000667117               0.002464265               0.001797148               0.000000000               0.000000000               0.000000000               0.000000000               0.000315916               0.006352722              -0.000343923              -0.000675620               0.002342760               0.001667139               0.000000000               0.000000000               0.000000000               0.000000000               0.000196695               0.005976083              -0.000314449              -0.000673248               0.002216424               0.001543176               0.000000000               0.000000000               0.000000000               0.000000000               0.000106763               0.005584798              -0.000273714              -0.000658062               0.002080935               0.001422872               0.000000000               0.000000000               0.000000000               0.000000000               0.000048172               0.005169530              -0.000217518              -0.000628125               0.001932535               0.001304409               0.000000000               0.000000000               0.000000000               0.000000000               0.000015286               0.004714383              -0.000129989              -0.000583564               0.001765967               0.001182403               0.000000000               0.000000000               0.000000000               0.000000000              -0.000030686               0.004373571              -0.000081961              -0.000558202               0.001643910               0.001085707               0.000000000               0.000000000               0.000000000               0.000000000               0.002260164               0.020059077               0.002790124              -0.001659820               0.007239565               0.005579745               0.000000000               0.000000000               0.000000000               0.000000000               0.001861732               0.016012890               0.001425866              -0.001303459               0.005772063               0.004468604               0.000000000               0.000000000               0.000000000               0.000000000               0.002079854               0.012887389               0.000076393              -0.000830977               0.004572746               0.003741769               0.000000000               0.000000000               0.000000000               0.000000000               0.001839577               0.011117525              -0.000478847              -0.000699848               0.003939087               0.003239240               0.000000000               0.000000000               0.000000000               0.000000000               0.001502243               0.009986206              -0.000694668              -0.000684933               0.003557013               0.002872080               0.000000000               0.000000000               0.000000000               0.000000000               0.001175793               0.009183998              -0.000756498              -0.000707076               0.003296994               0.002589918               0.000000000               0.000000000               0.000000000               0.000000000               0.000893318               0.008564723              -0.000754785              -0.000735594               0.003100077               0.002364483               0.000000000               0.000000000               0.000000000               0.000000000               0.000666217               0.008055730              -0.000732152              -0.000757133               0.002937594               0.002180461               0.000000000               0.000000000               0.000000000               0.000000000               0.000483232               0.007613594              -0.000699462              -0.000770485               0.002794668               0.002024182               0.000000000               0.000000000               0.000000000               0.000000000               0.000335033               0.007216451              -0.000660468              -0.000776417               0.002664265               0.001887848               0.000000000               0.000000000               0.000000000               0.000000000               0.000220166               0.006848853              -0.000618505              -0.000773543               0.002540776               0.001767233               0.000000000               0.000000000               0.000000000               0.000000000               0.000131016               0.006493058              -0.000571865              -0.000762499               0.002418498               0.001655998               0.000000000               0.000000000               0.000000000               0.000000000               0.000066268               0.006142624              -0.000514980              -0.000742976               0.002295179               0.001552204               0.000000000               0.000000000               0.000000000               0.000000000               0.000023794               0.005799428              -0.000442201              -0.000716004               0.002171791               0.001455787               0.000000000               0.000000000               0.000000000               0.000000000               0.000001102               0.005464792              -0.000344896              -0.000682684               0.002049141               0.001366456               0.000000000               0.000000000               0.000000000               0.000000000              -0.000005741               0.005137077              -0.000201013              -0.000644286               0.001927104               0.001282818               0.000000000               0.000000000               0.000000000               0.000000000              -0.000027191               0.004916243              -0.000121625              -0.000624726               0.001846973               0.001222248               0.000000000               0.000000000               0.000000000               0.000000000               0.002458252               0.018144069               0.003715284              -0.001346163               0.006496683               0.005150520               0.000000000               0.000000000               0.000000000               0.000000000               0.001642647               0.014792336               0.001906451              -0.001233047               0.005341745               0.004108698               0.000000000               0.000000000               0.000000000               0.000000000               0.001420994               0.012359741               0.000140417              -0.001012092               0.004457237               0.003445144               0.000000000               0.000000000               0.000000000               0.000000000               0.001050730               0.010920359              -0.000548725              -0.000971019               0.003963756               0.002992738               0.000000000               0.000000000               0.000000000               0.000000000               0.000713306               0.009948121              -0.000803354              -0.000976023               0.003641348               0.002665325               0.000000000               0.000000000               0.000000000               0.000000000               0.000446057               0.009226652              -0.000871396              -0.000986058               0.003404206               0.002418148               0.000000000               0.000000000               0.000000000               0.000000000               0.000249191               0.008653545              -0.000863569              -0.000988244               0.003213901               0.002225656               0.000000000               0.000000000               0.000000000               0.000000000               0.000111574               0.008169278              -0.000828861              -0.000979317               0.003049505               0.002070187               0.000000000               0.000000000               0.000000000               0.000000000               0.000018896               0.007740008              -0.000783759              -0.000960413               0.002900114               0.001939702               0.000000000               0.000000000               0.000000000               0.000000000              -0.000040906               0.007352328              -0.000733345              -0.000934378               0.002762211               0.001827833               0.000000000               0.000000000               0.000000000               0.000000000              -0.000076585               0.006991515              -0.000675241              -0.000902656               0.002631367               0.001728711               0.000000000               0.000000000               0.000000000               0.000000000              -0.000096129               0.006651135              -0.000608665              -0.000867438               0.002506169               0.001638731               0.000000000               0.000000000               0.000000000               0.000000000              -0.000098975               0.006332818              -0.000532373              -0.000828716               0.002387157               0.001558441               0.000000000               0.000000000               0.000000000               0.000000000              -0.000086898               0.006040624              -0.000442966              -0.000787663               0.002276075               0.001488413               0.000000000               0.000000000               0.000000000               0.000000000              -0.000065276               0.005779857              -0.000332553              -0.000746959               0.002175586               0.001428627               0.000000000               0.000000000               0.000000000               0.000000000              -0.000036179               0.005559272              -0.000184766              -0.000708474               0.002089230               0.001380756               0.000000000               0.000000000               0.000000000               0.000000000              -0.000031751               0.005433699              -0.000106001              -0.000691117               0.002041587               0.001350470               0.000000000               0.000000000               0.000000000               0.000000000               0.002541218               0.015805145               0.004197935              -0.001022687               0.005609224               0.004586537               0.000000000               0.000000000               0.000000000               0.000000000               0.001290642               0.013328505               0.002188933              -0.001182071               0.004836814               0.003654743               0.000000000               0.000000000               0.000000000               0.000000000               0.000606227               0.011726903               0.000257550              -0.001238525               0.004321770               0.003083245               0.000000000               0.000000000               0.000000000               0.000000000               0.000148784               0.010652554              -0.000452624              -0.001275772               0.003976073               0.002700301               0.000000000               0.000000000               0.000000000               0.000000000              -0.000131631               0.009850434              -0.000705011              -0.001280663               0.003710333               0.002429670               0.000000000               0.000000000               0.000000000               0.000000000              -0.000295868               0.009214656              -0.000768924              -0.001262780               0.003492448               0.002229668               0.000000000               0.000000000               0.000000000               0.000000000              -0.000380377               0.008688128              -0.000756005              -0.001228654               0.003305565               0.002076911               0.000000000               0.000000000               0.000000000               0.000000000              -0.000412457               0.008226255              -0.000715121              -0.001182950               0.003136374               0.001953424               0.000000000               0.000000000               0.000000000               0.000000000              -0.000411347               0.007804737              -0.000667051              -0.001129845               0.002978168               0.001848323               0.000000000               0.000000000               0.000000000               0.000000000              -0.000386152               0.007413413              -0.000615642              -0.001071481               0.002828273               0.001756792               0.000000000               0.000000000               0.000000000               0.000000000              -0.000344926               0.007050085              -0.000558093              -0.001010605               0.002686873               0.001676268               0.000000000               0.000000000               0.000000000               0.000000000              -0.000298272               0.006720632              -0.000494306              -0.000951929               0.002557498               0.001605569               0.000000000               0.000000000               0.000000000               0.000000000              -0.000251193               0.006427763              -0.000420666              -0.000897666               0.002441788               0.001544122               0.000000000               0.000000000               0.000000000               0.000000000              -0.000198612               0.006172721              -0.000336786              -0.000846068               0.002339576               0.001493508               0.000000000               0.000000000               0.000000000               0.000000000              -0.000134890               0.005957482              -0.000241478              -0.000795267               0.002250897               0.001455629               0.000000000               0.000000000               0.000000000               0.000000000              -0.000064788               0.005789532              -0.000128671              -0.000747985               0.002179153               0.001431168               0.000000000               0.000000000               0.000000000               0.000000000              -0.000040805               0.005701259              -0.000074098              -0.000727957               0.002143053               0.001415096               0.000000000               0.000000000               0.000000000               0.000000000               0.002391519               0.013274153               0.004250488              -0.000762451               0.004678823               0.003916371               0.000000000               0.000000000               0.000000000               0.000000000               0.000797379               0.011772448               0.002301553              -0.001172538               0.004314955               0.003142418               0.000000000               0.000000000               0.000000000               0.000000000              -0.000262986               0.011036870               0.000446353              -0.001478225               0.004171661               0.002693437               0.000000000               0.000000000               0.000000000               0.000000000              -0.000721445               0.010315708              -0.000202142              -0.001560001               0.003958535               0.002398534               0.000000000               0.000000000               0.000000000               0.000000000              -0.000893238               0.009674371              -0.000428646              -0.001544257               0.003739510               0.002195254               0.000000000               0.000000000               0.000000000               0.000000000              -0.000921889               0.009118094              -0.000491036              -0.001485466               0.003534490               0.002049023               0.000000000               0.000000000               0.000000000               0.000000000              -0.000877512               0.008621795              -0.000487270              -0.001406788               0.003342832               0.001936044               0.000000000               0.000000000               0.000000000               0.000000000              -0.000801666               0.008162616              -0.000456787              -0.001320949               0.003161161               0.001840212               0.000000000               0.000000000               0.000000000               0.000000000              -0.000710399               0.007733184              -0.000421269              -0.001233045               0.002988717               0.001755673               0.000000000               0.000000000               0.000000000               0.000000000              -0.000611981               0.007333789              -0.000384214              -0.001146214               0.002826643               0.001680429               0.000000000               0.000000000               0.000000000               0.000000000              -0.000514135               0.006969350              -0.000345554              -0.001063967               0.002677749               0.001613782               0.000000000               0.000000000               0.000000000               0.000000000              -0.000420091               0.006648323              -0.000305050              -0.000988572               0.002545609               0.001557037               0.000000000               0.000000000               0.000000000               0.000000000              -0.000333990               0.006370758              -0.000258189              -0.000921589               0.002430761               0.001509172               0.000000000               0.000000000               0.000000000               0.000000000              -0.000247146               0.006137217              -0.000202291              -0.000859830               0.002332328               0.001472499               0.000000000               0.000000000               0.000000000               0.000000000              -0.000156385               0.005945942              -0.000137596              -0.000801885               0.002249256               0.001447371               0.000000000               0.000000000               0.000000000               0.000000000              -0.000071471               0.005801435              -0.000068143              -0.000751979               0.002184452               0.001432473               0.000000000               0.000000000               0.000000000               0.000000000              -0.000043681               0.005726229              -0.000039963              -0.000732157               0.002152776               0.001420619               0.000000000               0.000000000               0.000000000               0.000000000               0.001955036               0.010763252               0.003944321              -0.000612270               0.003791804               0.003179533               0.000000000               0.000000000               0.000000000               0.000000000               0.000194140               0.010252308               0.002290147              -0.001208735               0.003820313               0.002611578               0.000000000               0.000000000               0.000000000               0.000000000              -0.001087086               0.010326161               0.000709187              -0.001698423               0.004008160               0.002309737               0.000000000               0.000000000               0.000000000               0.000000000              -0.001452183               0.009911005               0.000166432              -0.001783440               0.003898115               0.002114675               0.000000000               0.000000000               0.000000000               0.000000000              -0.001471350               0.009406511              -0.000040502              -0.001727566               0.003711328               0.001983762               0.000000000               0.000000000               0.000000000               0.000000000              -0.001357399               0.008904320              -0.000119193              -0.001622061               0.003508764               0.001886703               0.000000000               0.000000000               0.000000000               0.000000000              -0.001199038               0.008415410              -0.000140535              -0.001501562               0.003305629               0.001804068               0.000000000               0.000000000               0.000000000               0.000000000              -0.001031201               0.007948678              -0.000138453              -0.001380282               0.003109627               0.001729345               0.000000000               0.000000000               0.000000000               0.000000000              -0.000865604               0.007512040              -0.000131209              -0.001263603               0.002925189               0.001661586               0.000000000               0.000000000               0.000000000               0.000000000              -0.000707607               0.007112937              -0.000123375              -0.001154467               0.002755778               0.001601311               0.000000000               0.000000000               0.000000000               0.000000000              -0.000565127               0.006756519              -0.000117783              -0.001056485               0.002604312               0.001547827               0.000000000               0.000000000               0.000000000               0.000000000              -0.000438091               0.006444909              -0.000114334              -0.000969895               0.002471580               0.001501685               0.000000000               0.000000000               0.000000000               0.000000000              -0.000322137               0.006176919              -0.000105658              -0.000892914               0.002356591               0.001463676               0.000000000               0.000000000               0.000000000               0.000000000              -0.000217865               0.005953188              -0.000085444              -0.000825846               0.002259658               0.001433812               0.000000000               0.000000000               0.000000000               0.000000000              -0.000128518               0.005775047              -0.000055332              -0.000770073               0.002181688               0.001411614               0.000000000               0.000000000               0.000000000               0.000000000              -0.000055647               0.005646732              -0.000025601              -0.000726707               0.002124461               0.001397754               0.000000000               0.000000000               0.000000000               0.000000000              -0.000034848               0.005579352              -0.000019181              -0.000710485               0.002096594               0.001386109               0.000000000               0.000000000               0.000000000               0.000000000               0.001258417               0.008433587               0.003369973              -0.000582294               0.003005264               0.002422970               0.000000000               0.000000000               0.000000000               0.000000000              -0.000475638               0.008856806               0.002200955              -0.001285463               0.003380726               0.002095263               0.000000000               0.000000000               0.000000000               0.000000000              -0.001776609               0.009605891               0.001039098              -0.001866960               0.003824252               0.001957291               0.000000000               0.000000000               0.000000000               0.000000000              -0.001971299               0.009433171               0.000594533              -0.001918379               0.003783819               0.001865440               0.000000000               0.000000000               0.000000000               0.000000000              -0.001832356               0.009032504               0.000384003              -0.001816192               0.003616202               0.001800010               0.000000000               0.000000000               0.000000000               0.000000000              -0.001593843               0.008568367               0.000272826              -0.001668733               0.003412338               0.001743605               0.000000000               0.000000000               0.000000000               0.000000000              -0.001337567               0.008091120               0.000209682              -0.001512974               0.003201338               0.001688364               0.000000000               0.000000000               0.000000000               0.000000000              -0.001097685               0.007626287               0.000169393              -0.001364914               0.002997042               0.001632127               0.000000000               0.000000000               0.000000000               0.000000000              -0.000880292               0.007194018               0.000136748              -0.001229359               0.002807768               0.001578410               0.000000000               0.000000000               0.000000000               0.000000000              -0.000684603               0.006803116               0.000103306              -0.001107113               0.002636720               0.001529607               0.000000000               0.000000000               0.000000000               0.000000000              -0.000516793               0.006456077               0.000068318              -0.001000804               0.002485606               0.001484801               0.000000000               0.000000000               0.000000000               0.000000000              -0.000374708               0.006151585               0.000033769              -0.000909461               0.002353662               0.001444200               0.000000000               0.000000000               0.000000000               0.000000000              -0.000254216               0.005890995               0.000005581              -0.000831703               0.002240880               0.001409176               0.000000000               0.000000000               0.000000000               0.000000000              -0.000156573               0.005677645              -0.000010254              -0.000768419               0.002148669               0.001380250               0.000000000               0.000000000               0.000000000               0.000000000              -0.000087519               0.005514677              -0.000013376              -0.000722152               0.002078925               0.001356772               0.000000000               0.000000000               0.000000000               0.000000000              -0.000040634               0.005400118              -0.000009994              -0.000690251               0.002030105               0.001339854               0.000000000               0.000000000               0.000000000               0.000000000              -0.000027378               0.005339457              -0.000012783              -0.000677697               0.002005700               0.001328003               0.000000000               0.000000000               0.000000000               0.000000000               0.000409803               0.006448524               0.002639224              -0.000652390               0.002366949               0.001714559               0.000000000               0.000000000               0.000000000               0.000000000              -0.001117007               0.007607341               0.002083763              -0.001369793               0.002992352               0.001622559               0.000000000               0.000000000               0.000000000               0.000000000              -0.002287661               0.008895004               0.001424792              -0.001969744               0.003621553               0.001651809               0.000000000               0.000000000               0.000000000               0.000000000              -0.002304912               0.008954852               0.001043206              -0.001983694               0.003646152               0.001662458               0.000000000               0.000000000               0.000000000               0.000000000              -0.002042741               0.008668905               0.000807488              -0.001849636               0.003506151               0.001656515               0.000000000               0.000000000               0.000000000               0.000000000              -0.001713258               0.008268625               0.000650455              -0.001676046               0.003314863               0.001638817               0.000000000               0.000000000               0.000000000               0.000000000              -0.001388659               0.007826005               0.000541209              -0.001498994               0.003108307               0.001609313               0.000000000               0.000000000               0.000000000               0.000000000              -0.001095502               0.007385258               0.000457651              -0.001333967               0.002906384               0.001572417               0.000000000               0.000000000               0.000000000               0.000000000              -0.000836863               0.006970385               0.000383009              -0.001185119               0.002718478               0.001533359               0.000000000               0.000000000               0.000000000               0.000000000              -0.000614874               0.006591463               0.000310206              -0.001054508               0.002548635               0.001494127               0.000000000               0.000000000               0.000000000               0.000000000              -0.000433198               0.006251819               0.000239158              -0.000943924               0.002398560               0.001454636               0.000000000               0.000000000               0.000000000               0.000000000              -0.000286632               0.005953627               0.000169854              -0.000851688               0.002268419               0.001416730               0.000000000               0.000000000               0.000000000               0.000000000              -0.000174566               0.005695373               0.000103755              -0.000777382               0.002157566               0.001380184               0.000000000               0.000000000               0.000000000               0.000000000              -0.000109221               0.005478651               0.000047561              -0.000725788               0.002068128               0.001342340               0.000000000               0.000000000               0.000000000               0.000000000              -0.000088541               0.005309984               0.000011241              -0.000696949               0.002002294               0.001305344               0.000000000               0.000000000               0.000000000               0.000000000              -0.000084197               0.005187688              -0.000003812              -0.000680033               0.001955890               0.001275856               0.000000000               0.000000000               0.000000000               0.000000000              -0.000078969               0.005130736              -0.000008117              -0.000670954               0.001933880               0.001262926               0.000000000               0.000000000               0.000000000               0.000000000              -0.000601179               0.004591859               0.001854961              -0.000799424               0.001797078               0.000997654               0.000000000               0.000000000               0.000000000               0.000000000              -0.001638773               0.006159232               0.001946768              -0.001384441               0.002514537               0.001130095               0.000000000               0.000000000               0.000000000               0.000000000              -0.002560771               0.007826492               0.001834963              -0.001938596               0.003255003               0.001316407               0.000000000               0.000000000               0.000000000               0.000000000              -0.002488094               0.008213534               0.001525631              -0.001959722               0.003391058               0.001431336               0.000000000               0.000000000               0.000000000               0.000000000              -0.002180183               0.008153796               0.001260750              -0.001836789               0.003330167               0.001493379               0.000000000               0.000000000               0.000000000               0.000000000              -0.001825478               0.007916405               0.001054624              -0.001674101               0.003196809               0.001522708               0.000000000               0.000000000               0.000000000               0.000000000              -0.001480342               0.007595419               0.000893668              -0.001504552               0.003033298               0.001528746               0.000000000               0.000000000               0.000000000               0.000000000              -0.001169923               0.007241999               0.000765064              -0.001343968               0.002861965               0.001517997               0.000000000               0.000000000               0.000000000               0.000000000              -0.000897150               0.006881847               0.000653695              -0.001196659               0.002692812               0.001496153               0.000000000               0.000000000               0.000000000               0.000000000              -0.000663173               0.006539925               0.000548131              -0.001066178               0.002535346               0.001469168               0.000000000               0.000000000               0.000000000               0.000000000              -0.000468587               0.006225697               0.000447839              -0.000953930               0.002393188               0.001439258               0.000000000               0.000000000               0.000000000               0.000000000              -0.000317522               0.005938661               0.000347800              -0.000861401               0.002266667               0.001405266               0.000000000               0.000000000               0.000000000               0.000000000              -0.000209896               0.005676643               0.000243525              -0.000788290               0.002154959               0.001366669               0.000000000               0.000000000               0.000000000               0.000000000              -0.000147797               0.005449179               0.000141280              -0.000736569               0.002061898               0.001325328               0.000000000               0.000000000               0.000000000               0.000000000              -0.000135076               0.005261545               0.000063037              -0.000708345               0.001989946               0.001281601               0.000000000               0.000000000               0.000000000               0.000000000              -0.000159164               0.005113844               0.000018992              -0.000698915               0.001937569               0.001238654               0.000000000               0.000000000               0.000000000               0.000000000              -0.000179439               0.005044031               0.000002437              -0.000697792               0.001913924               0.001216132               0.000000000               0.000000000               0.000000000               0.000000000              -0.001915447               0.002909342               0.001066767              -0.001081958               0.001330423               0.000248465               0.000000000               0.000000000               0.000000000               0.000000000              -0.002227548               0.004705053               0.001737368              -0.001423459               0.002042821               0.000619362               0.000000000               0.000000000               0.000000000               0.000000000              -0.002744952               0.006574210               0.002153020              -0.001851129               0.002808424               0.000957294               0.000000000               0.000000000               0.000000000               0.000000000              -0.002596505               0.007272236               0.001978635              -0.001882715               0.003051626               0.001168911               0.000000000               0.000000000               0.000000000               0.000000000              -0.002270964               0.007477971               0.001716943              -0.001786354               0.003088083               0.001301729               0.000000000               0.000000000               0.000000000               0.000000000              -0.001910044               0.007444678               0.001477989              -0.001646847               0.003030483               0.001383636               0.000000000               0.000000000               0.000000000               0.000000000              -0.001560335               0.007286118               0.001275736              -0.001495887               0.002927311               0.001431424               0.000000000               0.000000000               0.000000000               0.000000000              -0.001241891               0.007055511               0.001108193              -0.001347645               0.002801028               0.001453383               0.000000000               0.000000000               0.000000000               0.000000000              -0.000957548               0.006789831               0.000965747              -0.001207807               0.002665856               0.001458050               0.000000000               0.000000000               0.000000000               0.000000000              -0.000705009               0.006518610               0.000836245              -0.001079202               0.002532582               0.001453380               0.000000000               0.000000000               0.000000000               0.000000000              -0.000487154               0.006252571               0.000714266              -0.000964252               0.002405587               0.001441335               0.000000000               0.000000000               0.000000000               0.000000000              -0.000313904               0.005991249               0.000588551              -0.000866618               0.002285936               0.001419318               0.000000000               0.000000000               0.000000000               0.000000000              -0.000191499               0.005738105               0.000454495              -0.000789073               0.002175707               0.001386633               0.000000000               0.000000000               0.000000000               0.000000000              -0.000117281               0.005504450               0.000314545              -0.000732035               0.002078810               0.001346775               0.000000000               0.000000000               0.000000000               0.000000000              -0.000097522               0.005301730               0.000183435              -0.000699285               0.002000321               0.001301035               0.000000000               0.000000000               0.000000000               0.000000000              -0.000144100               0.005134369               0.000077487              -0.000695832               0.001943383               0.001247551               0.000000000               0.000000000               0.000000000               0.000000000              -0.000203512               0.005044794               0.000024791              -0.000706914               0.001917219               0.001210305               0.000000000               0.000000000               0.000000000               0.000000000              -0.003444757               0.001531940               0.000339850              -0.001483274               0.001005065              -0.000478209               0.000000000               0.000000000               0.000000000               0.000000000              -0.002937481               0.003337349               0.001435953              -0.001518721               0.001618678               0.000099957               0.000000000               0.000000000               0.000000000               0.000000000              -0.002879609               0.005168005               0.002274212              -0.001725851               0.002297934               0.000572083               0.000000000               0.000000000               0.000000000               0.000000000              -0.002580959               0.006084107               0.002273087              -0.001728370               0.002604138               0.000875768               0.000000000               0.000000000               0.000000000               0.000000000              -0.002225928               0.006528399               0.002065194              -0.001650770               0.002726367               0.001075598               0.000000000               0.000000000               0.000000000               0.000000000              -0.001868575               0.006707644               0.001826675              -0.001539168               0.002748914               0.001209746               0.000000000               0.000000000               0.000000000               0.000000000              -0.001523288               0.006733020               0.001603775              -0.001412857               0.002715270               0.001302412               0.000000000               0.000000000               0.000000000               0.000000000              -0.001207405               0.006656223               0.001409708              -0.001284802               0.002646986               0.001362184               0.000000000               0.000000000               0.000000000               0.000000000              -0.000922675               0.006518917               0.001244393              -0.001160865               0.002559906               0.001399040               0.000000000               0.000000000               0.000000000               0.000000000              -0.000660353               0.006346871               0.001100724              -0.001040989               0.002462599               0.001421610               0.000000000               0.000000000               0.000000000               0.000000000              -0.000424749               0.006153866               0.000966893              -0.000928512               0.002360772               0.001432260               0.000000000               0.000000000               0.000000000               0.000000000              -0.000224688               0.005946102               0.000826131              -0.000827519               0.002257854               0.001430335               0.000000000               0.000000000               0.000000000               0.000000000              -0.000069336               0.005733978               0.000673234              -0.000742747               0.002158889               0.001416142               0.000000000               0.000000000               0.000000000               0.000000000               0.000033866               0.005525690               0.000507842              -0.000678010               0.002067881               0.001389872               0.000000000               0.000000000               0.000000000               0.000000000               0.000077693               0.005329669               0.000333374              -0.000637072               0.001988896               0.001351824               0.000000000               0.000000000               0.000000000               0.000000000               0.000048357               0.005155173               0.000161439              -0.000626261               0.001927128               0.001300866               0.000000000               0.000000000               0.000000000               0.000000000              -0.000012791               0.005057837               0.000069815              -0.000637025               0.001898270               0.001261246               0.000000000               0.000000000               0.000000000               0.000000000              -0.005085484               0.000527050              -0.000224950              -0.001972936               0.000833323              -0.001139613               0.000000000               0.000000000               0.000000000               0.000000000              -0.003728054               0.002129368               0.001084587              -0.001664188               0.001264510              -0.000399679               0.000000000               0.000000000               0.000000000               0.000000000              -0.002992539               0.003726933               0.002176230              -0.001588066               0.001771653               0.000183587               0.000000000               0.000000000               0.000000000               0.000000000              -0.002467140               0.004748141               0.002335901              -0.001518692               0.002088927               0.000570235               0.000000000               0.000000000               0.000000000               0.000000000              -0.002046854               0.005378081               0.002209019              -0.001439828               0.002272618               0.000832790               0.000000000               0.000000000               0.000000000               0.000000000              -0.001689009               0.005751172               0.002007078              -0.001352272               0.002367795               0.001015523               0.000000000               0.000000000               0.000000000               0.000000000              -0.001361524               0.005958037               0.001793641              -0.001255324               0.002404433               0.001149109               0.000000000               0.000000000               0.000000000               0.000000000              -0.001058123               0.006046601               0.001594318              -0.001152619               0.002399719               0.001247100               0.000000000               0.000000000               0.000000000               0.000000000              -0.000778599               0.006055489               0.001421923              -0.001048909               0.002368112               0.001319203               0.000000000               0.000000000               0.000000000               0.000000000              -0.000515399               0.006007899               0.001273997              -0.000944260               0.002317366               0.001373106               0.000000000               0.000000000               0.000000000               0.000000000              -0.000269266               0.005915999               0.001136944              -0.000840473               0.002252137               0.001411664               0.000000000               0.000000000               0.000000000               0.000000000              -0.000044739               0.005790304               0.000994335              -0.000740564               0.002176937               0.001436373               0.000000000               0.000000000               0.000000000               0.000000000               0.000152077               0.005645605               0.000836839              -0.000648670               0.002098073               0.001449403               0.000000000               0.000000000               0.000000000               0.000000000               0.000309168               0.005488186               0.000659759              -0.000570084               0.002019405               0.001449321               0.000000000               0.000000000               0.000000000               0.000000000               0.000416851               0.005322268               0.000464178              -0.000508963               0.001943726               0.001434763               0.000000000               0.000000000               0.000000000               0.000000000               0.000461022               0.005158951               0.000245172              -0.000471985               0.001876961               0.001404977               0.000000000               0.000000000               0.000000000               0.000000000               0.000451502               0.005071790               0.000125018              -0.000464659               0.001845466               0.001380807               0.000000000               0.000000000               0.000000000               0.000000000              -0.006677479              -0.000131844              -0.000538640              -0.002487572               0.000785237              -0.001702335               0.000000000               0.000000000               0.000000000               0.000000000              -0.004523587               0.001145233               0.000739811              -0.001839497               0.000994903              -0.000844594               0.000000000               0.000000000               0.000000000               0.000000000              -0.003092524               0.002396481               0.001861551              -0.001459254               0.001285235              -0.000174019               0.000000000               0.000000000               0.000000000               0.000000000              -0.002302801               0.003414069               0.002119118              -0.001290307               0.001568113               0.000277806               0.000000000               0.000000000               0.000000000               0.000000000              -0.001787924               0.004160136               0.002072000              -0.001190487               0.001783526               0.000593039               0.000000000               0.000000000               0.000000000               0.000000000              -0.001407764               0.004690206               0.001925429              -0.001114186               0.001934781               0.000820595               0.000000000               0.000000000               0.000000000               0.000000000              -0.001094486               0.005055584               0.001750202              -0.001042379               0.002032637               0.000990258               0.000000000               0.000000000               0.000000000               0.000000000              -0.000809835               0.005299290               0.001575471              -0.000966098               0.002088445               0.001122347               0.000000000               0.000000000               0.000000000               0.000000000              -0.000543003               0.005452034               0.001418952              -0.000885129               0.002112369               0.001227240               0.000000000               0.000000000               0.000000000               0.000000000              -0.000287545               0.005531994               0.001283000              -0.000799327               0.002110422               0.001311094               0.000000000               0.000000000               0.000000000               0.000000000              -0.000037066               0.005553987               0.001156364              -0.000708147               0.002087359               0.001379212               0.000000000               0.000000000               0.000000000               0.000000000               0.000208954               0.005529574               0.001023973              -0.000612838               0.002047452               0.001434614               0.000000000               0.000000000               0.000000000               0.000000000               0.000446919               0.005469300               0.000876566              -0.000516067               0.001995104               0.001479037               0.000000000               0.000000000               0.000000000               0.000000000               0.000675226               0.005379718               0.000711358              -0.000419254               0.001932973               0.001513719               0.000000000               0.000000000               0.000000000               0.000000000               0.000888722               0.005266904               0.000522963              -0.000325091               0.001863981               0.001538889               0.000000000               0.000000000               0.000000000               0.000000000               0.001065712               0.005136637               0.000287916              -0.000242437               0.001793008               0.001550570               0.000000000               0.000000000               0.000000000               0.000000000               0.001166236               0.005077290               0.000159607              -0.000197323               0.001758187               0.001560865               0.000000000               0.000000000               0.000000000               0.000000000              -0.008019110              -0.000503770              -0.000570836              -0.002944193               0.000813469              -0.002130724               0.000000000               0.000000000               0.000000000               0.000000000              -0.005218651               0.000429710               0.000442133              -0.002010706               0.000813466              -0.001197240               0.000000000               0.000000000               0.000000000               0.000000000              -0.003178931               0.001316751               0.001359864              -0.001356691               0.000891141              -0.000465550               0.000000000               0.000000000               0.000000000               0.000000000              -0.002133889               0.002265163               0.001615656              -0.001083352               0.001116163               0.000032811               0.000000000               0.000000000               0.000000000               0.000000000              -0.001516107               0.003064881               0.001621233              -0.000951649               0.001338832               0.000387184               0.000000000               0.000000000               0.000000000               0.000000000              -0.001099637               0.003700003               0.001533552              -0.000874863               0.001524942               0.000650080               0.000000000               0.000000000               0.000000000               0.000000000              -0.000783637               0.004188647               0.001413083              -0.000817444               0.001668683               0.000851239               0.000000000               0.000000000               0.000000000               0.000000000              -0.000513285               0.004555289               0.001285523              -0.000761892               0.001772378               0.001010486               0.000000000               0.000000000               0.000000000               0.000000000              -0.000261665               0.004823091               0.001166830              -0.000701009               0.001841351               0.001140341               0.000000000               0.000000000               0.000000000               0.000000000              -0.000014675               0.005010769               0.001062838              -0.000631848               0.001880855               0.001249007               0.000000000               0.000000000               0.000000000               0.000000000               0.000234152               0.005136082               0.000964092              -0.000554202               0.001896744               0.001342542               0.000000000               0.000000000               0.000000000               0.000000000               0.000492261               0.005209782               0.000858120              -0.000466624               0.001892118               0.001425494               0.000000000               0.000000000               0.000000000               0.000000000               0.000766660               0.005235045               0.000741318              -0.000366882               0.001867291               0.001500409               0.000000000               0.000000000               0.000000000               0.000000000               0.001063874               0.005218482               0.000615046              -0.000253357               0.001823929               0.001570572               0.000000000               0.000000000               0.000000000               0.000000000               0.001384443               0.005171294               0.000463512              -0.000127246               0.001766163               0.001638917               0.000000000               0.000000000               0.000000000               0.000000000               0.001722196               0.005095964               0.000258913               0.000008827               0.001695695               0.001704523               0.000000000               0.000000000               0.000000000               0.000000000               0.001968292               0.005078790               0.000150665               0.000103260               0.001658493               0.001761753               0.000000000               0.000000000               0.000000000               0.000000000              -0.008917577              -0.000675140              -0.000357231              -0.003259697               0.000861513              -0.002398184               0.000000000               0.000000000               0.000000000               0.000000000              -0.005697784               0.000000388               0.000201164              -0.002136716               0.000712363              -0.001424353               0.000000000               0.000000000               0.000000000               0.000000000              -0.003243492               0.000607985               0.000717400              -0.001292306               0.000633426              -0.000658880               0.000000000               0.000000000               0.000000000               0.000000000              -0.002004532               0.001480212               0.000875938              -0.000936724               0.000805639              -0.000131085               0.000000000               0.000000000               0.000000000               0.000000000              -0.001303091               0.002300340               0.000893037              -0.000776200               0.001025505               0.000249305               0.000000000               0.000000000               0.000000000               0.000000000              -0.000856852               0.002991472               0.000854723              -0.000695252               0.001228898               0.000533646               0.000000000               0.000000000               0.000000000               0.000000000              -0.000534991               0.003551690               0.000794254              -0.000644582               0.001398745               0.000754164               0.000000000               0.000000000               0.000000000               0.000000000              -0.000269615               0.003993654               0.000726705              -0.000600311               0.001531308               0.000930997               0.000000000               0.000000000               0.000000000               0.000000000              -0.000025458               0.004334511               0.000663968              -0.000551360               0.001628609               0.001077250               0.000000000               0.000000000               0.000000000               0.000000000               0.000214167               0.004595927               0.000608352              -0.000494177               0.001696686               0.001202509               0.000000000               0.000000000               0.000000000               0.000000000               0.000459696               0.004793145               0.000552911              -0.000426756               0.001739951               0.001313195               0.000000000               0.000000000               0.000000000               0.000000000               0.000725391               0.004935288               0.000493086              -0.000344889               0.001760042               0.001415154               0.000000000               0.000000000               0.000000000               0.000000000               0.001025217               0.005026023               0.000429457              -0.000243796               0.001756590               0.001512794               0.000000000               0.000000000               0.000000000               0.000000000               0.001368733               0.005074413               0.000360875              -0.000121027               0.001731796               0.001610770               0.000000000               0.000000000               0.000000000               0.000000000               0.001763045               0.005085654               0.000275949               0.000025435               0.001686723               0.001712158               0.000000000               0.000000000               0.000000000               0.000000000               0.002224387               0.005055533               0.000157052               0.000202202               0.001617760               0.001819962               0.000000000               0.000000000               0.000000000               0.000000000               0.002589378               0.005071608               0.000094896               0.000337063               0.001578165               0.001915227               0.000000000               0.000000000               0.000000000               0.000000000               0.000000000               0.000000000               0.000000000               0.000000000               0.000000000               0.000000000               0.000000000               0.000000000               0.000000000               0.000000000               0.000000000               0.000000000               0.000000000               0.000000000               0.000000000               0.000000000               0.000000000               0.000000000               0.000000000               0.000000000               0.000000000               0.000000000               0.000000000               0.000000000               0.000000000               0.000000000               0.000000000               0.000000000               0.000000000               0.000000000               0.000000000               0.000000000               0.000000000               0.000000000               0.000000000               0.000000000               0.000000000               0.000000000               0.000000000               0.000000000               0.000000000               0.000000000               0.000000000               0.000000000               0.000000000               0.000000000               0.000000000               0.000000000               0.000000000               0.000000000               0.000000000               0.000000000               0.000000000               0.000000000               0.000000000               0.000000000               0.000000000               0.000000000               0.000000000               0.000000000               0.000000000               0.000000000               0.000000000               0.000000000               0.000000000               0.000000000               0.000000000               0.000000000               0.000000000               0.000000000               0.000000000               0.000000000               0.000000000               0.000000000               0.000000000               0.000000000               0.000000000               0.000000000               0.000000000               0.000000000               0.000000000               0.000000000               0.000000000               0.000000000               0.000000000               0.000000000               0.000000000               0.000000000               0.000000000               0.000000000               0.000000000               0.000000000               0.000000000               0.000000000               0.000000000               0.000000000               0.000000000               0.000000000               0.000000000               0.000000000               0.000000000               0.000000000               0.000000000               0.000000000               0.000000000               0.000000000               0.000000000               0.000000000               0.000000000               0.000000000               0.000000000               0.000000000               0.000000000               0.000000000               0.000000000               0.000000000               0.000000000               0.000000000               0.000000000               0.000000000               0.000000000               0.000000000               0.000000000               0.000000000               0.000000000               0.000000000               0.000000000               0.000000000               0.000000000               0.000000000               0.000000000               0.000000000               0.000000000               0.000000000               0.000000000               0.000000000               0.000000000               0.000000000               0.000000000               0.000000000               0.000000000               0.000000000               0.000000000               0.000000000               0.000000000               0.000000000               0.000000000               0.000000000               0.000000000               0.000000000               0.000000000               0.000000000               0.000000000               0.000000000               0.000000000               0.000000000               0.000000000               0.000000000               0.000000000               0.000000000               0.000000000               0.000000000               0.000000000               0.000000000               0.000000000               0.000000000               0.000000000               0.000000000               0.000000000               0.000000000 </DataArray>
</PointData>
</Piece>
</UnstructuredGrid> </VTKFile>
