<?xml version="1.0"?>
<VTKFile type="UnstructuredGrid" version="0.1">
<UnstructuredGrid>
<Piece NumberOfPoints="      1156" NumberOfCells="      1024">
<Points>
<DataArray type="Float64"                                    Name="coordinates"                                                      NumberOfComponents=" 3" format="ascii">
              0.133000000               0.000000000               0.000000000               0.155937500               0.000000000               0.000000000               0.178875000               0.000000000               0.000000000               0.201812500               0.000000000               0.000000000               0.224750000               0.000000000               0.000000000               0.247687500               0.000000000               0.000000000               0.270625000               0.000000000               0.000000000               0.293562500               0.000000000               0.000000000               0.316500000               0.000000000               0.000000000               0.339437500               0.000000000               0.000000000               0.362375000               0.000000000               0.000000000               0.385312500               0.000000000               0.000000000               0.408250000               0.000000000               0.000000000               0.431187500               0.000000000               0.000000000               0.454125000               0.000000000               0.000000000               0.477062500               0.000000000               0.000000000               0.500000000               0.000000000               0.000000000               0.132359569               0.013036280               0.000000000               0.155337096               0.016127762               0.000000000               0.178314623               0.019219245               0.000000000               0.201292150               0.022310727               0.000000000               0.224269676               0.025402210               0.000000000               0.247247203               0.028493692               0.000000000               0.270224730               0.031585175               0.000000000               0.293202257               0.034676657               0.000000000               0.316179784               0.037768140               0.000000000               0.339157311               0.040859622               0.000000000               0.362134838               0.043951105               0.000000000               0.385112365               0.047042587               0.000000000               0.408089892               0.050134070               0.000000000               0.431067419               0.053225552               0.000000000               0.454044946               0.056317035               0.000000000               0.477022473               0.059408517               0.000000000               0.500000000               0.062500000               0.000000000               0.130444442               0.025947013               0.000000000               0.153541665               0.032137825               0.000000000               0.176638887               0.038328636               0.000000000               0.199736109               0.044519448               0.000000000               0.222833332               0.050710260               0.000000000               0.245930554               0.056901071               0.000000000               0.269027776               0.063091883               0.000000000               0.292124999               0.069282695               0.000000000               0.315222221               0.075473506               0.000000000               0.338319444               0.081664318               0.000000000               0.361416666               0.087855130               0.000000000               0.384513888               0.094045942               0.000000000               0.407611111               0.100236753               0.000000000               0.430708333               0.106427565               0.000000000               0.453805555               0.112618377               0.000000000               0.476902778               0.118809188               0.000000000               0.500000000               0.125000000               0.000000000               0.127273065               0.038607862               0.000000000               0.150568498               0.047913621               0.000000000               0.173863932               0.057219379               0.000000000               0.197159365               0.066525138               0.000000000               0.220454798               0.075830897               0.000000000               0.243750232               0.085136655               0.000000000               0.267045665               0.094442414               0.000000000               0.290341099               0.103748172               0.000000000               0.313636532               0.113053931               0.000000000               0.336931966               0.122359690               0.000000000               0.360227399               0.131665448               0.000000000               0.383522833               0.140971207               0.000000000               0.406818266               0.150276966               0.000000000               0.430113700               0.159582724               0.000000000               0.453409133               0.168888483               0.000000000               0.476704567               0.178194241               0.000000000               0.500000000               0.187500000               0.000000000               0.122875978               0.050896897               0.000000000               0.146446229               0.063340840               0.000000000               0.170016481               0.075784784               0.000000000               0.193586732               0.088228728               0.000000000               0.217156983               0.100672672               0.000000000               0.240727235               0.113116616               0.000000000               0.264297486               0.125560560               0.000000000               0.287867738               0.138004504               0.000000000               0.311437989               0.150448448               0.000000000               0.335008240               0.162892392               0.000000000               0.358578492               0.175336336               0.000000000               0.382148743               0.187780280               0.000000000               0.405718994               0.200224224               0.000000000               0.429289246               0.212668168               0.000000000               0.452859497               0.225112112               0.000000000               0.476429749               0.237556056               0.000000000               0.500000000               0.250000000               0.000000000               0.117295528               0.062695766               0.000000000               0.141214558               0.078308531               0.000000000               0.165133587               0.093921295               0.000000000               0.189052617               0.109534060               0.000000000               0.212971646               0.125146824               0.000000000               0.236890676               0.140759589               0.000000000               0.260809705               0.156372354               0.000000000               0.284728735               0.171985118               0.000000000               0.308647764               0.187597883               0.000000000               0.332566794               0.203210648               0.000000000               0.356485823               0.218823412               0.000000000               0.380404853               0.234436177               0.000000000               0.404323882               0.250048941               0.000000000               0.428242912               0.265661706               0.000000000               0.452161941               0.281274471               0.000000000               0.476080971               0.296887235               0.000000000               0.500000000               0.312500000               0.000000000               0.110585458               0.073890841               0.000000000               0.134923867               0.092710163               0.000000000               0.159262276               0.111529486               0.000000000               0.183600685               0.130348808               0.000000000               0.207939094               0.149168131               0.000000000               0.232277503               0.167987453               0.000000000               0.256615912               0.186806776               0.000000000               0.280954320               0.205626098               0.000000000               0.305292729               0.224445420               0.000000000               0.329631138               0.243264743               0.000000000               0.353969547               0.262084065               0.000000000               0.378307956               0.280903388               0.000000000               0.402646365               0.299722710               0.000000000               0.426984773               0.318542033               0.000000000               0.451323182               0.337361355               0.000000000               0.475661591               0.356180678               0.000000000               0.500000000               0.375000000               0.000000000               0.102810390               0.084374307               0.000000000               0.127634741               0.106444663               0.000000000               0.152459092               0.128515018               0.000000000               0.177283442               0.150585374               0.000000000               0.202107793               0.172655730               0.000000000               0.226932143               0.194726086               0.000000000               0.251756494               0.216796442               0.000000000               0.276580845               0.238866798               0.000000000               0.301405195               0.260937153               0.000000000               0.326229546               0.283007509               0.000000000               0.351053896               0.305077865               0.000000000               0.375878247               0.327148221               0.000000000               0.400702598               0.349218577               0.000000000               0.425526948               0.371288933               0.000000000               0.450351299               0.393359288               0.000000000               0.475175649               0.415429644               0.000000000               0.500000000               0.437500000               0.000000000               0.094045202               0.094045202               0.000000000               0.119417377               0.119417377               0.000000000               0.144789552               0.144789552               0.000000000               0.170161727               0.170161727               0.000000000               0.195533901               0.195533901               0.000000000               0.220906076               0.220906076               0.000000000               0.246278251               0.246278251               0.000000000               0.271650426               0.271650426               0.000000000               0.297022601               0.297022601               0.000000000               0.322394776               0.322394776               0.000000000               0.347766951               0.347766951               0.000000000               0.373139126               0.373139126               0.000000000               0.398511300               0.398511300               0.000000000               0.423883475               0.423883475               0.000000000               0.449255650               0.449255650               0.000000000               0.474627825               0.474627825               0.000000000               0.500000000               0.500000000               0.000000000               0.084374307               0.102810390               0.000000000               0.106444663               0.127634741               0.000000000               0.128515018               0.152459092               0.000000000               0.150585374               0.177283442               0.000000000               0.172655730               0.202107793               0.000000000               0.194726086               0.226932143               0.000000000               0.216796442               0.251756494               0.000000000               0.238866798               0.276580845               0.000000000               0.260937153               0.301405195               0.000000000               0.283007509               0.326229546               0.000000000               0.305077865               0.351053896               0.000000000               0.327148221               0.375878247               0.000000000               0.349218577               0.400702598               0.000000000               0.371288933               0.425526948               0.000000000               0.393359288               0.450351299               0.000000000               0.415429644               0.475175649               0.000000000               0.437500000               0.500000000               0.000000000               0.073890841               0.110585458               0.000000000               0.092710163               0.134923867               0.000000000               0.111529486               0.159262276               0.000000000               0.130348808               0.183600685               0.000000000               0.149168131               0.207939094               0.000000000               0.167987453               0.232277503               0.000000000               0.186806776               0.256615912               0.000000000               0.205626098               0.280954320               0.000000000               0.224445420               0.305292729               0.000000000               0.243264743               0.329631138               0.000000000               0.262084065               0.353969547               0.000000000               0.280903388               0.378307956               0.000000000               0.299722710               0.402646365               0.000000000               0.318542033               0.426984773               0.000000000               0.337361355               0.451323182               0.000000000               0.356180678               0.475661591               0.000000000               0.375000000               0.500000000               0.000000000               0.062695766               0.117295528               0.000000000               0.078308531               0.141214558               0.000000000               0.093921295               0.165133587               0.000000000               0.109534060               0.189052617               0.000000000               0.125146824               0.212971646               0.000000000               0.140759589               0.236890676               0.000000000               0.156372354               0.260809705               0.000000000               0.171985118               0.284728735               0.000000000               0.187597883               0.308647764               0.000000000               0.203210648               0.332566794               0.000000000               0.218823412               0.356485823               0.000000000               0.234436177               0.380404853               0.000000000               0.250048941               0.404323882               0.000000000               0.265661706               0.428242912               0.000000000               0.281274471               0.452161941               0.000000000               0.296887235               0.476080971               0.000000000               0.312500000               0.500000000               0.000000000               0.050896897               0.122875978               0.000000000               0.063340840               0.146446229               0.000000000               0.075784784               0.170016481               0.000000000               0.088228728               0.193586732               0.000000000               0.100672672               0.217156983               0.000000000               0.113116616               0.240727235               0.000000000               0.125560560               0.264297486               0.000000000               0.138004504               0.287867738               0.000000000               0.150448448               0.311437989               0.000000000               0.162892392               0.335008240               0.000000000               0.175336336               0.358578492               0.000000000               0.187780280               0.382148743               0.000000000               0.200224224               0.405718994               0.000000000               0.212668168               0.429289246               0.000000000               0.225112112               0.452859497               0.000000000               0.237556056               0.476429749               0.000000000               0.250000000               0.500000000               0.000000000               0.038607862               0.127273065               0.000000000               0.047913621               0.150568498               0.000000000               0.057219379               0.173863932               0.000000000               0.066525138               0.197159365               0.000000000               0.075830897               0.220454798               0.000000000               0.085136655               0.243750232               0.000000000               0.094442414               0.267045665               0.000000000               0.103748172               0.290341099               0.000000000               0.113053931               0.313636532               0.000000000               0.122359690               0.336931966               0.000000000               0.131665448               0.360227399               0.000000000               0.140971207               0.383522833               0.000000000               0.150276966               0.406818266               0.000000000               0.159582724               0.430113700               0.000000000               0.168888483               0.453409133               0.000000000               0.178194241               0.476704567               0.000000000               0.187500000               0.500000000               0.000000000               0.025947013               0.130444442               0.000000000               0.032137825               0.153541665               0.000000000               0.038328636               0.176638887               0.000000000               0.044519448               0.199736109               0.000000000               0.050710260               0.222833332               0.000000000               0.056901071               0.245930554               0.000000000               0.063091883               0.269027776               0.000000000               0.069282695               0.292124999               0.000000000               0.075473506               0.315222221               0.000000000               0.081664318               0.338319444               0.000000000               0.087855130               0.361416666               0.000000000               0.094045942               0.384513888               0.000000000               0.100236753               0.407611111               0.000000000               0.106427565               0.430708333               0.000000000               0.112618377               0.453805555               0.000000000               0.118809188               0.476902778               0.000000000               0.125000000               0.500000000               0.000000000               0.013036280               0.132359569               0.000000000               0.016127762               0.155337096               0.000000000               0.019219245               0.178314623               0.000000000               0.022310727               0.201292150               0.000000000               0.025402210               0.224269676               0.000000000               0.028493692               0.247247203               0.000000000               0.031585175               0.270224730               0.000000000               0.034676657               0.293202257               0.000000000               0.037768140               0.316179784               0.000000000               0.040859622               0.339157311               0.000000000               0.043951105               0.362134838               0.000000000               0.047042587               0.385112365               0.000000000               0.050134070               0.408089892               0.000000000               0.053225552               0.431067419               0.000000000               0.056317035               0.454044946               0.000000000               0.059408517               0.477022473               0.000000000               0.062500000               0.500000000               0.000000000               0.000000000               0.133000000               0.000000000               0.000000000               0.155937500               0.000000000               0.000000000               0.178875000               0.000000000               0.000000000               0.201812500               0.000000000               0.000000000               0.224750000               0.000000000               0.000000000               0.247687500               0.000000000               0.000000000               0.270625000               0.000000000               0.000000000               0.293562500               0.000000000               0.000000000               0.316500000               0.000000000               0.000000000               0.339437500               0.000000000               0.000000000               0.362375000               0.000000000               0.000000000               0.385312500               0.000000000               0.000000000               0.408250000               0.000000000               0.000000000               0.431187500               0.000000000               0.000000000               0.454125000               0.000000000               0.000000000               0.477062500               0.000000000               0.000000000               0.500000000               0.000000000               0.133000000               0.000000000               0.000000000               0.155937500               0.000000000               0.000000000               0.178875000               0.000000000               0.000000000               0.201812500               0.000000000               0.000000000               0.224750000               0.000000000               0.000000000               0.247687500               0.000000000               0.000000000               0.270625000               0.000000000               0.000000000               0.293562500               0.000000000               0.000000000               0.316500000               0.000000000               0.000000000               0.339437500               0.000000000               0.000000000               0.362375000               0.000000000               0.000000000               0.385312500               0.000000000               0.000000000               0.408250000               0.000000000               0.000000000               0.431187500               0.000000000               0.000000000               0.454125000               0.000000000               0.000000000               0.477062500               0.000000000               0.000000000               0.500000000               0.000000000               0.000000000               0.132359569              -0.013036280               0.000000000               0.155337096              -0.016127762               0.000000000               0.178314623              -0.019219245               0.000000000               0.201292150              -0.022310727               0.000000000               0.224269676              -0.025402210               0.000000000               0.247247203              -0.028493692               0.000000000               0.270224730              -0.031585175               0.000000000               0.293202257              -0.034676657               0.000000000               0.316179784              -0.037768140               0.000000000               0.339157311              -0.040859622               0.000000000               0.362134838              -0.043951105               0.000000000               0.385112365              -0.047042587               0.000000000               0.408089892              -0.050134070               0.000000000               0.431067419              -0.053225552               0.000000000               0.454044946              -0.056317035               0.000000000               0.477022473              -0.059408517               0.000000000               0.500000000              -0.062500000               0.000000000               0.130444442              -0.025947013               0.000000000               0.153541665              -0.032137825               0.000000000               0.176638887              -0.038328636               0.000000000               0.199736109              -0.044519448               0.000000000               0.222833332              -0.050710260               0.000000000               0.245930554              -0.056901071               0.000000000               0.269027776              -0.063091883               0.000000000               0.292124999              -0.069282695               0.000000000               0.315222221              -0.075473506               0.000000000               0.338319444              -0.081664318               0.000000000               0.361416666              -0.087855130               0.000000000               0.384513888              -0.094045942               0.000000000               0.407611111              -0.100236753               0.000000000               0.430708333              -0.106427565               0.000000000               0.453805555              -0.112618377               0.000000000               0.476902778              -0.118809188               0.000000000               0.500000000              -0.125000000               0.000000000               0.127273065              -0.038607862               0.000000000               0.150568498              -0.047913621               0.000000000               0.173863932              -0.057219379               0.000000000               0.197159365              -0.066525138               0.000000000               0.220454798              -0.075830897               0.000000000               0.243750232              -0.085136655               0.000000000               0.267045665              -0.094442414               0.000000000               0.290341099              -0.103748172               0.000000000               0.313636532              -0.113053931               0.000000000               0.336931966              -0.122359690               0.000000000               0.360227399              -0.131665448               0.000000000               0.383522833              -0.140971207               0.000000000               0.406818266              -0.150276966               0.000000000               0.430113700              -0.159582724               0.000000000               0.453409133              -0.168888483               0.000000000               0.476704567              -0.178194241               0.000000000               0.500000000              -0.187500000               0.000000000               0.122875978              -0.050896897               0.000000000               0.146446229              -0.063340840               0.000000000               0.170016481              -0.075784784               0.000000000               0.193586732              -0.088228728               0.000000000               0.217156983              -0.100672672               0.000000000               0.240727235              -0.113116616               0.000000000               0.264297486              -0.125560560               0.000000000               0.287867738              -0.138004504               0.000000000               0.311437989              -0.150448448               0.000000000               0.335008240              -0.162892392               0.000000000               0.358578492              -0.175336336               0.000000000               0.382148743              -0.187780280               0.000000000               0.405718994              -0.200224224               0.000000000               0.429289246              -0.212668168               0.000000000               0.452859497              -0.225112112               0.000000000               0.476429749              -0.237556056               0.000000000               0.500000000              -0.250000000               0.000000000               0.117295528              -0.062695766               0.000000000               0.141214558              -0.078308531               0.000000000               0.165133587              -0.093921295               0.000000000               0.189052617              -0.109534060               0.000000000               0.212971646              -0.125146824               0.000000000               0.236890676              -0.140759589               0.000000000               0.260809705              -0.156372354               0.000000000               0.284728735              -0.171985118               0.000000000               0.308647764              -0.187597883               0.000000000               0.332566794              -0.203210648               0.000000000               0.356485823              -0.218823412               0.000000000               0.380404853              -0.234436177               0.000000000               0.404323882              -0.250048941               0.000000000               0.428242912              -0.265661706               0.000000000               0.452161941              -0.281274471               0.000000000               0.476080971              -0.296887235               0.000000000               0.500000000              -0.312500000               0.000000000               0.110585458              -0.073890841               0.000000000               0.134923867              -0.092710163               0.000000000               0.159262276              -0.111529486               0.000000000               0.183600685              -0.130348808               0.000000000               0.207939094              -0.149168131               0.000000000               0.232277503              -0.167987453               0.000000000               0.256615912              -0.186806776               0.000000000               0.280954320              -0.205626098               0.000000000               0.305292729              -0.224445420               0.000000000               0.329631138              -0.243264743               0.000000000               0.353969547              -0.262084065               0.000000000               0.378307956              -0.280903388               0.000000000               0.402646365              -0.299722710               0.000000000               0.426984773              -0.318542033               0.000000000               0.451323182              -0.337361355               0.000000000               0.475661591              -0.356180678               0.000000000               0.500000000              -0.375000000               0.000000000               0.102810390              -0.084374307               0.000000000               0.127634741              -0.106444663               0.000000000               0.152459092              -0.128515018               0.000000000               0.177283442              -0.150585374               0.000000000               0.202107793              -0.172655730               0.000000000               0.226932143              -0.194726086               0.000000000               0.251756494              -0.216796442               0.000000000               0.276580845              -0.238866798               0.000000000               0.301405195              -0.260937153               0.000000000               0.326229546              -0.283007509               0.000000000               0.351053896              -0.305077865               0.000000000               0.375878247              -0.327148221               0.000000000               0.400702598              -0.349218577               0.000000000               0.425526948              -0.371288933               0.000000000               0.450351299              -0.393359288               0.000000000               0.475175649              -0.415429644               0.000000000               0.500000000              -0.437500000               0.000000000               0.094045202              -0.094045202               0.000000000               0.119417377              -0.119417377               0.000000000               0.144789552              -0.144789552               0.000000000               0.170161727              -0.170161727               0.000000000               0.195533901              -0.195533901               0.000000000               0.220906076              -0.220906076               0.000000000               0.246278251              -0.246278251               0.000000000               0.271650426              -0.271650426               0.000000000               0.297022601              -0.297022601               0.000000000               0.322394776              -0.322394776               0.000000000               0.347766951              -0.347766951               0.000000000               0.373139126              -0.373139126               0.000000000               0.398511300              -0.398511300               0.000000000               0.423883475              -0.423883475               0.000000000               0.449255650              -0.449255650               0.000000000               0.474627825              -0.474627825               0.000000000               0.500000000              -0.500000000               0.000000000               0.084374307              -0.102810390               0.000000000               0.106444663              -0.127634741               0.000000000               0.128515018              -0.152459092               0.000000000               0.150585374              -0.177283442               0.000000000               0.172655730              -0.202107793               0.000000000               0.194726086              -0.226932143               0.000000000               0.216796442              -0.251756494               0.000000000               0.238866798              -0.276580845               0.000000000               0.260937153              -0.301405195               0.000000000               0.283007509              -0.326229546               0.000000000               0.305077865              -0.351053896               0.000000000               0.327148221              -0.375878247               0.000000000               0.349218577              -0.400702598               0.000000000               0.371288933              -0.425526948               0.000000000               0.393359288              -0.450351299               0.000000000               0.415429644              -0.475175649               0.000000000               0.437500000              -0.500000000               0.000000000               0.073890841              -0.110585458               0.000000000               0.092710163              -0.134923867               0.000000000               0.111529486              -0.159262276               0.000000000               0.130348808              -0.183600685               0.000000000               0.149168131              -0.207939094               0.000000000               0.167987453              -0.232277503               0.000000000               0.186806776              -0.256615912               0.000000000               0.205626098              -0.280954320               0.000000000               0.224445420              -0.305292729               0.000000000               0.243264743              -0.329631138               0.000000000               0.262084065              -0.353969547               0.000000000               0.280903388              -0.378307956               0.000000000               0.299722710              -0.402646365               0.000000000               0.318542033              -0.426984773               0.000000000               0.337361355              -0.451323182               0.000000000               0.356180678              -0.475661591               0.000000000               0.375000000              -0.500000000               0.000000000               0.062695766              -0.117295528               0.000000000               0.078308531              -0.141214558               0.000000000               0.093921295              -0.165133587               0.000000000               0.109534060              -0.189052617               0.000000000               0.125146824              -0.212971646               0.000000000               0.140759589              -0.236890676               0.000000000               0.156372354              -0.260809705               0.000000000               0.171985118              -0.284728735               0.000000000               0.187597883              -0.308647764               0.000000000               0.203210648              -0.332566794               0.000000000               0.218823412              -0.356485823               0.000000000               0.234436177              -0.380404853               0.000000000               0.250048941              -0.404323882               0.000000000               0.265661706              -0.428242912               0.000000000               0.281274471              -0.452161941               0.000000000               0.296887235              -0.476080971               0.000000000               0.312500000              -0.500000000               0.000000000               0.050896897              -0.122875978               0.000000000               0.063340840              -0.146446229               0.000000000               0.075784784              -0.170016481               0.000000000               0.088228728              -0.193586732               0.000000000               0.100672672              -0.217156983               0.000000000               0.113116616              -0.240727235               0.000000000               0.125560560              -0.264297486               0.000000000               0.138004504              -0.287867738               0.000000000               0.150448448              -0.311437989               0.000000000               0.162892392              -0.335008240               0.000000000               0.175336336              -0.358578492               0.000000000               0.187780280              -0.382148743               0.000000000               0.200224224              -0.405718994               0.000000000               0.212668168              -0.429289246               0.000000000               0.225112112              -0.452859497               0.000000000               0.237556056              -0.476429749               0.000000000               0.250000000              -0.500000000               0.000000000               0.038607862              -0.127273065               0.000000000               0.047913621              -0.150568498               0.000000000               0.057219379              -0.173863932               0.000000000               0.066525138              -0.197159365               0.000000000               0.075830897              -0.220454798               0.000000000               0.085136655              -0.243750232               0.000000000               0.094442414              -0.267045665               0.000000000               0.103748172              -0.290341099               0.000000000               0.113053931              -0.313636532               0.000000000               0.122359690              -0.336931966               0.000000000               0.131665448              -0.360227399               0.000000000               0.140971207              -0.383522833               0.000000000               0.150276966              -0.406818266               0.000000000               0.159582724              -0.430113700               0.000000000               0.168888483              -0.453409133               0.000000000               0.178194241              -0.476704567               0.000000000               0.187500000              -0.500000000               0.000000000               0.025947013              -0.130444442               0.000000000               0.032137825              -0.153541665               0.000000000               0.038328636              -0.176638887               0.000000000               0.044519448              -0.199736109               0.000000000               0.050710260              -0.222833332               0.000000000               0.056901071              -0.245930554               0.000000000               0.063091883              -0.269027776               0.000000000               0.069282695              -0.292124999               0.000000000               0.075473506              -0.315222221               0.000000000               0.081664318              -0.338319444               0.000000000               0.087855130              -0.361416666               0.000000000               0.094045942              -0.384513888               0.000000000               0.100236753              -0.407611111               0.000000000               0.106427565              -0.430708333               0.000000000               0.112618377              -0.453805555               0.000000000               0.118809188              -0.476902778               0.000000000               0.125000000              -0.500000000               0.000000000               0.013036280              -0.132359569               0.000000000               0.016127762              -0.155337096               0.000000000               0.019219245              -0.178314623               0.000000000               0.022310727              -0.201292150               0.000000000               0.025402210              -0.224269676               0.000000000               0.028493692              -0.247247203               0.000000000               0.031585175              -0.270224730               0.000000000               0.034676657              -0.293202257               0.000000000               0.037768140              -0.316179784               0.000000000               0.040859622              -0.339157311               0.000000000               0.043951105              -0.362134838               0.000000000               0.047042587              -0.385112365               0.000000000               0.050134070              -0.408089892               0.000000000               0.053225552              -0.431067419               0.000000000               0.056317035              -0.454044946               0.000000000               0.059408517              -0.477022473               0.000000000               0.062500000              -0.500000000               0.000000000               0.000000000              -0.133000000               0.000000000               0.000000000              -0.155937500               0.000000000               0.000000000              -0.178875000               0.000000000               0.000000000              -0.201812500               0.000000000               0.000000000              -0.224750000               0.000000000               0.000000000              -0.247687500               0.000000000               0.000000000              -0.270625000               0.000000000               0.000000000              -0.293562500               0.000000000               0.000000000              -0.316500000               0.000000000               0.000000000              -0.339437500               0.000000000               0.000000000              -0.362375000               0.000000000               0.000000000              -0.385312500               0.000000000               0.000000000              -0.408250000               0.000000000               0.000000000              -0.431187500               0.000000000               0.000000000              -0.454125000               0.000000000               0.000000000              -0.477062500               0.000000000               0.000000000              -0.500000000               0.000000000              -0.133000000               0.000000000               0.000000000              -0.155937500               0.000000000               0.000000000              -0.178875000               0.000000000               0.000000000              -0.201812500               0.000000000               0.000000000              -0.224750000               0.000000000               0.000000000              -0.247687500               0.000000000               0.000000000              -0.270625000               0.000000000               0.000000000              -0.293562500               0.000000000               0.000000000              -0.316500000               0.000000000               0.000000000              -0.339437500               0.000000000               0.000000000              -0.362375000               0.000000000               0.000000000              -0.385312500               0.000000000               0.000000000              -0.408250000               0.000000000               0.000000000              -0.431187500               0.000000000               0.000000000              -0.454125000               0.000000000               0.000000000              -0.477062500               0.000000000               0.000000000              -0.500000000               0.000000000               0.000000000              -0.132359569              -0.013036280               0.000000000              -0.155337096              -0.016127762               0.000000000              -0.178314623              -0.019219245               0.000000000              -0.201292150              -0.022310727               0.000000000              -0.224269676              -0.025402210               0.000000000              -0.247247203              -0.028493692               0.000000000              -0.270224730              -0.031585175               0.000000000              -0.293202257              -0.034676657               0.000000000              -0.316179784              -0.037768140               0.000000000              -0.339157311              -0.040859622               0.000000000              -0.362134838              -0.043951105               0.000000000              -0.385112365              -0.047042587               0.000000000              -0.408089892              -0.050134070               0.000000000              -0.431067419              -0.053225552               0.000000000              -0.454044946              -0.056317035               0.000000000              -0.477022473              -0.059408517               0.000000000              -0.500000000              -0.062500000               0.000000000              -0.130444442              -0.025947013               0.000000000              -0.153541665              -0.032137825               0.000000000              -0.176638887              -0.038328636               0.000000000              -0.199736109              -0.044519448               0.000000000              -0.222833332              -0.050710260               0.000000000              -0.245930554              -0.056901071               0.000000000              -0.269027776              -0.063091883               0.000000000              -0.292124999              -0.069282695               0.000000000              -0.315222221              -0.075473506               0.000000000              -0.338319444              -0.081664318               0.000000000              -0.361416666              -0.087855130               0.000000000              -0.384513888              -0.094045942               0.000000000              -0.407611111              -0.100236753               0.000000000              -0.430708333              -0.106427565               0.000000000              -0.453805555              -0.112618377               0.000000000              -0.476902778              -0.118809188               0.000000000              -0.500000000              -0.125000000               0.000000000              -0.127273065              -0.038607862               0.000000000              -0.150568498              -0.047913621               0.000000000              -0.173863932              -0.057219379               0.000000000              -0.197159365              -0.066525138               0.000000000              -0.220454798              -0.075830897               0.000000000              -0.243750232              -0.085136655               0.000000000              -0.267045665              -0.094442414               0.000000000              -0.290341099              -0.103748172               0.000000000              -0.313636532              -0.113053931               0.000000000              -0.336931966              -0.122359690               0.000000000              -0.360227399              -0.131665448               0.000000000              -0.383522833              -0.140971207               0.000000000              -0.406818266              -0.150276966               0.000000000              -0.430113700              -0.159582724               0.000000000              -0.453409133              -0.168888483               0.000000000              -0.476704567              -0.178194241               0.000000000              -0.500000000              -0.187500000               0.000000000              -0.122875978              -0.050896897               0.000000000              -0.146446229              -0.063340840               0.000000000              -0.170016481              -0.075784784               0.000000000              -0.193586732              -0.088228728               0.000000000              -0.217156983              -0.100672672               0.000000000              -0.240727235              -0.113116616               0.000000000              -0.264297486              -0.125560560               0.000000000              -0.287867738              -0.138004504               0.000000000              -0.311437989              -0.150448448               0.000000000              -0.335008240              -0.162892392               0.000000000              -0.358578492              -0.175336336               0.000000000              -0.382148743              -0.187780280               0.000000000              -0.405718994              -0.200224224               0.000000000              -0.429289246              -0.212668168               0.000000000              -0.452859497              -0.225112112               0.000000000              -0.476429749              -0.237556056               0.000000000              -0.500000000              -0.250000000               0.000000000              -0.117295528              -0.062695766               0.000000000              -0.141214558              -0.078308531               0.000000000              -0.165133587              -0.093921295               0.000000000              -0.189052617              -0.109534060               0.000000000              -0.212971646              -0.125146824               0.000000000              -0.236890676              -0.140759589               0.000000000              -0.260809705              -0.156372354               0.000000000              -0.284728735              -0.171985118               0.000000000              -0.308647764              -0.187597883               0.000000000              -0.332566794              -0.203210648               0.000000000              -0.356485823              -0.218823412               0.000000000              -0.380404853              -0.234436177               0.000000000              -0.404323882              -0.250048941               0.000000000              -0.428242912              -0.265661706               0.000000000              -0.452161941              -0.281274471               0.000000000              -0.476080971              -0.296887235               0.000000000              -0.500000000              -0.312500000               0.000000000              -0.110585458              -0.073890841               0.000000000              -0.134923867              -0.092710163               0.000000000              -0.159262276              -0.111529486               0.000000000              -0.183600685              -0.130348808               0.000000000              -0.207939094              -0.149168131               0.000000000              -0.232277503              -0.167987453               0.000000000              -0.256615912              -0.186806776               0.000000000              -0.280954320              -0.205626098               0.000000000              -0.305292729              -0.224445420               0.000000000              -0.329631138              -0.243264743               0.000000000              -0.353969547              -0.262084065               0.000000000              -0.378307956              -0.280903388               0.000000000              -0.402646365              -0.299722710               0.000000000              -0.426984773              -0.318542033               0.000000000              -0.451323182              -0.337361355               0.000000000              -0.475661591              -0.356180678               0.000000000              -0.500000000              -0.375000000               0.000000000              -0.102810390              -0.084374307               0.000000000              -0.127634741              -0.106444663               0.000000000              -0.152459092              -0.128515018               0.000000000              -0.177283442              -0.150585374               0.000000000              -0.202107793              -0.172655730               0.000000000              -0.226932143              -0.194726086               0.000000000              -0.251756494              -0.216796442               0.000000000              -0.276580845              -0.238866798               0.000000000              -0.301405195              -0.260937153               0.000000000              -0.326229546              -0.283007509               0.000000000              -0.351053896              -0.305077865               0.000000000              -0.375878247              -0.327148221               0.000000000              -0.400702598              -0.349218577               0.000000000              -0.425526948              -0.371288933               0.000000000              -0.450351299              -0.393359288               0.000000000              -0.475175649              -0.415429644               0.000000000              -0.500000000              -0.437500000               0.000000000              -0.094045202              -0.094045202               0.000000000              -0.119417377              -0.119417377               0.000000000              -0.144789552              -0.144789552               0.000000000              -0.170161727              -0.170161727               0.000000000              -0.195533901              -0.195533901               0.000000000              -0.220906076              -0.220906076               0.000000000              -0.246278251              -0.246278251               0.000000000              -0.271650426              -0.271650426               0.000000000              -0.297022601              -0.297022601               0.000000000              -0.322394776              -0.322394776               0.000000000              -0.347766951              -0.347766951               0.000000000              -0.373139126              -0.373139126               0.000000000              -0.398511300              -0.398511300               0.000000000              -0.423883475              -0.423883475               0.000000000              -0.449255650              -0.449255650               0.000000000              -0.474627825              -0.474627825               0.000000000              -0.500000000              -0.500000000               0.000000000              -0.084374307              -0.102810390               0.000000000              -0.106444663              -0.127634741               0.000000000              -0.128515018              -0.152459092               0.000000000              -0.150585374              -0.177283442               0.000000000              -0.172655730              -0.202107793               0.000000000              -0.194726086              -0.226932143               0.000000000              -0.216796442              -0.251756494               0.000000000              -0.238866798              -0.276580845               0.000000000              -0.260937153              -0.301405195               0.000000000              -0.283007509              -0.326229546               0.000000000              -0.305077865              -0.351053896               0.000000000              -0.327148221              -0.375878247               0.000000000              -0.349218577              -0.400702598               0.000000000              -0.371288933              -0.425526948               0.000000000              -0.393359288              -0.450351299               0.000000000              -0.415429644              -0.475175649               0.000000000              -0.437500000              -0.500000000               0.000000000              -0.073890841              -0.110585458               0.000000000              -0.092710163              -0.134923867               0.000000000              -0.111529486              -0.159262276               0.000000000              -0.130348808              -0.183600685               0.000000000              -0.149168131              -0.207939094               0.000000000              -0.167987453              -0.232277503               0.000000000              -0.186806776              -0.256615912               0.000000000              -0.205626098              -0.280954320               0.000000000              -0.224445420              -0.305292729               0.000000000              -0.243264743              -0.329631138               0.000000000              -0.262084065              -0.353969547               0.000000000              -0.280903388              -0.378307956               0.000000000              -0.299722710              -0.402646365               0.000000000              -0.318542033              -0.426984773               0.000000000              -0.337361355              -0.451323182               0.000000000              -0.356180678              -0.475661591               0.000000000              -0.375000000              -0.500000000               0.000000000              -0.062695766              -0.117295528               0.000000000              -0.078308531              -0.141214558               0.000000000              -0.093921295              -0.165133587               0.000000000              -0.109534060              -0.189052617               0.000000000              -0.125146824              -0.212971646               0.000000000              -0.140759589              -0.236890676               0.000000000              -0.156372354              -0.260809705               0.000000000              -0.171985118              -0.284728735               0.000000000              -0.187597883              -0.308647764               0.000000000              -0.203210648              -0.332566794               0.000000000              -0.218823412              -0.356485823               0.000000000              -0.234436177              -0.380404853               0.000000000              -0.250048941              -0.404323882               0.000000000              -0.265661706              -0.428242912               0.000000000              -0.281274471              -0.452161941               0.000000000              -0.296887235              -0.476080971               0.000000000              -0.312500000              -0.500000000               0.000000000              -0.050896897              -0.122875978               0.000000000              -0.063340840              -0.146446229               0.000000000              -0.075784784              -0.170016481               0.000000000              -0.088228728              -0.193586732               0.000000000              -0.100672672              -0.217156983               0.000000000              -0.113116616              -0.240727235               0.000000000              -0.125560560              -0.264297486               0.000000000              -0.138004504              -0.287867738               0.000000000              -0.150448448              -0.311437989               0.000000000              -0.162892392              -0.335008240               0.000000000              -0.175336336              -0.358578492               0.000000000              -0.187780280              -0.382148743               0.000000000              -0.200224224              -0.405718994               0.000000000              -0.212668168              -0.429289246               0.000000000              -0.225112112              -0.452859497               0.000000000              -0.237556056              -0.476429749               0.000000000              -0.250000000              -0.500000000               0.000000000              -0.038607862              -0.127273065               0.000000000              -0.047913621              -0.150568498               0.000000000              -0.057219379              -0.173863932               0.000000000              -0.066525138              -0.197159365               0.000000000              -0.075830897              -0.220454798               0.000000000              -0.085136655              -0.243750232               0.000000000              -0.094442414              -0.267045665               0.000000000              -0.103748172              -0.290341099               0.000000000              -0.113053931              -0.313636532               0.000000000              -0.122359690              -0.336931966               0.000000000              -0.131665448              -0.360227399               0.000000000              -0.140971207              -0.383522833               0.000000000              -0.150276966              -0.406818266               0.000000000              -0.159582724              -0.430113700               0.000000000              -0.168888483              -0.453409133               0.000000000              -0.178194241              -0.476704567               0.000000000              -0.187500000              -0.500000000               0.000000000              -0.025947013              -0.130444442               0.000000000              -0.032137825              -0.153541665               0.000000000              -0.038328636              -0.176638887               0.000000000              -0.044519448              -0.199736109               0.000000000              -0.050710260              -0.222833332               0.000000000              -0.056901071              -0.245930554               0.000000000              -0.063091883              -0.269027776               0.000000000              -0.069282695              -0.292124999               0.000000000              -0.075473506              -0.315222221               0.000000000              -0.081664318              -0.338319444               0.000000000              -0.087855130              -0.361416666               0.000000000              -0.094045942              -0.384513888               0.000000000              -0.100236753              -0.407611111               0.000000000              -0.106427565              -0.430708333               0.000000000              -0.112618377              -0.453805555               0.000000000              -0.118809188              -0.476902778               0.000000000              -0.125000000              -0.500000000               0.000000000              -0.013036280              -0.132359569               0.000000000              -0.016127762              -0.155337096               0.000000000              -0.019219245              -0.178314623               0.000000000              -0.022310727              -0.201292150               0.000000000              -0.025402210              -0.224269676               0.000000000              -0.028493692              -0.247247203               0.000000000              -0.031585175              -0.270224730               0.000000000              -0.034676657              -0.293202257               0.000000000              -0.037768140              -0.316179784               0.000000000              -0.040859622              -0.339157311               0.000000000              -0.043951105              -0.362134838               0.000000000              -0.047042587              -0.385112365               0.000000000              -0.050134070              -0.408089892               0.000000000              -0.053225552              -0.431067419               0.000000000              -0.056317035              -0.454044946               0.000000000              -0.059408517              -0.477022473               0.000000000              -0.062500000              -0.500000000               0.000000000               0.000000000              -0.133000000               0.000000000               0.000000000              -0.155937500               0.000000000               0.000000000              -0.178875000               0.000000000               0.000000000              -0.201812500               0.000000000               0.000000000              -0.224750000               0.000000000               0.000000000              -0.247687500               0.000000000               0.000000000              -0.270625000               0.000000000               0.000000000              -0.293562500               0.000000000               0.000000000              -0.316500000               0.000000000               0.000000000              -0.339437500               0.000000000               0.000000000              -0.362375000               0.000000000               0.000000000              -0.385312500               0.000000000               0.000000000              -0.408250000               0.000000000               0.000000000              -0.431187500               0.000000000               0.000000000              -0.454125000               0.000000000               0.000000000              -0.477062500               0.000000000               0.000000000              -0.500000000               0.000000000              -0.133000000               0.000000000               0.000000000              -0.155937500               0.000000000               0.000000000              -0.178875000               0.000000000               0.000000000              -0.201812500               0.000000000               0.000000000              -0.224750000               0.000000000               0.000000000              -0.247687500               0.000000000               0.000000000              -0.270625000               0.000000000               0.000000000              -0.293562500               0.000000000               0.000000000              -0.316500000               0.000000000               0.000000000              -0.339437500               0.000000000               0.000000000              -0.362375000               0.000000000               0.000000000              -0.385312500               0.000000000               0.000000000              -0.408250000               0.000000000               0.000000000              -0.431187500               0.000000000               0.000000000              -0.454125000               0.000000000               0.000000000              -0.477062500               0.000000000               0.000000000              -0.500000000               0.000000000               0.000000000              -0.132359569               0.013036280               0.000000000              -0.155337096               0.016127762               0.000000000              -0.178314623               0.019219245               0.000000000              -0.201292150               0.022310727               0.000000000              -0.224269676               0.025402210               0.000000000              -0.247247203               0.028493692               0.000000000              -0.270224730               0.031585175               0.000000000              -0.293202257               0.034676657               0.000000000              -0.316179784               0.037768140               0.000000000              -0.339157311               0.040859622               0.000000000              -0.362134838               0.043951105               0.000000000              -0.385112365               0.047042587               0.000000000              -0.408089892               0.050134070               0.000000000              -0.431067419               0.053225552               0.000000000              -0.454044946               0.056317035               0.000000000              -0.477022473               0.059408517               0.000000000              -0.500000000               0.062500000               0.000000000              -0.130444442               0.025947013               0.000000000              -0.153541665               0.032137825               0.000000000              -0.176638887               0.038328636               0.000000000              -0.199736109               0.044519448               0.000000000              -0.222833332               0.050710260               0.000000000              -0.245930554               0.056901071               0.000000000              -0.269027776               0.063091883               0.000000000              -0.292124999               0.069282695               0.000000000              -0.315222221               0.075473506               0.000000000              -0.338319444               0.081664318               0.000000000              -0.361416666               0.087855130               0.000000000              -0.384513888               0.094045942               0.000000000              -0.407611111               0.100236753               0.000000000              -0.430708333               0.106427565               0.000000000              -0.453805555               0.112618377               0.000000000              -0.476902778               0.118809188               0.000000000              -0.500000000               0.125000000               0.000000000              -0.127273065               0.038607862               0.000000000              -0.150568498               0.047913621               0.000000000              -0.173863932               0.057219379               0.000000000              -0.197159365               0.066525138               0.000000000              -0.220454798               0.075830897               0.000000000              -0.243750232               0.085136655               0.000000000              -0.267045665               0.094442414               0.000000000              -0.290341099               0.103748172               0.000000000              -0.313636532               0.113053931               0.000000000              -0.336931966               0.122359690               0.000000000              -0.360227399               0.131665448               0.000000000              -0.383522833               0.140971207               0.000000000              -0.406818266               0.150276966               0.000000000              -0.430113700               0.159582724               0.000000000              -0.453409133               0.168888483               0.000000000              -0.476704567               0.178194241               0.000000000              -0.500000000               0.187500000               0.000000000              -0.122875978               0.050896897               0.000000000              -0.146446229               0.063340840               0.000000000              -0.170016481               0.075784784               0.000000000              -0.193586732               0.088228728               0.000000000              -0.217156983               0.100672672               0.000000000              -0.240727235               0.113116616               0.000000000              -0.264297486               0.125560560               0.000000000              -0.287867738               0.138004504               0.000000000              -0.311437989               0.150448448               0.000000000              -0.335008240               0.162892392               0.000000000              -0.358578492               0.175336336               0.000000000              -0.382148743               0.187780280               0.000000000              -0.405718994               0.200224224               0.000000000              -0.429289246               0.212668168               0.000000000              -0.452859497               0.225112112               0.000000000              -0.476429749               0.237556056               0.000000000              -0.500000000               0.250000000               0.000000000              -0.117295528               0.062695766               0.000000000              -0.141214558               0.078308531               0.000000000              -0.165133587               0.093921295               0.000000000              -0.189052617               0.109534060               0.000000000              -0.212971646               0.125146824               0.000000000              -0.236890676               0.140759589               0.000000000              -0.260809705               0.156372354               0.000000000              -0.284728735               0.171985118               0.000000000              -0.308647764               0.187597883               0.000000000              -0.332566794               0.203210648               0.000000000              -0.356485823               0.218823412               0.000000000              -0.380404853               0.234436177               0.000000000              -0.404323882               0.250048941               0.000000000              -0.428242912               0.265661706               0.000000000              -0.452161941               0.281274471               0.000000000              -0.476080971               0.296887235               0.000000000              -0.500000000               0.312500000               0.000000000              -0.110585458               0.073890841               0.000000000              -0.134923867               0.092710163               0.000000000              -0.159262276               0.111529486               0.000000000              -0.183600685               0.130348808               0.000000000              -0.207939094               0.149168131               0.000000000              -0.232277503               0.167987453               0.000000000              -0.256615912               0.186806776               0.000000000              -0.280954320               0.205626098               0.000000000              -0.305292729               0.224445420               0.000000000              -0.329631138               0.243264743               0.000000000              -0.353969547               0.262084065               0.000000000              -0.378307956               0.280903388               0.000000000              -0.402646365               0.299722710               0.000000000              -0.426984773               0.318542033               0.000000000              -0.451323182               0.337361355               0.000000000              -0.475661591               0.356180678               0.000000000              -0.500000000               0.375000000               0.000000000              -0.102810390               0.084374307               0.000000000              -0.127634741               0.106444663               0.000000000              -0.152459092               0.128515018               0.000000000              -0.177283442               0.150585374               0.000000000              -0.202107793               0.172655730               0.000000000              -0.226932143               0.194726086               0.000000000              -0.251756494               0.216796442               0.000000000              -0.276580845               0.238866798               0.000000000              -0.301405195               0.260937153               0.000000000              -0.326229546               0.283007509               0.000000000              -0.351053896               0.305077865               0.000000000              -0.375878247               0.327148221               0.000000000              -0.400702598               0.349218577               0.000000000              -0.425526948               0.371288933               0.000000000              -0.450351299               0.393359288               0.000000000              -0.475175649               0.415429644               0.000000000              -0.500000000               0.437500000               0.000000000              -0.094045202               0.094045202               0.000000000              -0.119417377               0.119417377               0.000000000              -0.144789552               0.144789552               0.000000000              -0.170161727               0.170161727               0.000000000              -0.195533901               0.195533901               0.000000000              -0.220906076               0.220906076               0.000000000              -0.246278251               0.246278251               0.000000000              -0.271650426               0.271650426               0.000000000              -0.297022601               0.297022601               0.000000000              -0.322394776               0.322394776               0.000000000              -0.347766951               0.347766951               0.000000000              -0.373139126               0.373139126               0.000000000              -0.398511300               0.398511300               0.000000000              -0.423883475               0.423883475               0.000000000              -0.449255650               0.449255650               0.000000000              -0.474627825               0.474627825               0.000000000              -0.500000000               0.500000000               0.000000000              -0.084374307               0.102810390               0.000000000              -0.106444663               0.127634741               0.000000000              -0.128515018               0.152459092               0.000000000              -0.150585374               0.177283442               0.000000000              -0.172655730               0.202107793               0.000000000              -0.194726086               0.226932143               0.000000000              -0.216796442               0.251756494               0.000000000              -0.238866798               0.276580845               0.000000000              -0.260937153               0.301405195               0.000000000              -0.283007509               0.326229546               0.000000000              -0.305077865               0.351053896               0.000000000              -0.327148221               0.375878247               0.000000000              -0.349218577               0.400702598               0.000000000              -0.371288933               0.425526948               0.000000000              -0.393359288               0.450351299               0.000000000              -0.415429644               0.475175649               0.000000000              -0.437500000               0.500000000               0.000000000              -0.073890841               0.110585458               0.000000000              -0.092710163               0.134923867               0.000000000              -0.111529486               0.159262276               0.000000000              -0.130348808               0.183600685               0.000000000              -0.149168131               0.207939094               0.000000000              -0.167987453               0.232277503               0.000000000              -0.186806776               0.256615912               0.000000000              -0.205626098               0.280954320               0.000000000              -0.224445420               0.305292729               0.000000000              -0.243264743               0.329631138               0.000000000              -0.262084065               0.353969547               0.000000000              -0.280903388               0.378307956               0.000000000              -0.299722710               0.402646365               0.000000000              -0.318542033               0.426984773               0.000000000              -0.337361355               0.451323182               0.000000000              -0.356180678               0.475661591               0.000000000              -0.375000000               0.500000000               0.000000000              -0.062695766               0.117295528               0.000000000              -0.078308531               0.141214558               0.000000000              -0.093921295               0.165133587               0.000000000              -0.109534060               0.189052617               0.000000000              -0.125146824               0.212971646               0.000000000              -0.140759589               0.236890676               0.000000000              -0.156372354               0.260809705               0.000000000              -0.171985118               0.284728735               0.000000000              -0.187597883               0.308647764               0.000000000              -0.203210648               0.332566794               0.000000000              -0.218823412               0.356485823               0.000000000              -0.234436177               0.380404853               0.000000000              -0.250048941               0.404323882               0.000000000              -0.265661706               0.428242912               0.000000000              -0.281274471               0.452161941               0.000000000              -0.296887235               0.476080971               0.000000000              -0.312500000               0.500000000               0.000000000              -0.050896897               0.122875978               0.000000000              -0.063340840               0.146446229               0.000000000              -0.075784784               0.170016481               0.000000000              -0.088228728               0.193586732               0.000000000              -0.100672672               0.217156983               0.000000000              -0.113116616               0.240727235               0.000000000              -0.125560560               0.264297486               0.000000000              -0.138004504               0.287867738               0.000000000              -0.150448448               0.311437989               0.000000000              -0.162892392               0.335008240               0.000000000              -0.175336336               0.358578492               0.000000000              -0.187780280               0.382148743               0.000000000              -0.200224224               0.405718994               0.000000000              -0.212668168               0.429289246               0.000000000              -0.225112112               0.452859497               0.000000000              -0.237556056               0.476429749               0.000000000              -0.250000000               0.500000000               0.000000000              -0.038607862               0.127273065               0.000000000              -0.047913621               0.150568498               0.000000000              -0.057219379               0.173863932               0.000000000              -0.066525138               0.197159365               0.000000000              -0.075830897               0.220454798               0.000000000              -0.085136655               0.243750232               0.000000000              -0.094442414               0.267045665               0.000000000              -0.103748172               0.290341099               0.000000000              -0.113053931               0.313636532               0.000000000              -0.122359690               0.336931966               0.000000000              -0.131665448               0.360227399               0.000000000              -0.140971207               0.383522833               0.000000000              -0.150276966               0.406818266               0.000000000              -0.159582724               0.430113700               0.000000000              -0.168888483               0.453409133               0.000000000              -0.178194241               0.476704567               0.000000000              -0.187500000               0.500000000               0.000000000              -0.025947013               0.130444442               0.000000000              -0.032137825               0.153541665               0.000000000              -0.038328636               0.176638887               0.000000000              -0.044519448               0.199736109               0.000000000              -0.050710260               0.222833332               0.000000000              -0.056901071               0.245930554               0.000000000              -0.063091883               0.269027776               0.000000000              -0.069282695               0.292124999               0.000000000              -0.075473506               0.315222221               0.000000000              -0.081664318               0.338319444               0.000000000              -0.087855130               0.361416666               0.000000000              -0.094045942               0.384513888               0.000000000              -0.100236753               0.407611111               0.000000000              -0.106427565               0.430708333               0.000000000              -0.112618377               0.453805555               0.000000000              -0.118809188               0.476902778               0.000000000              -0.125000000               0.500000000               0.000000000              -0.013036280               0.132359569               0.000000000              -0.016127762               0.155337096               0.000000000              -0.019219245               0.178314623               0.000000000              -0.022310727               0.201292150               0.000000000              -0.025402210               0.224269676               0.000000000              -0.028493692               0.247247203               0.000000000              -0.031585175               0.270224730               0.000000000              -0.034676657               0.293202257               0.000000000              -0.037768140               0.316179784               0.000000000              -0.040859622               0.339157311               0.000000000              -0.043951105               0.362134838               0.000000000              -0.047042587               0.385112365               0.000000000              -0.050134070               0.408089892               0.000000000              -0.053225552               0.431067419               0.000000000              -0.056317035               0.454044946               0.000000000              -0.059408517               0.477022473               0.000000000              -0.062500000               0.500000000               0.000000000               0.000000000               0.133000000               0.000000000               0.000000000               0.155937500               0.000000000               0.000000000               0.178875000               0.000000000               0.000000000               0.201812500               0.000000000               0.000000000               0.224750000               0.000000000               0.000000000               0.247687500               0.000000000               0.000000000               0.270625000               0.000000000               0.000000000               0.293562500               0.000000000               0.000000000               0.316500000               0.000000000               0.000000000               0.339437500               0.000000000               0.000000000               0.362375000               0.000000000               0.000000000               0.385312500               0.000000000               0.000000000               0.408250000               0.000000000               0.000000000               0.431187500               0.000000000               0.000000000               0.454125000               0.000000000               0.000000000               0.477062500               0.000000000               0.000000000               0.500000000               0.000000000 </DataArray>
</Points>
<Cells>
<DataArray type="Int32"                                    Name="connectivity"                                                      NumberOfComponents=" 1" format="ascii">
         0          1         18         17          1          2         19         18          2          3         20         19          3          4         21         20          4          5         22         21          5          6         23         22          6          7         24         23          7          8         25         24          8          9         26         25          9         10         27         26         10         11         28         27         11         12         29         28         12         13         30         29         13         14         31         30         14         15         32         31         15         16         33         32         17         18         35         34         18         19         36         35         19         20         37         36         20         21         38         37         21         22         39         38         22         23         40         39         23         24         41         40         24         25         42         41         25         26         43         42         26         27         44         43         27         28         45         44         28         29         46         45         29         30         47         46         30         31         48         47         31         32         49         48         32         33         50         49         34         35         52         51         35         36         53         52         36         37         54         53         37         38         55         54         38         39         56         55         39         40         57         56         40         41         58         57         41         42         59         58         42         43         60         59         43         44         61         60         44         45         62         61         45         46         63         62         46         47         64         63         47         48         65         64         48         49         66         65         49         50         67         66         51         52         69         68         52         53         70         69         53         54         71         70         54         55         72         71         55         56         73         72         56         57         74         73         57         58         75         74         58         59         76         75         59         60         77         76         60         61         78         77         61         62         79         78         62         63         80         79         63         64         81         80         64         65         82         81         65         66         83         82         66         67         84         83         68         69         86         85         69         70         87         86         70         71         88         87         71         72         89         88         72         73         90         89         73         74         91         90         74         75         92         91         75         76         93         92         76         77         94         93         77         78         95         94         78         79         96         95         79         80         97         96         80         81         98         97         81         82         99         98         82         83        100         99         83         84        101        100         85         86        103        102         86         87        104        103         87         88        105        104         88         89        106        105         89         90        107        106         90         91        108        107         91         92        109        108         92         93        110        109         93         94        111        110         94         95        112        111         95         96        113        112         96         97        114        113         97         98        115        114         98         99        116        115         99        100        117        116        100        101        118        117        102        103        120        119        103        104        121        120        104        105        122        121        105        106        123        122        106        107        124        123        107        108        125        124        108        109        126        125        109        110        127        126        110        111        128        127        111        112        129        128        112        113        130        129        113        114        131        130        114        115        132        131        115        116        133        132        116        117        134        133        117        118        135        134        119        120        137        136        120        121        138        137        121        122        139        138        122        123        140        139        123        124        141        140        124        125        142        141        125        126        143        142        126        127        144        143        127        128        145        144        128        129        146        145        129        130        147        146        130        131        148        147        131        132        149        148        132        133        150        149        133        134        151        150        134        135        152        151        136        137        154        153        137        138        155        154        138        139        156        155        139        140        157        156        140        141        158        157        141        142        159        158        142        143        160        159        143        144        161        160        144        145        162        161        145        146        163        162        146        147        164        163        147        148        165        164        148        149        166        165        149        150        167        166        150        151        168        167        151        152        169        168        153        154        171        170        154        155        172        171        155        156        173        172        156        157        174        173        157        158        175        174        158        159        176        175        159        160        177        176        160        161        178        177        161        162        179        178        162        163        180        179        163        164        181        180        164        165        182        181        165        166        183        182        166        167        184        183        167        168        185        184        168        169        186        185        170        171        188        187        171        172        189        188        172        173        190        189        173        174        191        190        174        175        192        191        175        176        193        192        176        177        194        193        177        178        195        194        178        179        196        195        179        180        197        196        180        181        198        197        181        182        199        198        182        183        200        199        183        184        201        200        184        185        202        201        185        186        203        202        187        188        205        204        188        189        206        205        189        190        207        206        190        191        208        207        191        192        209        208        192        193        210        209        193        194        211        210        194        195        212        211        195        196        213        212        196        197        214        213        197        198        215        214        198        199        216        215        199        200        217        216        200        201        218        217        201        202        219        218        202        203        220        219        204        205        222        221        205        206        223        222        206        207        224        223        207        208        225        224        208        209        226        225        209        210        227        226        210        211        228        227        211        212        229        228        212        213        230        229        213        214        231        230        214        215        232        231        215        216        233        232        216        217        234        233        217        218        235        234        218        219        236        235        219        220        237        236        221        222        239        238        222        223        240        239        223        224        241        240        224        225        242        241        225        226        243        242        226        227        244        243        227        228        245        244        228        229        246        245        229        230        247        246        230        231        248        247        231        232        249        248        232        233        250        249        233        234        251        250        234        235        252        251        235        236        253        252        236        237        254        253        238        239        256        255        239        240        257        256        240        241        258        257        241        242        259        258        242        243        260        259        243        244        261        260        244        245        262        261        245        246        263        262        246        247        264        263        247        248        265        264        248        249        266        265        249        250        267        266        250        251        268        267        251        252        269        268        252        253        270        269        253        254        271        270        255        256        273        272        256        257        274        273        257        258        275        274        258        259        276        275        259        260        277        276        260        261        278        277        261        262        279        278        262        263        280        279        263        264        281        280        264        265        282        281        265        266        283        282        266        267        284        283        267        268        285        284        268        269        286        285        269        270        287        286        270        271        288        287        306        307          1          0        307        308          2          1        308        309          3          2        309        310          4          3        310        311          5          4        311        312          6          5        312        313          7          6        313        314          8          7        314        315          9          8        315        316         10          9        316        317         11         10        317        318         12         11        318        319         13         12        319        320         14         13        320        321         15         14        321        322         16         15        323        324        307        306        324        325        308        307        325        326        309        308        326        327        310        309        327        328        311        310        328        329        312        311        329        330        313        312        330        331        314        313        331        332        315        314        332        333        316        315        333        334        317        316        334        335        318        317        335        336        319        318        336        337        320        319        337        338        321        320        338        339        322        321        340        341        324        323        341        342        325        324        342        343        326        325        343        344        327        326        344        345        328        327        345        346        329        328        346        347        330        329        347        348        331        330        348        349        332        331        349        350        333        332        350        351        334        333        351        352        335        334        352        353        336        335        353        354        337        336        354        355        338        337        355        356        339        338        357        358        341        340        358        359        342        341        359        360        343        342        360        361        344        343        361        362        345        344        362        363        346        345        363        364        347        346        364        365        348        347        365        366        349        348        366        367        350        349        367        368        351        350        368        369        352        351        369        370        353        352        370        371        354        353        371        372        355        354        372        373        356        355        374        375        358        357        375        376        359        358        376        377        360        359        377        378        361        360        378        379        362        361        379        380        363        362        380        381        364        363        381        382        365        364        382        383        366        365        383        384        367        366        384        385        368        367        385        386        369        368        386        387        370        369        387        388        371        370        388        389        372        371        389        390        373        372        391        392        375        374        392        393        376        375        393        394        377        376        394        395        378        377        395        396        379        378        396        397        380        379        397        398        381        380        398        399        382        381        399        400        383        382        400        401        384        383        401        402        385        384        402        403        386        385        403        404        387        386        404        405        388        387        405        406        389        388        406        407        390        389        408        409        392        391        409        410        393        392        410        411        394        393        411        412        395        394        412        413        396        395        413        414        397        396        414        415        398        397        415        416        399        398        416        417        400        399        417        418        401        400        418        419        402        401        419        420        403        402        420        421        404        403        421        422        405        404        422        423        406        405        423        424        407        406        425        426        409        408        426        427        410        409        427        428        411        410        428        429        412        411        429        430        413        412        430        431        414        413        431        432        415        414        432        433        416        415        433        434        417        416        434        435        418        417        435        436        419        418        436        437        420        419        437        438        421        420        438        439        422        421        439        440        423        422        440        441        424        423        442        443        426        425        443        444        427        426        444        445        428        427        445        446        429        428        446        447        430        429        447        448        431        430        448        449        432        431        449        450        433        432        450        451        434        433        451        452        435        434        452        453        436        435        453        454        437        436        454        455        438        437        455        456        439        438        456        457        440        439        457        458        441        440        459        460        443        442        460        461        444        443        461        462        445        444        462        463        446        445        463        464        447        446        464        465        448        447        465        466        449        448        466        467        450        449        467        468        451        450        468        469        452        451        469        470        453        452        470        471        454        453        471        472        455        454        472        473        456        455        473        474        457        456        474        475        458        457        476        477        460        459        477        478        461        460        478        479        462        461        479        480        463        462        480        481        464        463        481        482        465        464        482        483        466        465        483        484        467        466        484        485        468        467        485        486        469        468        486        487        470        469        487        488        471        470        488        489        472        471        489        490        473        472        490        491        474        473        491        492        475        474        493        494        477        476        494        495        478        477        495        496        479        478        496        497        480        479        497        498        481        480        498        499        482        481        499        500        483        482        500        501        484        483        501        502        485        484        502        503        486        485        503        504        487        486        504        505        488        487        505        506        489        488        506        507        490        489        507        508        491        490        508        509        492        491        510        511        494        493        511        512        495        494        512        513        496        495        513        514        497        496        514        515        498        497        515        516        499        498        516        517        500        499        517        518        501        500        518        519        502        501        519        520        503        502        520        521        504        503        521        522        505        504        522        523        506        505        523        524        507        506        524        525        508        507        525        526        509        508        527        528        511        510        528        529        512        511        529        530        513        512        530        531        514        513        531        532        515        514        532        533        516        515        533        534        517        516        534        535        518        517        535        536        519        518        536        537        520        519        537        538        521        520        538        539        522        521        539        540        523        522        540        541        524        523        541        542        525        524        542        543        526        525        544        545        528        527        545        546        529        528        546        547        530        529        547        548        531        530        548        549        532        531        549        550        533        532        550        551        534        533        551        552        535        534        552        553        536        535        553        554        537        536        554        555        538        537        555        556        539        538        556        557        540        539        557        558        541        540        558        559        542        541        559        560        543        542        561        562        545        544        562        563        546        545        563        564        547        546        564        565        548        547        565        566        549        548        566        567        550        549        567        568        551        550        568        569        552        551        569        570        553        552        570        571        554        553        571        572        555        554        572        573        556        555        573        574        557        556        574        575        558        557        575        576        559        558        576        577        560        559        578        579        596        595        579        580        597        596        580        581        598        597        581        582        599        598        582        583        600        599        583        584        601        600        584        585        602        601        585        586        603        602        586        587        604        603        587        588        605        604        588        589        606        605        589        590        607        606        590        591        608        607        591        592        609        608        592        593        610        609        593        594        611        610        595        596        613        612        596        597        614        613        597        598        615        614        598        599        616        615        599        600        617        616        600        601        618        617        601        602        619        618        602        603        620        619        603        604        621        620        604        605        622        621        605        606        623        622        606        607        624        623        607        608        625        624        608        609        626        625        609        610        627        626        610        611        628        627        612        613        630        629        613        614        631        630        614        615        632        631        615        616        633        632        616        617        634        633        617        618        635        634        618        619        636        635        619        620        637        636        620        621        638        637        621        622        639        638        622        623        640        639        623        624        641        640        624        625        642        641        625        626        643        642        626        627        644        643        627        628        645        644        629        630        647        646        630        631        648        647        631        632        649        648        632        633        650        649        633        634        651        650        634        635        652        651        635        636        653        652        636        637        654        653        637        638        655        654        638        639        656        655        639        640        657        656        640        641        658        657        641        642        659        658        642        643        660        659        643        644        661        660        644        645        662        661        646        647        664        663        647        648        665        664        648        649        666        665        649        650        667        666        650        651        668        667        651        652        669        668        652        653        670        669        653        654        671        670        654        655        672        671        655        656        673        672        656        657        674        673        657        658        675        674        658        659        676        675        659        660        677        676        660        661        678        677        661        662        679        678        663        664        681        680        664        665        682        681        665        666        683        682        666        667        684        683        667        668        685        684        668        669        686        685        669        670        687        686        670        671        688        687        671        672        689        688        672        673        690        689        673        674        691        690        674        675        692        691        675        676        693        692        676        677        694        693        677        678        695        694        678        679        696        695        680        681        698        697        681        682        699        698        682        683        700        699        683        684        701        700        684        685        702        701        685        686        703        702        686        687        704        703        687        688        705        704        688        689        706        705        689        690        707        706        690        691        708        707        691        692        709        708        692        693        710        709        693        694        711        710        694        695        712        711        695        696        713        712        697        698        715        714        698        699        716        715        699        700        717        716        700        701        718        717        701        702        719        718        702        703        720        719        703        704        721        720        704        705        722        721        705        706        723        722        706        707        724        723        707        708        725        724        708        709        726        725        709        710        727        726        710        711        728        727        711        712        729        728        712        713        730        729        714        715        732        731        715        716        733        732        716        717        734        733        717        718        735        734        718        719        736        735        719        720        737        736        720        721        738        737        721        722        739        738        722        723        740        739        723        724        741        740        724        725        742        741        725        726        743        742        726        727        744        743        727        728        745        744        728        729        746        745        729        730        747        746        731        732        749        748        732        733        750        749        733        734        751        750        734        735        752        751        735        736        753        752        736        737        754        753        737        738        755        754        738        739        756        755        739        740        757        756        740        741        758        757        741        742        759        758        742        743        760        759        743        744        761        760        744        745        762        761        745        746        763        762        746        747        764        763        748        749        766        765        749        750        767        766        750        751        768        767        751        752        769        768        752        753        770        769        753        754        771        770        754        755        772        771        755        756        773        772        756        757        774        773        757        758        775        774        758        759        776        775        759        760        777        776        760        761        778        777        761        762        779        778        762        763        780        779        763        764        781        780        765        766        783        782        766        767        784        783        767        768        785        784        768        769        786        785        769        770        787        786        770        771        788        787        771        772        789        788        772        773        790        789        773        774        791        790        774        775        792        791        775        776        793        792        776        777        794        793        777        778        795        794        778        779        796        795        779        780        797        796        780        781        798        797        782        783        800        799        783        784        801        800        784        785        802        801        785        786        803        802        786        787        804        803        787        788        805        804        788        789        806        805        789        790        807        806        790        791        808        807        791        792        809        808        792        793        810        809        793        794        811        810        794        795        812        811        795        796        813        812        796        797        814        813        797        798        815        814        799        800        817        816        800        801        818        817        801        802        819        818        802        803        820        819        803        804        821        820        804        805        822        821        805        806        823        822        806        807        824        823        807        808        825        824        808        809        826        825        809        810        827        826        810        811        828        827        811        812        829        828        812        813        830        829        813        814        831        830        814        815        832        831        816        817        834        833        817        818        835        834        818        819        836        835        819        820        837        836        820        821        838        837        821        822        839        838        822        823        840        839        823        824        841        840        824        825        842        841        825        826        843        842        826        827        844        843        827        828        845        844        828        829        846        845        829        830        847        846        830        831        848        847        831        832        849        848        833        834        562        561        834        835        563        562        835        836        564        563        836        837        565        564        837        838        566        565        838        839        567        566        839        840        568        567        840        841        569        568        841        842        570        569        842        843        571        570        843        844        572        571        844        845        573        572        845        846        574        573        846        847        575        574        847        848        576        575        848        849        577        576        884        885        579        578        885        886        580        579        886        887        581        580        887        888        582        581        888        889        583        582        889        890        584        583        890        891        585        584        891        892        586        585        892        893        587        586        893        894        588        587        894        895        589        588        895        896        590        589        896        897        591        590        897        898        592        591        898        899        593        592        899        900        594        593        901        902        885        884        902        903        886        885        903        904        887        886        904        905        888        887        905        906        889        888        906        907        890        889        907        908        891        890        908        909        892        891        909        910        893        892        910        911        894        893        911        912        895        894        912        913        896        895        913        914        897        896        914        915        898        897        915        916        899        898        916        917        900        899        918        919        902        901        919        920        903        902        920        921        904        903        921        922        905        904        922        923        906        905        923        924        907        906        924        925        908        907        925        926        909        908        926        927        910        909        927        928        911        910        928        929        912        911        929        930        913        912        930        931        914        913        931        932        915        914        932        933        916        915        933        934        917        916        935        936        919        918        936        937        920        919        937        938        921        920        938        939        922        921        939        940        923        922        940        941        924        923        941        942        925        924        942        943        926        925        943        944        927        926        944        945        928        927        945        946        929        928        946        947        930        929        947        948        931        930        948        949        932        931        949        950        933        932        950        951        934        933        952        953        936        935        953        954        937        936        954        955        938        937        955        956        939        938        956        957        940        939        957        958        941        940        958        959        942        941        959        960        943        942        960        961        944        943        961        962        945        944        962        963        946        945        963        964        947        946        964        965        948        947        965        966        949        948        966        967        950        949        967        968        951        950        969        970        953        952        970        971        954        953        971        972        955        954        972        973        956        955        973        974        957        956        974        975        958        957        975        976        959        958        976        977        960        959        977        978        961        960        978        979        962        961        979        980        963        962        980        981        964        963        981        982        965        964        982        983        966        965        983        984        967        966        984        985        968        967        986        987        970        969        987        988        971        970        988        989        972        971        989        990        973        972        990        991        974        973        991        992        975        974        992        993        976        975        993        994        977        976        994        995        978        977        995        996        979        978        996        997        980        979        997        998        981        980        998        999        982        981        999       1000        983        982       1000       1001        984        983       1001       1002        985        984       1003       1004        987        986       1004       1005        988        987       1005       1006        989        988       1006       1007        990        989       1007       1008        991        990       1008       1009        992        991       1009       1010        993        992       1010       1011        994        993       1011       1012        995        994       1012       1013        996        995       1013       1014        997        996       1014       1015        998        997       1015       1016        999        998       1016       1017       1000        999       1017       1018       1001       1000       1018       1019       1002       1001       1020       1021       1004       1003       1021       1022       1005       1004       1022       1023       1006       1005       1023       1024       1007       1006       1024       1025       1008       1007       1025       1026       1009       1008       1026       1027       1010       1009       1027       1028       1011       1010       1028       1029       1012       1011       1029       1030       1013       1012       1030       1031       1014       1013       1031       1032       1015       1014       1032       1033       1016       1015       1033       1034       1017       1016       1034       1035       1018       1017       1035       1036       1019       1018       1037       1038       1021       1020       1038       1039       1022       1021       1039       1040       1023       1022       1040       1041       1024       1023       1041       1042       1025       1024       1042       1043       1026       1025       1043       1044       1027       1026       1044       1045       1028       1027       1045       1046       1029       1028       1046       1047       1030       1029       1047       1048       1031       1030       1048       1049       1032       1031       1049       1050       1033       1032       1050       1051       1034       1033       1051       1052       1035       1034       1052       1053       1036       1035       1054       1055       1038       1037       1055       1056       1039       1038       1056       1057       1040       1039       1057       1058       1041       1040       1058       1059       1042       1041       1059       1060       1043       1042       1060       1061       1044       1043       1061       1062       1045       1044       1062       1063       1046       1045       1063       1064       1047       1046       1064       1065       1048       1047       1065       1066       1049       1048       1066       1067       1050       1049       1067       1068       1051       1050       1068       1069       1052       1051       1069       1070       1053       1052       1071       1072       1055       1054       1072       1073       1056       1055       1073       1074       1057       1056       1074       1075       1058       1057       1075       1076       1059       1058       1076       1077       1060       1059       1077       1078       1061       1060       1078       1079       1062       1061       1079       1080       1063       1062       1080       1081       1064       1063       1081       1082       1065       1064       1082       1083       1066       1065       1083       1084       1067       1066       1084       1085       1068       1067       1085       1086       1069       1068       1086       1087       1070       1069       1088       1089       1072       1071       1089       1090       1073       1072       1090       1091       1074       1073       1091       1092       1075       1074       1092       1093       1076       1075       1093       1094       1077       1076       1094       1095       1078       1077       1095       1096       1079       1078       1096       1097       1080       1079       1097       1098       1081       1080       1098       1099       1082       1081       1099       1100       1083       1082       1100       1101       1084       1083       1101       1102       1085       1084       1102       1103       1086       1085       1103       1104       1087       1086       1105       1106       1089       1088       1106       1107       1090       1089       1107       1108       1091       1090       1108       1109       1092       1091       1109       1110       1093       1092       1110       1111       1094       1093       1111       1112       1095       1094       1112       1113       1096       1095       1113       1114       1097       1096       1114       1115       1098       1097       1115       1116       1099       1098       1116       1117       1100       1099       1117       1118       1101       1100       1118       1119       1102       1101       1119       1120       1103       1102       1120       1121       1104       1103       1122       1123       1106       1105       1123       1124       1107       1106       1124       1125       1108       1107       1125       1126       1109       1108       1126       1127       1110       1109       1127       1128       1111       1110       1128       1129       1112       1111       1129       1130       1113       1112       1130       1131       1114       1113       1131       1132       1115       1114       1132       1133       1116       1115       1133       1134       1117       1116       1134       1135       1118       1117       1135       1136       1119       1118       1136       1137       1120       1119       1137       1138       1121       1120        272        273       1123       1122        273        274       1124       1123        274        275       1125       1124        275        276       1126       1125        276        277       1127       1126        277        278       1128       1127        278        279       1129       1128        279        280       1130       1129        280        281       1131       1130        281        282       1132       1131        282        283       1133       1132        283        284       1134       1133        284        285       1135       1134        285        286       1136       1135        286        287       1137       1136        287        288       1138       1137 </DataArray>
<DataArray type="Int32"                                    Name="offsets"                                                      NumberOfComponents=" 1" format="ascii">
         4          8         12         16         20         24         28         32         36         40         44         48         52         56         60         64         68         72         76         80         84         88         92         96        100        104        108        112        116        120        124        128        132        136        140        144        148        152        156        160        164        168        172        176        180        184        188        192        196        200        204        208        212        216        220        224        228        232        236        240        244        248        252        256        260        264        268        272        276        280        284        288        292        296        300        304        308        312        316        320        324        328        332        336        340        344        348        352        356        360        364        368        372        376        380        384        388        392        396        400        404        408        412        416        420        424        428        432        436        440        444        448        452        456        460        464        468        472        476        480        484        488        492        496        500        504        508        512        516        520        524        528        532        536        540        544        548        552        556        560        564        568        572        576        580        584        588        592        596        600        604        608        612        616        620        624        628        632        636        640        644        648        652        656        660        664        668        672        676        680        684        688        692        696        700        704        708        712        716        720        724        728        732        736        740        744        748        752        756        760        764        768        772        776        780        784        788        792        796        800        804        808        812        816        820        824        828        832        836        840        844        848        852        856        860        864        868        872        876        880        884        888        892        896        900        904        908        912        916        920        924        928        932        936        940        944        948        952        956        960        964        968        972        976        980        984        988        992        996       1000       1004       1008       1012       1016       1020       1024       1028       1032       1036       1040       1044       1048       1052       1056       1060       1064       1068       1072       1076       1080       1084       1088       1092       1096       1100       1104       1108       1112       1116       1120       1124       1128       1132       1136       1140       1144       1148       1152       1156       1160       1164       1168       1172       1176       1180       1184       1188       1192       1196       1200       1204       1208       1212       1216       1220       1224       1228       1232       1236       1240       1244       1248       1252       1256       1260       1264       1268       1272       1276       1280       1284       1288       1292       1296       1300       1304       1308       1312       1316       1320       1324       1328       1332       1336       1340       1344       1348       1352       1356       1360       1364       1368       1372       1376       1380       1384       1388       1392       1396       1400       1404       1408       1412       1416       1420       1424       1428       1432       1436       1440       1444       1448       1452       1456       1460       1464       1468       1472       1476       1480       1484       1488       1492       1496       1500       1504       1508       1512       1516       1520       1524       1528       1532       1536       1540       1544       1548       1552       1556       1560       1564       1568       1572       1576       1580       1584       1588       1592       1596       1600       1604       1608       1612       1616       1620       1624       1628       1632       1636       1640       1644       1648       1652       1656       1660       1664       1668       1672       1676       1680       1684       1688       1692       1696       1700       1704       1708       1712       1716       1720       1724       1728       1732       1736       1740       1744       1748       1752       1756       1760       1764       1768       1772       1776       1780       1784       1788       1792       1796       1800       1804       1808       1812       1816       1820       1824       1828       1832       1836       1840       1844       1848       1852       1856       1860       1864       1868       1872       1876       1880       1884       1888       1892       1896       1900       1904       1908       1912       1916       1920       1924       1928       1932       1936       1940       1944       1948       1952       1956       1960       1964       1968       1972       1976       1980       1984       1988       1992       1996       2000       2004       2008       2012       2016       2020       2024       2028       2032       2036       2040       2044       2048       2052       2056       2060       2064       2068       2072       2076       2080       2084       2088       2092       2096       2100       2104       2108       2112       2116       2120       2124       2128       2132       2136       2140       2144       2148       2152       2156       2160       2164       2168       2172       2176       2180       2184       2188       2192       2196       2200       2204       2208       2212       2216       2220       2224       2228       2232       2236       2240       2244       2248       2252       2256       2260       2264       2268       2272       2276       2280       2284       2288       2292       2296       2300       2304       2308       2312       2316       2320       2324       2328       2332       2336       2340       2344       2348       2352       2356       2360       2364       2368       2372       2376       2380       2384       2388       2392       2396       2400       2404       2408       2412       2416       2420       2424       2428       2432       2436       2440       2444       2448       2452       2456       2460       2464       2468       2472       2476       2480       2484       2488       2492       2496       2500       2504       2508       2512       2516       2520       2524       2528       2532       2536       2540       2544       2548       2552       2556       2560       2564       2568       2572       2576       2580       2584       2588       2592       2596       2600       2604       2608       2612       2616       2620       2624       2628       2632       2636       2640       2644       2648       2652       2656       2660       2664       2668       2672       2676       2680       2684       2688       2692       2696       2700       2704       2708       2712       2716       2720       2724       2728       2732       2736       2740       2744       2748       2752       2756       2760       2764       2768       2772       2776       2780       2784       2788       2792       2796       2800       2804       2808       2812       2816       2820       2824       2828       2832       2836       2840       2844       2848       2852       2856       2860       2864       2868       2872       2876       2880       2884       2888       2892       2896       2900       2904       2908       2912       2916       2920       2924       2928       2932       2936       2940       2944       2948       2952       2956       2960       2964       2968       2972       2976       2980       2984       2988       2992       2996       3000       3004       3008       3012       3016       3020       3024       3028       3032       3036       3040       3044       3048       3052       3056       3060       3064       3068       3072       3076       3080       3084       3088       3092       3096       3100       3104       3108       3112       3116       3120       3124       3128       3132       3136       3140       3144       3148       3152       3156       3160       3164       3168       3172       3176       3180       3184       3188       3192       3196       3200       3204       3208       3212       3216       3220       3224       3228       3232       3236       3240       3244       3248       3252       3256       3260       3264       3268       3272       3276       3280       3284       3288       3292       3296       3300       3304       3308       3312       3316       3320       3324       3328       3332       3336       3340       3344       3348       3352       3356       3360       3364       3368       3372       3376       3380       3384       3388       3392       3396       3400       3404       3408       3412       3416       3420       3424       3428       3432       3436       3440       3444       3448       3452       3456       3460       3464       3468       3472       3476       3480       3484       3488       3492       3496       3500       3504       3508       3512       3516       3520       3524       3528       3532       3536       3540       3544       3548       3552       3556       3560       3564       3568       3572       3576       3580       3584       3588       3592       3596       3600       3604       3608       3612       3616       3620       3624       3628       3632       3636       3640       3644       3648       3652       3656       3660       3664       3668       3672       3676       3680       3684       3688       3692       3696       3700       3704       3708       3712       3716       3720       3724       3728       3732       3736       3740       3744       3748       3752       3756       3760       3764       3768       3772       3776       3780       3784       3788       3792       3796       3800       3804       3808       3812       3816       3820       3824       3828       3832       3836       3840       3844       3848       3852       3856       3860       3864       3868       3872       3876       3880       3884       3888       3892       3896       3900       3904       3908       3912       3916       3920       3924       3928       3932       3936       3940       3944       3948       3952       3956       3960       3964       3968       3972       3976       3980       3984       3988       3992       3996       4000       4004       4008       4012       4016       4020       4024       4028       4032       4036       4040       4044       4048       4052       4056       4060       4064       4068       4072       4076       4080       4084       4088       4092       4096 </DataArray>
<DataArray type="UInt8"                                    Name="types"                                                      NumberOfComponents=" 1" format="ascii">
         9          9          9          9          9          9          9          9          9          9          9          9          9          9          9          9          9          9          9          9          9          9          9          9          9          9          9          9          9          9          9          9          9          9          9          9          9          9          9          9          9          9          9          9          9          9          9          9          9          9          9          9          9          9          9          9          9          9          9          9          9          9          9          9          9          9          9          9          9          9          9          9          9          9          9          9          9          9          9          9          9          9          9          9          9          9          9          9          9          9          9          9          9          9          9          9          9          9          9          9          9          9          9          9          9          9          9          9          9          9          9          9          9          9          9          9          9          9          9          9          9          9          9          9          9          9          9          9          9          9          9          9          9          9          9          9          9          9          9          9          9          9          9          9          9          9          9          9          9          9          9          9          9          9          9          9          9          9          9          9          9          9          9          9          9          9          9          9          9          9          9          9          9          9          9          9          9          9          9          9          9          9          9          9          9          9          9          9          9          9          9          9          9          9          9          9          9          9          9          9          9          9          9          9          9          9          9          9          9          9          9          9          9          9          9          9          9          9          9          9          9          9          9          9          9          9          9          9          9          9          9          9          9          9          9          9          9          9          9          9          9          9          9          9          9          9          9          9          9          9          9          9          9          9          9          9          9          9          9          9          9          9          9          9          9          9          9          9          9          9          9          9          9          9          9          9          9          9          9          9          9          9          9          9          9          9          9          9          9          9          9          9          9          9          9          9          9          9          9          9          9          9          9          9          9          9          9          9          9          9          9          9          9          9          9          9          9          9          9          9          9          9          9          9          9          9          9          9          9          9          9          9          9          9          9          9          9          9          9          9          9          9          9          9          9          9          9          9          9          9          9          9          9          9          9          9          9          9          9          9          9          9          9          9          9          9          9          9          9          9          9          9          9          9          9          9          9          9          9          9          9          9          9          9          9          9          9          9          9          9          9          9          9          9          9          9          9          9          9          9          9          9          9          9          9          9          9          9          9          9          9          9          9          9          9          9          9          9          9          9          9          9          9          9          9          9          9          9          9          9          9          9          9          9          9          9          9          9          9          9          9          9          9          9          9          9          9          9          9          9          9          9          9          9          9          9          9          9          9          9          9          9          9          9          9          9          9          9          9          9          9          9          9          9          9          9          9          9          9          9          9          9          9          9          9          9          9          9          9          9          9          9          9          9          9          9          9          9          9          9          9          9          9          9          9          9          9          9          9          9          9          9          9          9          9          9          9          9          9          9          9          9          9          9          9          9          9          9          9          9          9          9          9          9          9          9          9          9          9          9          9          9          9          9          9          9          9          9          9          9          9          9          9          9          9          9          9          9          9          9          9          9          9          9          9          9          9          9          9          9          9          9          9          9          9          9          9          9          9          9          9          9          9          9          9          9          9          9          9          9          9          9          9          9          9          9          9          9          9          9          9          9          9          9          9          9          9          9          9          9          9          9          9          9          9          9          9          9          9          9          9          9          9          9          9          9          9          9          9          9          9          9          9          9          9          9          9          9          9          9          9          9          9          9          9          9          9          9          9          9          9          9          9          9          9          9          9          9          9          9          9          9          9          9          9          9          9          9          9          9          9          9          9          9          9          9          9          9          9          9          9          9          9          9          9          9          9          9          9          9          9          9          9          9          9          9          9          9          9          9          9          9          9          9          9          9          9          9          9          9          9          9          9          9          9          9          9          9          9          9          9          9          9          9          9          9          9          9          9          9          9          9          9          9          9          9          9          9          9          9          9          9          9          9          9          9          9          9          9          9          9          9          9          9          9          9          9          9          9          9          9          9          9          9          9          9          9          9          9          9          9          9          9          9          9          9          9          9          9          9          9          9          9          9          9          9          9          9          9          9          9          9          9          9          9          9          9          9          9          9          9          9          9          9          9          9          9          9          9          9          9          9          9          9          9          9          9          9          9          9          9          9          9          9          9          9          9          9          9          9          9          9          9          9          9          9          9          9          9          9          9          9          9          9          9          9          9          9          9          9          9          9          9          9          9          9          9          9          9          9          9          9          9          9          9          9          9          9          9          9          9          9          9          9          9          9          9          9          9          9          9          9          9          9          9          9          9          9          9          9          9          9          9          9          9          9          9          9          9          9          9          9          9          9          9          9          9          9          9          9          9          9          9          9          9          9          9          9          9          9          9          9          9          9          9          9          9          9          9          9          9          9          9          9          9          9          9          9          9          9          9          9          9          9          9          9          9          9          9          9          9          9          9          9          9          9          9          9          9          9          9          9          9          9          9          9          9          9          9          9          9          9          9          9          9          9          9          9          9          9          9          9          9          9          9          9          9          9          9          9          9          9          9          9          9          9          9          9          9          9          9          9          9          9          9          9          9          9          9          9          9          9          9          9          9          9          9          9          9          9          9          9          9          9 </DataArray>
</Cells>
<CellData>
<DataArray type="Int32"                                    Name="material"                                                      NumberOfComponents=" 1" format="ascii">
         1          1          1          1          1          1          1          1          1          1          1          1          1          1          1          1          1          1          1          1          1          1          1          1          1          1          1          1          1          1          1          1          1          1          1          1          1          1          1          1          1          1          1          1          1          1          1          1          1          1          1          1          1          1          1          1          1          1          1          1          1          1          1          1          1          1          1          1          1          1          1          1          1          1          1          1          1          1          1          1          1          1          1          1          1          1          1          1          1          1          1          1          1          1          1          1          1          1          1          1          1          1          1          1          1          1          1          1          1          1          1          1          1          1          1          1          1          1          1          1          1          1          1          1          1          1          1          1          1          1          1          1          1          1          1          1          1          1          1          1          1          1          1          1          1          1          1          1          1          1          1          1          1          1          1          1          1          1          1          1          1          1          1          1          1          1          1          1          1          1          1          1          1          1          1          1          1          1          1          1          1          1          1          1          1          1          1          1          1          1          1          1          1          1          1          1          1          1          1          1          1          1          1          1          1          1          1          1          1          1          1          1          1          1          1          1          1          1          1          1          1          1          1          1          1          1          1          1          1          1          1          1          1          1          1          1          1          1          1          1          1          1          1          1          1          1          1          1          1          1          1          1          1          1          1          1          1          1          1          1          1          1          1          1          1          1          1          1          1          1          1          1          1          1          1          1          1          1          1          1          1          1          1          1          1          1          1          1          1          1          1          1          1          1          1          1          1          1          1          1          1          1          1          1          1          1          1          1          1          1          1          1          1          1          1          1          1          1          1          1          1          1          1          1          1          1          1          1          1          1          1          1          1          1          1          1          1          1          1          1          1          1          1          1          1          1          1          1          1          1          1          1          1          1          1          1          1          1          1          1          1          1          1          1          1          1          1          1          1          1          1          1          1          1          1          1          1          1          1          1          1          1          1          1          1          1          1          1          1          1          1          1          1          1          1          1          1          1          1          1          1          1          1          1          1          1          1          1          1          1          1          1          1          1          1          1          1          1          1          1          1          1          1          1          1          1          1          1          1          1          1          1          1          1          1          1          1          1          1          1          1          1          1          1          1          1          1          1          1          1          1          1          1          1          1          1          1          1          1          1          1          1          1          1          1          1          1          1          1          1          1          1          1          1          1          1          1          1          1          1          1          1          1          1          1          1          1          1          1          1          1          1          1          1          1          1          1          1          1          1          1          1          1          1          1          1          1          1          1          1          1          1          1          1          1          1          1          1          1          1          1          1          1          1          1          1          1          1          1          1          1          1          1          1          1          1          1          1          1          1          1          1          1          1          1          1          1          1          1          1          1          1          1          1          1          1          1          1          1          1          1          1          1          1          1          1          1          1          1          1          1          1          1          1          1          1          1          1          1          1          1          1          1          1          1          1          1          1          1          1          1          1          1          1          1          1          1          1          1          1          1          1          1          1          1          1          1          1          1          1          1          1          1          1          1          1          1          1          1          1          1          1          1          1          1          1          1          1          1          1          1          1          1          1          1          1          1          1          1          1          1          1          1          1          1          1          1          1          1          1          1          1          1          1          1          1          1          1          1          1          1          1          1          1          1          1          1          1          1          1          1          1          1          1          1          1          1          1          1          1          1          1          1          1          1          1          1          1          1          1          1          1          1          1          1          1          1          1          1          1          1          1          1          1          1          1          1          1          1          1          1          1          1          1          1          1          1          1          1          1          1          1          1          1          1          1          1          1          1          1          1          1          1          1          1          1          1          1          1          1          1          1          1          1          1          1          1          1          1          1          1          1          1          1          1          1          1          1          1          1          1          1          1          1          1          1          1          1          1          1          1          1          1          1          1          1          1          1          1          1          1          1          1          1          1          1          1          1          1          1          1          1          1          1          1          1          1          1          1          1          1          1          1          1          1          1          1          1          1          1          1          1          1          1          1          1          1          1          1          1          1          1          1          1          1          1          1          1          1          1          1          1          1          1          1          1          1          1          1          1          1          1          1          1          1          1          1          1          1          1          1          1          1          1          1          1          1          1          1          1          1          1          1          1          1          1          1          1          1          1          1          1          1          1          1          1          1          1          1          1          1          1          1          1          1          1          1          1          1          1          1          1          1          1          1          1          1          1          1          1          1          1          1          1          1          1          1          1          1          1          1          1          1          1          1          1          1          1          1          1          1          1          1          1          1          1          1          1          1          1          1          1          1          1          1          1          1          1          1          1          1          1          1          1          1          1          1          1          1          1          1          1          1          1          1          1          1          1          1          1          1          1          1          1          1          1          1          1          1          1          1          1          1          1          1          1          1          1          1          1          1          1          1          1          1          1          1          1          1          1          1          1          1          1          1          1          1          1          1          1          1          1          1          1          1          1          1          1          1          1          1          1          1          1          1          1          1          1          1          1          1          1          1          1 </DataArray>
</CellData>
<PointData>
<DataArray type="Float64"                                    Name="u"                                                      NumberOfComponents=" 3" format="ascii">
             -0.000900381               0.000000000               0.999999985              -0.000950619              -0.000000000               0.999999985              -0.000972285              -0.000000000               0.999999985              -0.000984840               0.000000000               0.999999985              -0.000995283               0.000000000               0.999999985              -0.001005995               0.000000000               0.999999985              -0.001017693               0.000000000               0.999999985              -0.001030275               0.000000000               0.999999985              -0.001043379               0.000000000               0.999999985              -0.001056546               0.000000000               0.999999985              -0.001069464               0.000000000               0.999999985              -0.001081741               0.000000000               0.999999985              -0.001093105               0.000000000               0.999999985              -0.001103243               0.000000000               0.999999985              -0.001111697               0.000000000               0.999999985              -0.001118000              -0.000000000               0.999999985              -0.001121244               0.000000000               0.999999985              -0.000895329               0.000130885               0.999999985              -0.000941321               0.000103925               0.999999985              -0.000960277               0.000091738               0.999999985              -0.000971054               0.000086691               0.999999985              -0.000980217               0.000085207               0.999999985              -0.000989849               0.000085471               0.999999985              -0.001000461               0.000086189               0.999999985              -0.001011923               0.000086593               0.999999985              -0.001023797               0.000086097               0.999999985              -0.001035668               0.000084360               0.999999985              -0.001047033               0.000081066               0.999999985              -0.001057449               0.000076287               0.999999985              -0.001066730               0.000069644               0.999999985              -0.001074597               0.000060730               0.999999985              -0.001080687               0.000048718               0.999999985              -0.001084505               0.000032682               0.999999985              -0.001085416               0.000011161               0.999999985              -0.000880311               0.000260601               0.999999985              -0.000913885               0.000207447               0.999999985              -0.000925129               0.000184384               0.999999985              -0.000931036               0.000175450               0.999999985              -0.000936729               0.000173320               0.999999985              -0.000943516               0.000174262               0.999999985              -0.000951445               0.000176018               0.999999985              -0.000959977               0.000177049               0.999999985              -0.000968542               0.000176338               0.999999985              -0.000976697               0.000173047               0.999999985              -0.000983851               0.000166889               0.999999985              -0.000989608               0.000157697               0.999999985              -0.000993642               0.000145145               0.999999985              -0.000995662               0.000128404               0.999999985              -0.000995472               0.000106536               0.999999985              -0.000992797               0.000078114               0.999999985              -0.000987588               0.000041586               0.999999985              -0.000855662               0.000387911               0.999999985              -0.000869673               0.000310301               0.999999985              -0.000869715               0.000278733               0.999999985              -0.000868971               0.000267812               0.999999985              -0.000870189               0.000266269               0.999999985              -0.000873378               0.000268746               0.999999985              -0.000877712               0.000271915               0.999999985              -0.000882235               0.000273878               0.999999985              -0.000886293               0.000273114               0.999999985              -0.000889177               0.000268782               0.999999985              -0.000890292               0.000260165               0.999999985              -0.000889227               0.000247331               0.999999985              -0.000885755               0.000229995               0.999999985              -0.000879740               0.000207391               0.999999985              -0.000871177               0.000178617               0.999999985              -0.000860210               0.000142777               0.999999985              -0.000847078               0.000099253               0.999999985              -0.000821831               0.000511621               0.999999985              -0.000810917               0.000412493               0.999999985              -0.000798545               0.000375413               0.999999985              -0.000791230               0.000364490               0.999999985              -0.000788281               0.000364842               0.999999985              -0.000788002               0.000369398               0.999999985              -0.000788631               0.000374302               0.999999985              -0.000788895               0.000377212               0.999999985              -0.000787627               0.000376539               0.999999985              -0.000784088               0.000371215               0.999999985              -0.000777773               0.000360612               0.999999985              -0.000768576               0.000345008               0.999999985              -0.000756359               0.000324263               0.999999985              -0.000741156               0.000298004               0.999999985              -0.000723200               0.000265721               0.999999985              -0.000702888               0.000227413               0.999999985              -0.000681028               0.000183556               0.999999985              -0.000779366               0.000630690               0.999999985              -0.000740591               0.000514224               0.999999985              -0.000716827               0.000474637               0.999999985              -0.000704444               0.000465354               0.999999985              -0.000698654               0.000468319               0.999999985              -0.000695738               0.000475180               0.999999985              -0.000693035               0.000481846               0.999999985              -0.000688791               0.000485584               0.999999985              -0.000681701               0.000484695               0.999999985              -0.000671109               0.000478148               0.999999985              -0.000656771               0.000466023               0.999999985              -0.000638665               0.000448321               0.999999985              -0.000616917               0.000425536               0.999999985              -0.000591996               0.000397623               0.999999985              -0.000564410               0.000364322               0.999999985              -0.000534811               0.000326624               0.999999985              -0.000504036               0.000285914               0.999999985              -0.000729256               0.000743981               0.999999985              -0.000662349               0.000615501               0.999999985              -0.000629948               0.000575926               0.999999985              -0.000615075               0.000569210               0.999999985              -0.000608095               0.000574955               0.999999985              -0.000603347               0.000584033               0.999999985              -0.000597518               0.000592102               0.999999985              -0.000588558               0.000596256               0.999999985              -0.000575157               0.000594654               0.999999985              -0.000556722               0.000586906               0.999999985              -0.000533521               0.000573492               0.999999985              -0.000505720               0.000554633               0.999999985              -0.000473951               0.000530890               0.999999985              -0.000438878               0.000502599               0.999999985              -0.000401337               0.000469929               0.999999985              -0.000362014               0.000434387               0.999999985              -0.000321720               0.000397382               0.999999985              -0.000672615               0.000850294               0.999999985              -0.000579947               0.000716084               0.999999985              -0.000542787               0.000678267               0.999999985              -0.000528270               0.000674284               0.999999985              -0.000521449               0.000682487               0.999999985              -0.000515407               0.000693444               0.999999985              -0.000506324               0.000702315               0.999999985              -0.000491949               0.000706341               0.999999985              -0.000471263               0.000703971               0.999999985              -0.000444181               0.000695146               0.999999985              -0.000411136               0.000680897               0.999999985              -0.000372951               0.000661441               0.999999985              -0.000330503               0.000637317               0.999999985              -0.000284704               0.000609223               0.999999985              -0.000236551               0.000577974               0.999999985              -0.000186855               0.000545179               0.999999985              -0.000136491               0.000512028               0.999999985              -0.000611285               0.000947680               0.999999985              -0.000496236               0.000815851               0.999999985              -0.000459678               0.000780155               0.999999985              -0.000447433               0.000778452               0.999999985              -0.000441539               0.000788819               0.999999985              -0.000434269               0.000801182               0.999999985              -0.000421329               0.000810374               0.999999985              -0.000400636               0.000813843               0.999999985              -0.000371559               0.000810703               0.999999985              -0.000334667               0.000801183               0.999999985              -0.000290821               0.000786141               0.999999985              -0.000241331               0.000766017               0.999999985              -0.000187188               0.000741825               0.999999985              -0.000129571               0.000714766               0.999999985              -0.000069974               0.000686053               0.999999985              -0.000009666               0.000657015               0.999999985               0.000050779               0.000628073               0.999999985              -0.000547786               0.001040094               0.999999985              -0.000425911               0.000927856               0.999999985              -0.000386631               0.000888500               0.999999985              -0.000373836               0.000882160               0.999999985              -0.000368731               0.000889843               0.999999985              -0.000363568               0.000902290               0.999999985              -0.000354027               0.000914177               0.999999985              -0.000337679               0.000922646               0.999999985              -0.000313455               0.000926419               0.999999985              -0.000281622               0.000925166               0.999999985              -0.000242663               0.000919076               0.999999985              -0.000197467               0.000908489               0.999999985              -0.000146899               0.000894043               0.999999985              -0.000091537               0.000876387               0.999999985              -0.000032524               0.000856897               0.999999985               0.000028444               0.000836584               0.999999985               0.000089890               0.000816397               0.999999985              -0.000478614               0.001124482               0.999999985              -0.000358225               0.001036483               0.999999985              -0.000316526               0.000999824               0.999999985              -0.000302265               0.000991135               0.999999985              -0.000297101               0.000997008               0.999999985              -0.000293165               0.001009709               0.999999985              -0.000286266               0.001024130               0.999999985              -0.000273671               0.001037203               0.999999985              -0.000254086               0.001047241               0.999999985              -0.000227303               0.001053620               0.999999985              -0.000193481               0.001056010               0.999999985              -0.000153077               0.001054446               0.999999985              -0.000106629               0.001049231               0.999999985              -0.000054381               0.001040834               0.999999985               0.000003021               0.001030070               0.999999985               0.000064256               0.001018056               0.999999985               0.000127366               0.001005805               0.999999985              -0.000405294               0.001198504               0.999999985              -0.000293341               0.001138289               0.999999985              -0.000251110               0.001108955               0.999999985              -0.000235325               0.001101120               0.999999985              -0.000229360               0.001106783               0.999999985              -0.000225853               0.001120176               0.999999985              -0.000220747               0.001137107               0.999999985              -0.000211192               0.001154570               0.999999985              -0.000195726               0.001170618               0.999999985              -0.000173942               0.001184322               0.999999985              -0.000145568               0.001194968               0.999999985              -0.000110505               0.001202267               0.999999985              -0.000068998               0.001206158               0.999999985              -0.000020922               0.001206872               0.999999985               0.000033869               0.001205027               0.999999985               0.000094493               0.001201449               0.999999985               0.000159459               0.001197077               0.999999985              -0.000328479               0.001260873               0.999999985              -0.000231276               0.001228938               0.999999985              -0.000191271               0.001210404               0.999999985              -0.000174798               0.001206371               0.999999985              -0.000168001               0.001213695               0.999999985              -0.000164357               0.001228592               0.999999985              -0.000160270               0.001248117               0.999999985              -0.000153139               0.001269715               0.999999985              -0.000141337               0.001291491               0.999999985              -0.000124329               0.001312168               0.999999985              -0.000101509               0.001330990               0.999999985              -0.000072496               0.001347167               0.999999985              -0.000037069               0.001360401               0.999999985               0.000005357               0.001370633               0.999999985               0.000055442               0.001378027               0.999999985               0.000113316               0.001383100               0.999999985               0.000178457               0.001386842               0.999999985              -0.000248812               0.001310618               0.999999985              -0.000171545               0.001304321               0.999999985              -0.000137203               0.001297980               0.999999985              -0.000121753               0.001299814               0.999999985              -0.000114825               0.001310277               0.999999985              -0.000111094               0.001327585               0.999999985              -0.000107600               0.001349819               0.999999985              -0.000102380               0.001375165               0.999999985              -0.000093849               0.001402055               0.999999985              -0.000081267               0.001429121               0.999999985              -0.000064215               0.001455400               0.999999985              -0.000042022               0.001480149               0.999999985              -0.000013809               0.001502673               0.999999985               0.000020982               0.001522626               0.999999985               0.000063428               0.001539905               0.999999985               0.000114600               0.001554484               0.999999985               0.000175572               0.001566971               0.999999985              -0.000167087               0.001346741               0.999999985              -0.000113499               0.001360830               0.999999985              -0.000088208               0.001365670               0.999999985              -0.000076108               0.001373751               0.999999985              -0.000070304               0.001387904               0.999999985              -0.000067069               0.001407960               0.999999985              -0.000064361               0.001432810               0.999999985              -0.000060725               0.001461340               0.999999985              -0.000055089               0.001492289               0.999999985              -0.000046864               0.001524528               0.999999985              -0.000035540               0.001557058               0.999999985              -0.000020554               0.001589095               0.999999985              -0.000000892               0.001619857               0.999999985               0.000024049               0.001648741               0.999999985               0.000055273               0.001675392               0.999999985               0.000094285               0.001699446               0.999999985               0.000142834               0.001720642               0.999999985              -0.000083923               0.001368696               0.999999985              -0.000056486               0.001395856               0.999999985              -0.000043066               0.001408378               0.999999985              -0.000036398               0.001421106               0.999999985              -0.000033048               0.001438271               0.999999985              -0.000031190               0.001460559               0.999999985              -0.000029552               0.001487456               0.999999985              -0.000027679               0.001518161               0.999999985              -0.000024839               0.001551750               0.999999985              -0.000020910               0.001587321               0.999999985              -0.000015266               0.001623964               0.999999985              -0.000007564               0.001660887               0.999999985               0.000002462               0.001697306               0.999999985               0.000015527               0.001732596               0.999999985               0.000032229               0.001766130               0.999999985               0.000053417               0.001797366               0.999999985               0.000080518               0.001825377               0.999999985               0.000000000               0.001376039               0.999999985              -0.000000000               0.001407690               0.999999985               0.000000000               0.001422998               0.999999985               0.000000000               0.001437467               0.999999985              -0.000000000               0.001455719               0.999999985              -0.000000000               0.001478871               0.999999985               0.000000000               0.001506501               0.999999985              -0.000000000               0.001537907               0.999999985              -0.000000000               0.001572412               0.999999985              -0.000000000               0.001609280               0.999999985               0.000000000               0.001647470               0.999999985              -0.000000000               0.001686094               0.999999985               0.000000000               0.001724472               0.999999985               0.000000000               0.001762032               0.999999985               0.000000000               0.001798125               0.999999985               0.000000000               0.001831814               0.999999985              -0.000000000               0.001862180               0.999999985              -0.000900381               0.000000000               0.999999985              -0.000950619              -0.000000000               0.999999985              -0.000972285              -0.000000000               0.999999985              -0.000984840               0.000000000               0.999999985              -0.000995283               0.000000000               0.999999985              -0.001005995               0.000000000               0.999999985              -0.001017693               0.000000000               0.999999985              -0.001030275               0.000000000               0.999999985              -0.001043379               0.000000000               0.999999985              -0.001056546               0.000000000               0.999999985              -0.001069464               0.000000000               0.999999985              -0.001081741               0.000000000               0.999999985              -0.001093105               0.000000000               0.999999985              -0.001103243               0.000000000               0.999999985              -0.001111697               0.000000000               0.999999985              -0.001118000              -0.000000000               0.999999985              -0.001121244               0.000000000               0.999999985              -0.000895329              -0.000130885               0.999999985              -0.000941321              -0.000103925               0.999999985              -0.000960277              -0.000091738               0.999999985              -0.000971054              -0.000086691               0.999999985              -0.000980217              -0.000085207               0.999999985              -0.000989849              -0.000085471               0.999999985              -0.001000461              -0.000086189               0.999999985              -0.001011923              -0.000086593               0.999999985              -0.001023797              -0.000086097               0.999999985              -0.001035668              -0.000084360               0.999999985              -0.001047033              -0.000081066               0.999999985              -0.001057449              -0.000076287               0.999999985              -0.001066730              -0.000069644               0.999999985              -0.001074597              -0.000060730               0.999999985              -0.001080687              -0.000048718               0.999999985              -0.001084505              -0.000032682               0.999999985              -0.001085416              -0.000011161               0.999999985              -0.000880311              -0.000260601               0.999999985              -0.000913885              -0.000207447               0.999999985              -0.000925129              -0.000184384               0.999999985              -0.000931036              -0.000175450               0.999999985              -0.000936729              -0.000173320               0.999999985              -0.000943516              -0.000174262               0.999999985              -0.000951445              -0.000176018               0.999999985              -0.000959977              -0.000177049               0.999999985              -0.000968542              -0.000176338               0.999999985              -0.000976697              -0.000173047               0.999999985              -0.000983851              -0.000166889               0.999999985              -0.000989608              -0.000157697               0.999999985              -0.000993642              -0.000145145               0.999999985              -0.000995662              -0.000128404               0.999999985              -0.000995472              -0.000106536               0.999999985              -0.000992797              -0.000078114               0.999999985              -0.000987588              -0.000041586               0.999999985              -0.000855662              -0.000387911               0.999999985              -0.000869673              -0.000310301               0.999999985              -0.000869715              -0.000278733               0.999999985              -0.000868971              -0.000267812               0.999999985              -0.000870189              -0.000266269               0.999999985              -0.000873378              -0.000268746               0.999999985              -0.000877712              -0.000271915               0.999999985              -0.000882235              -0.000273878               0.999999985              -0.000886293              -0.000273114               0.999999985              -0.000889177              -0.000268782               0.999999985              -0.000890292              -0.000260165               0.999999985              -0.000889227              -0.000247331               0.999999985              -0.000885755              -0.000229995               0.999999985              -0.000879740              -0.000207391               0.999999985              -0.000871177              -0.000178617               0.999999985              -0.000860210              -0.000142777               0.999999985              -0.000847078              -0.000099253               0.999999985              -0.000821831              -0.000511621               0.999999985              -0.000810917              -0.000412493               0.999999985              -0.000798545              -0.000375413               0.999999985              -0.000791230              -0.000364490               0.999999985              -0.000788281              -0.000364842               0.999999985              -0.000788002              -0.000369398               0.999999985              -0.000788631              -0.000374302               0.999999985              -0.000788895              -0.000377212               0.999999985              -0.000787627              -0.000376539               0.999999985              -0.000784088              -0.000371215               0.999999985              -0.000777773              -0.000360612               0.999999985              -0.000768576              -0.000345008               0.999999985              -0.000756359              -0.000324263               0.999999985              -0.000741156              -0.000298004               0.999999985              -0.000723200              -0.000265721               0.999999985              -0.000702888              -0.000227413               0.999999985              -0.000681028              -0.000183556               0.999999985              -0.000779366              -0.000630690               0.999999985              -0.000740591              -0.000514224               0.999999985              -0.000716827              -0.000474637               0.999999985              -0.000704444              -0.000465354               0.999999985              -0.000698654              -0.000468319               0.999999985              -0.000695738              -0.000475180               0.999999985              -0.000693035              -0.000481846               0.999999985              -0.000688791              -0.000485584               0.999999985              -0.000681701              -0.000484695               0.999999985              -0.000671109              -0.000478148               0.999999985              -0.000656771              -0.000466023               0.999999985              -0.000638665              -0.000448321               0.999999985              -0.000616917              -0.000425536               0.999999985              -0.000591996              -0.000397623               0.999999985              -0.000564410              -0.000364322               0.999999985              -0.000534811              -0.000326624               0.999999985              -0.000504036              -0.000285914               0.999999985              -0.000729256              -0.000743981               0.999999985              -0.000662349              -0.000615501               0.999999985              -0.000629948              -0.000575926               0.999999985              -0.000615075              -0.000569210               0.999999985              -0.000608095              -0.000574955               0.999999985              -0.000603347              -0.000584033               0.999999985              -0.000597518              -0.000592102               0.999999985              -0.000588558              -0.000596256               0.999999985              -0.000575157              -0.000594654               0.999999985              -0.000556722              -0.000586906               0.999999985              -0.000533521              -0.000573492               0.999999985              -0.000505720              -0.000554633               0.999999985              -0.000473951              -0.000530890               0.999999985              -0.000438878              -0.000502599               0.999999985              -0.000401337              -0.000469929               0.999999985              -0.000362014              -0.000434387               0.999999985              -0.000321720              -0.000397382               0.999999985              -0.000672615              -0.000850294               0.999999985              -0.000579947              -0.000716084               0.999999985              -0.000542787              -0.000678267               0.999999985              -0.000528270              -0.000674284               0.999999985              -0.000521449              -0.000682487               0.999999985              -0.000515407              -0.000693444               0.999999985              -0.000506324              -0.000702315               0.999999985              -0.000491949              -0.000706341               0.999999985              -0.000471263              -0.000703971               0.999999985              -0.000444181              -0.000695146               0.999999985              -0.000411136              -0.000680897               0.999999985              -0.000372951              -0.000661441               0.999999985              -0.000330503              -0.000637317               0.999999985              -0.000284704              -0.000609223               0.999999985              -0.000236551              -0.000577974               0.999999985              -0.000186855              -0.000545179               0.999999985              -0.000136491              -0.000512028               0.999999985              -0.000611285              -0.000947680               0.999999985              -0.000496236              -0.000815851               0.999999985              -0.000459678              -0.000780155               0.999999985              -0.000447433              -0.000778452               0.999999985              -0.000441539              -0.000788819               0.999999985              -0.000434269              -0.000801182               0.999999985              -0.000421329              -0.000810374               0.999999985              -0.000400636              -0.000813843               0.999999985              -0.000371559              -0.000810703               0.999999985              -0.000334667              -0.000801183               0.999999985              -0.000290821              -0.000786141               0.999999985              -0.000241331              -0.000766017               0.999999985              -0.000187188              -0.000741825               0.999999985              -0.000129571              -0.000714766               0.999999985              -0.000069974              -0.000686053               0.999999985              -0.000009666              -0.000657015               0.999999985               0.000050779              -0.000628073               0.999999985              -0.000547786              -0.001040094               0.999999985              -0.000425911              -0.000927856               0.999999985              -0.000386631              -0.000888500               0.999999985              -0.000373836              -0.000882160               0.999999985              -0.000368731              -0.000889843               0.999999985              -0.000363568              -0.000902290               0.999999985              -0.000354027              -0.000914177               0.999999985              -0.000337679              -0.000922646               0.999999985              -0.000313455              -0.000926419               0.999999985              -0.000281622              -0.000925166               0.999999985              -0.000242663              -0.000919076               0.999999985              -0.000197467              -0.000908489               0.999999985              -0.000146899              -0.000894043               0.999999985              -0.000091537              -0.000876387               0.999999985              -0.000032524              -0.000856897               0.999999985               0.000028444              -0.000836584               0.999999985               0.000089890              -0.000816397               0.999999985              -0.000478614              -0.001124482               0.999999985              -0.000358225              -0.001036483               0.999999985              -0.000316526              -0.000999824               0.999999985              -0.000302265              -0.000991135               0.999999985              -0.000297101              -0.000997008               0.999999985              -0.000293165              -0.001009709               0.999999985              -0.000286266              -0.001024130               0.999999985              -0.000273671              -0.001037203               0.999999985              -0.000254086              -0.001047241               0.999999985              -0.000227303              -0.001053620               0.999999985              -0.000193481              -0.001056010               0.999999985              -0.000153077              -0.001054446               0.999999985              -0.000106629              -0.001049231               0.999999985              -0.000054381              -0.001040834               0.999999985               0.000003021              -0.001030070               0.999999985               0.000064256              -0.001018056               0.999999985               0.000127366              -0.001005805               0.999999985              -0.000405294              -0.001198504               0.999999985              -0.000293341              -0.001138289               0.999999985              -0.000251110              -0.001108955               0.999999985              -0.000235325              -0.001101120               0.999999985              -0.000229360              -0.001106783               0.999999985              -0.000225853              -0.001120176               0.999999985              -0.000220747              -0.001137107               0.999999985              -0.000211192              -0.001154570               0.999999985              -0.000195726              -0.001170618               0.999999985              -0.000173942              -0.001184322               0.999999985              -0.000145568              -0.001194968               0.999999985              -0.000110505              -0.001202267               0.999999985              -0.000068998              -0.001206158               0.999999985              -0.000020922              -0.001206872               0.999999985               0.000033869              -0.001205027               0.999999985               0.000094493              -0.001201449               0.999999985               0.000159459              -0.001197077               0.999999985              -0.000328479              -0.001260873               0.999999985              -0.000231276              -0.001228938               0.999999985              -0.000191271              -0.001210404               0.999999985              -0.000174798              -0.001206371               0.999999985              -0.000168001              -0.001213695               0.999999985              -0.000164357              -0.001228592               0.999999985              -0.000160270              -0.001248117               0.999999985              -0.000153139              -0.001269715               0.999999985              -0.000141337              -0.001291491               0.999999985              -0.000124329              -0.001312168               0.999999985              -0.000101509              -0.001330990               0.999999985              -0.000072496              -0.001347167               0.999999985              -0.000037069              -0.001360401               0.999999985               0.000005357              -0.001370633               0.999999985               0.000055442              -0.001378027               0.999999985               0.000113316              -0.001383100               0.999999985               0.000178457              -0.001386842               0.999999985              -0.000248812              -0.001310618               0.999999985              -0.000171545              -0.001304321               0.999999985              -0.000137203              -0.001297980               0.999999985              -0.000121753              -0.001299814               0.999999985              -0.000114825              -0.001310277               0.999999985              -0.000111094              -0.001327585               0.999999985              -0.000107600              -0.001349819               0.999999985              -0.000102380              -0.001375165               0.999999985              -0.000093849              -0.001402055               0.999999985              -0.000081267              -0.001429121               0.999999985              -0.000064215              -0.001455400               0.999999985              -0.000042022              -0.001480149               0.999999985              -0.000013809              -0.001502673               0.999999985               0.000020982              -0.001522626               0.999999985               0.000063428              -0.001539905               0.999999985               0.000114600              -0.001554484               0.999999985               0.000175572              -0.001566971               0.999999985              -0.000167087              -0.001346741               0.999999985              -0.000113499              -0.001360830               0.999999985              -0.000088208              -0.001365670               0.999999985              -0.000076108              -0.001373751               0.999999985              -0.000070304              -0.001387904               0.999999985              -0.000067069              -0.001407960               0.999999985              -0.000064361              -0.001432810               0.999999985              -0.000060725              -0.001461340               0.999999985              -0.000055089              -0.001492289               0.999999985              -0.000046864              -0.001524528               0.999999985              -0.000035540              -0.001557058               0.999999985              -0.000020554              -0.001589095               0.999999985              -0.000000892              -0.001619857               0.999999985               0.000024049              -0.001648741               0.999999985               0.000055273              -0.001675392               0.999999985               0.000094285              -0.001699446               0.999999985               0.000142834              -0.001720642               0.999999985              -0.000083923              -0.001368696               0.999999985              -0.000056486              -0.001395856               0.999999985              -0.000043066              -0.001408378               0.999999985              -0.000036398              -0.001421106               0.999999985              -0.000033048              -0.001438271               0.999999985              -0.000031190              -0.001460559               0.999999985              -0.000029552              -0.001487456               0.999999985              -0.000027679              -0.001518161               0.999999985              -0.000024839              -0.001551750               0.999999985              -0.000020910              -0.001587321               0.999999985              -0.000015266              -0.001623964               0.999999985              -0.000007564              -0.001660887               0.999999985               0.000002462              -0.001697306               0.999999985               0.000015527              -0.001732596               0.999999985               0.000032229              -0.001766130               0.999999985               0.000053417              -0.001797366               0.999999985               0.000080518              -0.001825377               0.999999985              -0.000000000              -0.001376039               0.999999985              -0.000000000              -0.001407690               0.999999985              -0.000000000              -0.001422998               0.999999985              -0.000000000              -0.001437467               0.999999985              -0.000000000              -0.001455719               0.999999985               0.000000000              -0.001478871               0.999999985              -0.000000000              -0.001506501               0.999999985              -0.000000000              -0.001537907               0.999999985              -0.000000000              -0.001572412               0.999999985               0.000000000              -0.001609280               0.999999985              -0.000000000              -0.001647470               0.999999985               0.000000000              -0.001686094               0.999999985              -0.000000000              -0.001724472               0.999999985              -0.000000000              -0.001762032               0.999999985               0.000000000              -0.001798125               0.999999985               0.000000000              -0.001831814               0.999999985              -0.000000000              -0.001862180               0.999999985               0.000900381               0.000000000               0.999999985               0.000950619              -0.000000000               0.999999985               0.000972285              -0.000000000               0.999999985               0.000984840              -0.000000000               0.999999985               0.000995283               0.000000000               0.999999985               0.001005995               0.000000000               0.999999985               0.001017693               0.000000000               0.999999985               0.001030275               0.000000000               0.999999985               0.001043379              -0.000000000               0.999999985               0.001056546               0.000000000               0.999999985               0.001069464               0.000000000               0.999999985               0.001081741               0.000000000               0.999999985               0.001093105               0.000000000               0.999999985               0.001103243               0.000000000               0.999999985               0.001111697               0.000000000               0.999999985               0.001118000               0.000000000               0.999999985               0.001121244               0.000000000               0.999999985               0.000895329              -0.000130885               0.999999985               0.000941321              -0.000103925               0.999999985               0.000960277              -0.000091738               0.999999985               0.000971054              -0.000086691               0.999999985               0.000980217              -0.000085207               0.999999985               0.000989849              -0.000085471               0.999999985               0.001000461              -0.000086189               0.999999985               0.001011923              -0.000086593               0.999999985               0.001023797              -0.000086097               0.999999985               0.001035668              -0.000084360               0.999999985               0.001047033              -0.000081066               0.999999985               0.001057449              -0.000076287               0.999999985               0.001066730              -0.000069644               0.999999985               0.001074597              -0.000060730               0.999999985               0.001080687              -0.000048718               0.999999985               0.001084505              -0.000032682               0.999999985               0.001085416              -0.000011161               0.999999985               0.000880311              -0.000260601               0.999999985               0.000913885              -0.000207447               0.999999985               0.000925129              -0.000184384               0.999999985               0.000931036              -0.000175450               0.999999985               0.000936729              -0.000173320               0.999999985               0.000943516              -0.000174262               0.999999985               0.000951445              -0.000176018               0.999999985               0.000959977              -0.000177049               0.999999985               0.000968542              -0.000176338               0.999999985               0.000976697              -0.000173047               0.999999985               0.000983851              -0.000166889               0.999999985               0.000989608              -0.000157697               0.999999985               0.000993642              -0.000145145               0.999999985               0.000995662              -0.000128404               0.999999985               0.000995472              -0.000106536               0.999999985               0.000992797              -0.000078114               0.999999985               0.000987588              -0.000041586               0.999999985               0.000855662              -0.000387911               0.999999985               0.000869673              -0.000310301               0.999999985               0.000869715              -0.000278733               0.999999985               0.000868971              -0.000267812               0.999999985               0.000870189              -0.000266269               0.999999985               0.000873378              -0.000268746               0.999999985               0.000877712              -0.000271915               0.999999985               0.000882235              -0.000273878               0.999999985               0.000886293              -0.000273114               0.999999985               0.000889177              -0.000268782               0.999999985               0.000890292              -0.000260165               0.999999985               0.000889227              -0.000247331               0.999999985               0.000885755              -0.000229995               0.999999985               0.000879740              -0.000207391               0.999999985               0.000871177              -0.000178617               0.999999985               0.000860210              -0.000142777               0.999999985               0.000847078              -0.000099253               0.999999985               0.000821831              -0.000511621               0.999999985               0.000810917              -0.000412493               0.999999985               0.000798545              -0.000375413               0.999999985               0.000791230              -0.000364490               0.999999985               0.000788281              -0.000364842               0.999999985               0.000788002              -0.000369398               0.999999985               0.000788631              -0.000374302               0.999999985               0.000788895              -0.000377212               0.999999985               0.000787627              -0.000376539               0.999999985               0.000784088              -0.000371215               0.999999985               0.000777773              -0.000360612               0.999999985               0.000768576              -0.000345008               0.999999985               0.000756359              -0.000324263               0.999999985               0.000741156              -0.000298004               0.999999985               0.000723200              -0.000265721               0.999999985               0.000702888              -0.000227413               0.999999985               0.000681028              -0.000183556               0.999999985               0.000779366              -0.000630690               0.999999985               0.000740591              -0.000514224               0.999999985               0.000716827              -0.000474637               0.999999985               0.000704444              -0.000465354               0.999999985               0.000698654              -0.000468319               0.999999985               0.000695738              -0.000475180               0.999999985               0.000693035              -0.000481846               0.999999985               0.000688791              -0.000485584               0.999999985               0.000681701              -0.000484695               0.999999985               0.000671109              -0.000478148               0.999999985               0.000656771              -0.000466023               0.999999985               0.000638665              -0.000448321               0.999999985               0.000616917              -0.000425536               0.999999985               0.000591996              -0.000397623               0.999999985               0.000564410              -0.000364322               0.999999985               0.000534811              -0.000326624               0.999999985               0.000504036              -0.000285914               0.999999985               0.000729256              -0.000743981               0.999999985               0.000662349              -0.000615501               0.999999985               0.000629948              -0.000575926               0.999999985               0.000615075              -0.000569210               0.999999985               0.000608095              -0.000574955               0.999999985               0.000603347              -0.000584033               0.999999985               0.000597518              -0.000592102               0.999999985               0.000588558              -0.000596256               0.999999985               0.000575157              -0.000594654               0.999999985               0.000556722              -0.000586906               0.999999985               0.000533521              -0.000573492               0.999999985               0.000505720              -0.000554633               0.999999985               0.000473951              -0.000530890               0.999999985               0.000438878              -0.000502599               0.999999985               0.000401337              -0.000469929               0.999999985               0.000362014              -0.000434387               0.999999985               0.000321720              -0.000397382               0.999999985               0.000672615              -0.000850294               0.999999985               0.000579947              -0.000716084               0.999999985               0.000542787              -0.000678267               0.999999985               0.000528270              -0.000674284               0.999999985               0.000521449              -0.000682487               0.999999985               0.000515407              -0.000693444               0.999999985               0.000506324              -0.000702315               0.999999985               0.000491949              -0.000706341               0.999999985               0.000471263              -0.000703971               0.999999985               0.000444181              -0.000695146               0.999999985               0.000411136              -0.000680897               0.999999985               0.000372951              -0.000661441               0.999999985               0.000330503              -0.000637317               0.999999985               0.000284704              -0.000609223               0.999999985               0.000236551              -0.000577974               0.999999985               0.000186855              -0.000545179               0.999999985               0.000136491              -0.000512028               0.999999985               0.000611285              -0.000947680               0.999999985               0.000496236              -0.000815851               0.999999985               0.000459678              -0.000780155               0.999999985               0.000447433              -0.000778452               0.999999985               0.000441539              -0.000788819               0.999999985               0.000434269              -0.000801182               0.999999985               0.000421329              -0.000810374               0.999999985               0.000400636              -0.000813843               0.999999985               0.000371559              -0.000810703               0.999999985               0.000334667              -0.000801183               0.999999985               0.000290821              -0.000786141               0.999999985               0.000241331              -0.000766017               0.999999985               0.000187188              -0.000741825               0.999999985               0.000129571              -0.000714766               0.999999985               0.000069974              -0.000686053               0.999999985               0.000009666              -0.000657015               0.999999985              -0.000050779              -0.000628073               0.999999985               0.000547786              -0.001040094               0.999999985               0.000425911              -0.000927856               0.999999985               0.000386631              -0.000888500               0.999999985               0.000373836              -0.000882160               0.999999985               0.000368731              -0.000889843               0.999999985               0.000363568              -0.000902290               0.999999985               0.000354027              -0.000914177               0.999999985               0.000337679              -0.000922646               0.999999985               0.000313455              -0.000926419               0.999999985               0.000281622              -0.000925166               0.999999985               0.000242663              -0.000919076               0.999999985               0.000197467              -0.000908489               0.999999985               0.000146899              -0.000894043               0.999999985               0.000091537              -0.000876387               0.999999985               0.000032524              -0.000856897               0.999999985              -0.000028444              -0.000836584               0.999999985              -0.000089890              -0.000816397               0.999999985               0.000478614              -0.001124482               0.999999985               0.000358225              -0.001036483               0.999999985               0.000316526              -0.000999824               0.999999985               0.000302265              -0.000991135               0.999999985               0.000297101              -0.000997008               0.999999985               0.000293165              -0.001009709               0.999999985               0.000286266              -0.001024130               0.999999985               0.000273671              -0.001037203               0.999999985               0.000254086              -0.001047241               0.999999985               0.000227303              -0.001053620               0.999999985               0.000193481              -0.001056010               0.999999985               0.000153077              -0.001054446               0.999999985               0.000106629              -0.001049231               0.999999985               0.000054381              -0.001040834               0.999999985              -0.000003021              -0.001030070               0.999999985              -0.000064256              -0.001018056               0.999999985              -0.000127366              -0.001005805               0.999999985               0.000405294              -0.001198504               0.999999985               0.000293341              -0.001138289               0.999999985               0.000251110              -0.001108955               0.999999985               0.000235325              -0.001101120               0.999999985               0.000229360              -0.001106783               0.999999985               0.000225853              -0.001120176               0.999999985               0.000220747              -0.001137107               0.999999985               0.000211192              -0.001154570               0.999999985               0.000195726              -0.001170618               0.999999985               0.000173942              -0.001184322               0.999999985               0.000145568              -0.001194968               0.999999985               0.000110505              -0.001202267               0.999999985               0.000068998              -0.001206158               0.999999985               0.000020922              -0.001206872               0.999999985              -0.000033869              -0.001205027               0.999999985              -0.000094493              -0.001201449               0.999999985              -0.000159459              -0.001197077               0.999999985               0.000328479              -0.001260873               0.999999985               0.000231276              -0.001228938               0.999999985               0.000191271              -0.001210404               0.999999985               0.000174798              -0.001206371               0.999999985               0.000168001              -0.001213695               0.999999985               0.000164357              -0.001228592               0.999999985               0.000160270              -0.001248117               0.999999985               0.000153139              -0.001269715               0.999999985               0.000141337              -0.001291491               0.999999985               0.000124329              -0.001312168               0.999999985               0.000101509              -0.001330990               0.999999985               0.000072496              -0.001347167               0.999999985               0.000037069              -0.001360401               0.999999985              -0.000005357              -0.001370633               0.999999985              -0.000055442              -0.001378027               0.999999985              -0.000113316              -0.001383100               0.999999985              -0.000178457              -0.001386842               0.999999985               0.000248812              -0.001310618               0.999999985               0.000171545              -0.001304321               0.999999985               0.000137203              -0.001297980               0.999999985               0.000121753              -0.001299814               0.999999985               0.000114825              -0.001310277               0.999999985               0.000111094              -0.001327585               0.999999985               0.000107600              -0.001349819               0.999999985               0.000102380              -0.001375165               0.999999985               0.000093849              -0.001402055               0.999999985               0.000081267              -0.001429121               0.999999985               0.000064215              -0.001455400               0.999999985               0.000042022              -0.001480149               0.999999985               0.000013809              -0.001502673               0.999999985              -0.000020982              -0.001522626               0.999999985              -0.000063428              -0.001539905               0.999999985              -0.000114600              -0.001554484               0.999999985              -0.000175572              -0.001566971               0.999999985               0.000167087              -0.001346741               0.999999985               0.000113499              -0.001360830               0.999999985               0.000088208              -0.001365670               0.999999985               0.000076108              -0.001373751               0.999999985               0.000070304              -0.001387904               0.999999985               0.000067069              -0.001407960               0.999999985               0.000064361              -0.001432810               0.999999985               0.000060725              -0.001461340               0.999999985               0.000055089              -0.001492289               0.999999985               0.000046864              -0.001524528               0.999999985               0.000035540              -0.001557058               0.999999985               0.000020554              -0.001589095               0.999999985               0.000000892              -0.001619857               0.999999985              -0.000024049              -0.001648741               0.999999985              -0.000055273              -0.001675392               0.999999985              -0.000094285              -0.001699446               0.999999985              -0.000142834              -0.001720642               0.999999985               0.000083923              -0.001368696               0.999999985               0.000056486              -0.001395856               0.999999985               0.000043066              -0.001408378               0.999999985               0.000036398              -0.001421106               0.999999985               0.000033048              -0.001438271               0.999999985               0.000031190              -0.001460559               0.999999985               0.000029552              -0.001487456               0.999999985               0.000027679              -0.001518161               0.999999985               0.000024839              -0.001551750               0.999999985               0.000020910              -0.001587321               0.999999985               0.000015266              -0.001623964               0.999999985               0.000007564              -0.001660887               0.999999985              -0.000002462              -0.001697306               0.999999985              -0.000015527              -0.001732596               0.999999985              -0.000032229              -0.001766130               0.999999985              -0.000053417              -0.001797366               0.999999985              -0.000080518              -0.001825377               0.999999985              -0.000000000              -0.001376039               0.999999985              -0.000000000              -0.001407690               0.999999985              -0.000000000              -0.001422998               0.999999985              -0.000000000              -0.001437467               0.999999985              -0.000000000              -0.001455719               0.999999985               0.000000000              -0.001478871               0.999999985              -0.000000000              -0.001506501               0.999999985              -0.000000000              -0.001537907               0.999999985              -0.000000000              -0.001572412               0.999999985               0.000000000              -0.001609280               0.999999985              -0.000000000              -0.001647470               0.999999985               0.000000000              -0.001686094               0.999999985              -0.000000000              -0.001724472               0.999999985              -0.000000000              -0.001762032               0.999999985               0.000000000              -0.001798125               0.999999985               0.000000000              -0.001831814               0.999999985              -0.000000000              -0.001862180               0.999999985               0.000900381               0.000000000               0.999999985               0.000950619              -0.000000000               0.999999985               0.000972285              -0.000000000               0.999999985               0.000984840              -0.000000000               0.999999985               0.000995283               0.000000000               0.999999985               0.001005995               0.000000000               0.999999985               0.001017693               0.000000000               0.999999985               0.001030275               0.000000000               0.999999985               0.001043379              -0.000000000               0.999999985               0.001056546               0.000000000               0.999999985               0.001069464               0.000000000               0.999999985               0.001081741               0.000000000               0.999999985               0.001093105               0.000000000               0.999999985               0.001103243               0.000000000               0.999999985               0.001111697               0.000000000               0.999999985               0.001118000               0.000000000               0.999999985               0.001121244               0.000000000               0.999999985               0.000895329               0.000130885               0.999999985               0.000941321               0.000103925               0.999999985               0.000960277               0.000091738               0.999999985               0.000971054               0.000086691               0.999999985               0.000980217               0.000085207               0.999999985               0.000989849               0.000085471               0.999999985               0.001000461               0.000086189               0.999999985               0.001011923               0.000086593               0.999999985               0.001023797               0.000086097               0.999999985               0.001035668               0.000084360               0.999999985               0.001047033               0.000081066               0.999999985               0.001057449               0.000076287               0.999999985               0.001066730               0.000069644               0.999999985               0.001074597               0.000060730               0.999999985               0.001080687               0.000048718               0.999999985               0.001084505               0.000032682               0.999999985               0.001085416               0.000011161               0.999999985               0.000880311               0.000260601               0.999999985               0.000913885               0.000207447               0.999999985               0.000925129               0.000184384               0.999999985               0.000931036               0.000175450               0.999999985               0.000936729               0.000173320               0.999999985               0.000943516               0.000174262               0.999999985               0.000951445               0.000176018               0.999999985               0.000959977               0.000177049               0.999999985               0.000968542               0.000176338               0.999999985               0.000976697               0.000173047               0.999999985               0.000983851               0.000166889               0.999999985               0.000989608               0.000157697               0.999999985               0.000993642               0.000145145               0.999999985               0.000995662               0.000128404               0.999999985               0.000995472               0.000106536               0.999999985               0.000992797               0.000078114               0.999999985               0.000987588               0.000041586               0.999999985               0.000855662               0.000387911               0.999999985               0.000869673               0.000310301               0.999999985               0.000869715               0.000278733               0.999999985               0.000868971               0.000267812               0.999999985               0.000870189               0.000266269               0.999999985               0.000873378               0.000268746               0.999999985               0.000877712               0.000271915               0.999999985               0.000882235               0.000273878               0.999999985               0.000886293               0.000273114               0.999999985               0.000889177               0.000268782               0.999999985               0.000890292               0.000260165               0.999999985               0.000889227               0.000247331               0.999999985               0.000885755               0.000229995               0.999999985               0.000879740               0.000207391               0.999999985               0.000871177               0.000178617               0.999999985               0.000860210               0.000142777               0.999999985               0.000847078               0.000099253               0.999999985               0.000821831               0.000511621               0.999999985               0.000810917               0.000412493               0.999999985               0.000798545               0.000375413               0.999999985               0.000791230               0.000364490               0.999999985               0.000788281               0.000364842               0.999999985               0.000788002               0.000369398               0.999999985               0.000788631               0.000374302               0.999999985               0.000788895               0.000377212               0.999999985               0.000787627               0.000376539               0.999999985               0.000784088               0.000371215               0.999999985               0.000777773               0.000360612               0.999999985               0.000768576               0.000345008               0.999999985               0.000756359               0.000324263               0.999999985               0.000741156               0.000298004               0.999999985               0.000723200               0.000265721               0.999999985               0.000702888               0.000227413               0.999999985               0.000681028               0.000183556               0.999999985               0.000779366               0.000630690               0.999999985               0.000740591               0.000514224               0.999999985               0.000716827               0.000474637               0.999999985               0.000704444               0.000465354               0.999999985               0.000698654               0.000468319               0.999999985               0.000695738               0.000475180               0.999999985               0.000693035               0.000481846               0.999999985               0.000688791               0.000485584               0.999999985               0.000681701               0.000484695               0.999999985               0.000671109               0.000478148               0.999999985               0.000656771               0.000466023               0.999999985               0.000638665               0.000448321               0.999999985               0.000616917               0.000425536               0.999999985               0.000591996               0.000397623               0.999999985               0.000564410               0.000364322               0.999999985               0.000534811               0.000326624               0.999999985               0.000504036               0.000285914               0.999999985               0.000729256               0.000743981               0.999999985               0.000662349               0.000615501               0.999999985               0.000629948               0.000575926               0.999999985               0.000615075               0.000569210               0.999999985               0.000608095               0.000574955               0.999999985               0.000603347               0.000584033               0.999999985               0.000597518               0.000592102               0.999999985               0.000588558               0.000596256               0.999999985               0.000575157               0.000594654               0.999999985               0.000556722               0.000586906               0.999999985               0.000533521               0.000573492               0.999999985               0.000505720               0.000554633               0.999999985               0.000473951               0.000530890               0.999999985               0.000438878               0.000502599               0.999999985               0.000401337               0.000469929               0.999999985               0.000362014               0.000434387               0.999999985               0.000321720               0.000397382               0.999999985               0.000672615               0.000850294               0.999999985               0.000579947               0.000716084               0.999999985               0.000542787               0.000678267               0.999999985               0.000528270               0.000674284               0.999999985               0.000521449               0.000682487               0.999999985               0.000515407               0.000693444               0.999999985               0.000506324               0.000702315               0.999999985               0.000491949               0.000706341               0.999999985               0.000471263               0.000703971               0.999999985               0.000444181               0.000695146               0.999999985               0.000411136               0.000680897               0.999999985               0.000372951               0.000661441               0.999999985               0.000330503               0.000637317               0.999999985               0.000284704               0.000609223               0.999999985               0.000236551               0.000577974               0.999999985               0.000186855               0.000545179               0.999999985               0.000136491               0.000512028               0.999999985               0.000611285               0.000947680               0.999999985               0.000496236               0.000815851               0.999999985               0.000459678               0.000780155               0.999999985               0.000447433               0.000778452               0.999999985               0.000441539               0.000788819               0.999999985               0.000434269               0.000801182               0.999999985               0.000421329               0.000810374               0.999999985               0.000400636               0.000813843               0.999999985               0.000371559               0.000810703               0.999999985               0.000334667               0.000801183               0.999999985               0.000290821               0.000786141               0.999999985               0.000241331               0.000766017               0.999999985               0.000187188               0.000741825               0.999999985               0.000129571               0.000714766               0.999999985               0.000069974               0.000686053               0.999999985               0.000009666               0.000657015               0.999999985              -0.000050779               0.000628073               0.999999985               0.000547786               0.001040094               0.999999985               0.000425911               0.000927856               0.999999985               0.000386631               0.000888500               0.999999985               0.000373836               0.000882160               0.999999985               0.000368731               0.000889843               0.999999985               0.000363568               0.000902290               0.999999985               0.000354027               0.000914177               0.999999985               0.000337679               0.000922646               0.999999985               0.000313455               0.000926419               0.999999985               0.000281622               0.000925166               0.999999985               0.000242663               0.000919076               0.999999985               0.000197467               0.000908489               0.999999985               0.000146899               0.000894043               0.999999985               0.000091537               0.000876387               0.999999985               0.000032524               0.000856897               0.999999985              -0.000028444               0.000836584               0.999999985              -0.000089890               0.000816397               0.999999985               0.000478614               0.001124482               0.999999985               0.000358225               0.001036483               0.999999985               0.000316526               0.000999824               0.999999985               0.000302265               0.000991135               0.999999985               0.000297101               0.000997008               0.999999985               0.000293165               0.001009709               0.999999985               0.000286266               0.001024130               0.999999985               0.000273671               0.001037203               0.999999985               0.000254086               0.001047241               0.999999985               0.000227303               0.001053620               0.999999985               0.000193481               0.001056010               0.999999985               0.000153077               0.001054446               0.999999985               0.000106629               0.001049231               0.999999985               0.000054381               0.001040834               0.999999985              -0.000003021               0.001030070               0.999999985              -0.000064256               0.001018056               0.999999985              -0.000127366               0.001005805               0.999999985               0.000405294               0.001198504               0.999999985               0.000293341               0.001138289               0.999999985               0.000251110               0.001108955               0.999999985               0.000235325               0.001101120               0.999999985               0.000229360               0.001106783               0.999999985               0.000225853               0.001120176               0.999999985               0.000220747               0.001137107               0.999999985               0.000211192               0.001154570               0.999999985               0.000195726               0.001170618               0.999999985               0.000173942               0.001184322               0.999999985               0.000145568               0.001194968               0.999999985               0.000110505               0.001202267               0.999999985               0.000068998               0.001206158               0.999999985               0.000020922               0.001206872               0.999999985              -0.000033869               0.001205027               0.999999985              -0.000094493               0.001201449               0.999999985              -0.000159459               0.001197077               0.999999985               0.000328479               0.001260873               0.999999985               0.000231276               0.001228938               0.999999985               0.000191271               0.001210404               0.999999985               0.000174798               0.001206371               0.999999985               0.000168001               0.001213695               0.999999985               0.000164357               0.001228592               0.999999985               0.000160270               0.001248117               0.999999985               0.000153139               0.001269715               0.999999985               0.000141337               0.001291491               0.999999985               0.000124329               0.001312168               0.999999985               0.000101509               0.001330990               0.999999985               0.000072496               0.001347167               0.999999985               0.000037069               0.001360401               0.999999985              -0.000005357               0.001370633               0.999999985              -0.000055442               0.001378027               0.999999985              -0.000113316               0.001383100               0.999999985              -0.000178457               0.001386842               0.999999985               0.000248812               0.001310618               0.999999985               0.000171545               0.001304321               0.999999985               0.000137203               0.001297980               0.999999985               0.000121753               0.001299814               0.999999985               0.000114825               0.001310277               0.999999985               0.000111094               0.001327585               0.999999985               0.000107600               0.001349819               0.999999985               0.000102380               0.001375165               0.999999985               0.000093849               0.001402055               0.999999985               0.000081267               0.001429121               0.999999985               0.000064215               0.001455400               0.999999985               0.000042022               0.001480149               0.999999985               0.000013809               0.001502673               0.999999985              -0.000020982               0.001522626               0.999999985              -0.000063428               0.001539905               0.999999985              -0.000114600               0.001554484               0.999999985              -0.000175572               0.001566971               0.999999985               0.000167087               0.001346741               0.999999985               0.000113499               0.001360830               0.999999985               0.000088208               0.001365670               0.999999985               0.000076108               0.001373751               0.999999985               0.000070304               0.001387904               0.999999985               0.000067069               0.001407960               0.999999985               0.000064361               0.001432810               0.999999985               0.000060725               0.001461340               0.999999985               0.000055089               0.001492289               0.999999985               0.000046864               0.001524528               0.999999985               0.000035540               0.001557058               0.999999985               0.000020554               0.001589095               0.999999985               0.000000892               0.001619857               0.999999985              -0.000024049               0.001648741               0.999999985              -0.000055273               0.001675392               0.999999985              -0.000094285               0.001699446               0.999999985              -0.000142834               0.001720642               0.999999985               0.000083923               0.001368696               0.999999985               0.000056486               0.001395856               0.999999985               0.000043066               0.001408378               0.999999985               0.000036398               0.001421106               0.999999985               0.000033048               0.001438271               0.999999985               0.000031190               0.001460559               0.999999985               0.000029552               0.001487456               0.999999985               0.000027679               0.001518161               0.999999985               0.000024839               0.001551750               0.999999985               0.000020910               0.001587321               0.999999985               0.000015266               0.001623964               0.999999985               0.000007564               0.001660887               0.999999985              -0.000002462               0.001697306               0.999999985              -0.000015527               0.001732596               0.999999985              -0.000032229               0.001766130               0.999999985              -0.000053417               0.001797366               0.999999985              -0.000080518               0.001825377               0.999999985               0.000000000               0.001376039               0.999999985              -0.000000000               0.001407690               0.999999985               0.000000000               0.001422998               0.999999985               0.000000000               0.001437467               0.999999985              -0.000000000               0.001455719               0.999999985              -0.000000000               0.001478871               0.999999985               0.000000000               0.001506501               0.999999985              -0.000000000               0.001537907               0.999999985              -0.000000000               0.001572412               0.999999985              -0.000000000               0.001609280               0.999999985               0.000000000               0.001647470               0.999999985              -0.000000000               0.001686094               0.999999985               0.000000000               0.001724472               0.999999985               0.000000000               0.001762032               0.999999985               0.000000000               0.001798125               0.999999985               0.000000000               0.001831814               0.999999985              -0.000000000               0.001862180               0.999999985 </DataArray>
<DataArray type="Float64"                                    Name="defo"                                                      NumberOfComponents=" 3" format="ascii">
             -0.000900381               0.000000000               0.999999985              -0.000950619              -0.000000000               0.999999985              -0.000972285              -0.000000000               0.999999985              -0.000984840               0.000000000               0.999999985              -0.000995283               0.000000000               0.999999985              -0.001005995               0.000000000               0.999999985              -0.001017693               0.000000000               0.999999985              -0.001030275               0.000000000               0.999999985              -0.001043379               0.000000000               0.999999985              -0.001056546               0.000000000               0.999999985              -0.001069464               0.000000000               0.999999985              -0.001081741               0.000000000               0.999999985              -0.001093105               0.000000000               0.999999985              -0.001103243               0.000000000               0.999999985              -0.001111697               0.000000000               0.999999985              -0.001118000              -0.000000000               0.999999985              -0.001121244               0.000000000               0.999999985              -0.000895329               0.000130885               0.999999985              -0.000941321               0.000103925               0.999999985              -0.000960277               0.000091738               0.999999985              -0.000971054               0.000086691               0.999999985              -0.000980217               0.000085207               0.999999985              -0.000989849               0.000085471               0.999999985              -0.001000461               0.000086189               0.999999985              -0.001011923               0.000086593               0.999999985              -0.001023797               0.000086097               0.999999985              -0.001035668               0.000084360               0.999999985              -0.001047033               0.000081066               0.999999985              -0.001057449               0.000076287               0.999999985              -0.001066730               0.000069644               0.999999985              -0.001074597               0.000060730               0.999999985              -0.001080687               0.000048718               0.999999985              -0.001084505               0.000032682               0.999999985              -0.001085416               0.000011161               0.999999985              -0.000880311               0.000260601               0.999999985              -0.000913885               0.000207447               0.999999985              -0.000925129               0.000184384               0.999999985              -0.000931036               0.000175450               0.999999985              -0.000936729               0.000173320               0.999999985              -0.000943516               0.000174262               0.999999985              -0.000951445               0.000176018               0.999999985              -0.000959977               0.000177049               0.999999985              -0.000968542               0.000176338               0.999999985              -0.000976697               0.000173047               0.999999985              -0.000983851               0.000166889               0.999999985              -0.000989608               0.000157697               0.999999985              -0.000993642               0.000145145               0.999999985              -0.000995662               0.000128404               0.999999985              -0.000995472               0.000106536               0.999999985              -0.000992797               0.000078114               0.999999985              -0.000987588               0.000041586               0.999999985              -0.000855662               0.000387911               0.999999985              -0.000869673               0.000310301               0.999999985              -0.000869715               0.000278733               0.999999985              -0.000868971               0.000267812               0.999999985              -0.000870189               0.000266269               0.999999985              -0.000873378               0.000268746               0.999999985              -0.000877712               0.000271915               0.999999985              -0.000882235               0.000273878               0.999999985              -0.000886293               0.000273114               0.999999985              -0.000889177               0.000268782               0.999999985              -0.000890292               0.000260165               0.999999985              -0.000889227               0.000247331               0.999999985              -0.000885755               0.000229995               0.999999985              -0.000879740               0.000207391               0.999999985              -0.000871177               0.000178617               0.999999985              -0.000860210               0.000142777               0.999999985              -0.000847078               0.000099253               0.999999985              -0.000821831               0.000511621               0.999999985              -0.000810917               0.000412493               0.999999985              -0.000798545               0.000375413               0.999999985              -0.000791230               0.000364490               0.999999985              -0.000788281               0.000364842               0.999999985              -0.000788002               0.000369398               0.999999985              -0.000788631               0.000374302               0.999999985              -0.000788895               0.000377212               0.999999985              -0.000787627               0.000376539               0.999999985              -0.000784088               0.000371215               0.999999985              -0.000777773               0.000360612               0.999999985              -0.000768576               0.000345008               0.999999985              -0.000756359               0.000324263               0.999999985              -0.000741156               0.000298004               0.999999985              -0.000723200               0.000265721               0.999999985              -0.000702888               0.000227413               0.999999985              -0.000681028               0.000183556               0.999999985              -0.000779366               0.000630690               0.999999985              -0.000740591               0.000514224               0.999999985              -0.000716827               0.000474637               0.999999985              -0.000704444               0.000465354               0.999999985              -0.000698654               0.000468319               0.999999985              -0.000695738               0.000475180               0.999999985              -0.000693035               0.000481846               0.999999985              -0.000688791               0.000485584               0.999999985              -0.000681701               0.000484695               0.999999985              -0.000671109               0.000478148               0.999999985              -0.000656771               0.000466023               0.999999985              -0.000638665               0.000448321               0.999999985              -0.000616917               0.000425536               0.999999985              -0.000591996               0.000397623               0.999999985              -0.000564410               0.000364322               0.999999985              -0.000534811               0.000326624               0.999999985              -0.000504036               0.000285914               0.999999985              -0.000729256               0.000743981               0.999999985              -0.000662349               0.000615501               0.999999985              -0.000629948               0.000575926               0.999999985              -0.000615075               0.000569210               0.999999985              -0.000608095               0.000574955               0.999999985              -0.000603347               0.000584033               0.999999985              -0.000597518               0.000592102               0.999999985              -0.000588558               0.000596256               0.999999985              -0.000575157               0.000594654               0.999999985              -0.000556722               0.000586906               0.999999985              -0.000533521               0.000573492               0.999999985              -0.000505720               0.000554633               0.999999985              -0.000473951               0.000530890               0.999999985              -0.000438878               0.000502599               0.999999985              -0.000401337               0.000469929               0.999999985              -0.000362014               0.000434387               0.999999985              -0.000321720               0.000397382               0.999999985              -0.000672615               0.000850294               0.999999985              -0.000579947               0.000716084               0.999999985              -0.000542787               0.000678267               0.999999985              -0.000528270               0.000674284               0.999999985              -0.000521449               0.000682487               0.999999985              -0.000515407               0.000693444               0.999999985              -0.000506324               0.000702315               0.999999985              -0.000491949               0.000706341               0.999999985              -0.000471263               0.000703971               0.999999985              -0.000444181               0.000695146               0.999999985              -0.000411136               0.000680897               0.999999985              -0.000372951               0.000661441               0.999999985              -0.000330503               0.000637317               0.999999985              -0.000284704               0.000609223               0.999999985              -0.000236551               0.000577974               0.999999985              -0.000186855               0.000545179               0.999999985              -0.000136491               0.000512028               0.999999985              -0.000611285               0.000947680               0.999999985              -0.000496236               0.000815851               0.999999985              -0.000459678               0.000780155               0.999999985              -0.000447433               0.000778452               0.999999985              -0.000441539               0.000788819               0.999999985              -0.000434269               0.000801182               0.999999985              -0.000421329               0.000810374               0.999999985              -0.000400636               0.000813843               0.999999985              -0.000371559               0.000810703               0.999999985              -0.000334667               0.000801183               0.999999985              -0.000290821               0.000786141               0.999999985              -0.000241331               0.000766017               0.999999985              -0.000187188               0.000741825               0.999999985              -0.000129571               0.000714766               0.999999985              -0.000069974               0.000686053               0.999999985              -0.000009666               0.000657015               0.999999985               0.000050779               0.000628073               0.999999985              -0.000547786               0.001040094               0.999999985              -0.000425911               0.000927856               0.999999985              -0.000386631               0.000888500               0.999999985              -0.000373836               0.000882160               0.999999985              -0.000368731               0.000889843               0.999999985              -0.000363568               0.000902290               0.999999985              -0.000354027               0.000914177               0.999999985              -0.000337679               0.000922646               0.999999985              -0.000313455               0.000926419               0.999999985              -0.000281622               0.000925166               0.999999985              -0.000242663               0.000919076               0.999999985              -0.000197467               0.000908489               0.999999985              -0.000146899               0.000894043               0.999999985              -0.000091537               0.000876387               0.999999985              -0.000032524               0.000856897               0.999999985               0.000028444               0.000836584               0.999999985               0.000089890               0.000816397               0.999999985              -0.000478614               0.001124482               0.999999985              -0.000358225               0.001036483               0.999999985              -0.000316526               0.000999824               0.999999985              -0.000302265               0.000991135               0.999999985              -0.000297101               0.000997008               0.999999985              -0.000293165               0.001009709               0.999999985              -0.000286266               0.001024130               0.999999985              -0.000273671               0.001037203               0.999999985              -0.000254086               0.001047241               0.999999985              -0.000227303               0.001053620               0.999999985              -0.000193481               0.001056010               0.999999985              -0.000153077               0.001054446               0.999999985              -0.000106629               0.001049231               0.999999985              -0.000054381               0.001040834               0.999999985               0.000003021               0.001030070               0.999999985               0.000064256               0.001018056               0.999999985               0.000127366               0.001005805               0.999999985              -0.000405294               0.001198504               0.999999985              -0.000293341               0.001138289               0.999999985              -0.000251110               0.001108955               0.999999985              -0.000235325               0.001101120               0.999999985              -0.000229360               0.001106783               0.999999985              -0.000225853               0.001120176               0.999999985              -0.000220747               0.001137107               0.999999985              -0.000211192               0.001154570               0.999999985              -0.000195726               0.001170618               0.999999985              -0.000173942               0.001184322               0.999999985              -0.000145568               0.001194968               0.999999985              -0.000110505               0.001202267               0.999999985              -0.000068998               0.001206158               0.999999985              -0.000020922               0.001206872               0.999999985               0.000033869               0.001205027               0.999999985               0.000094493               0.001201449               0.999999985               0.000159459               0.001197077               0.999999985              -0.000328479               0.001260873               0.999999985              -0.000231276               0.001228938               0.999999985              -0.000191271               0.001210404               0.999999985              -0.000174798               0.001206371               0.999999985              -0.000168001               0.001213695               0.999999985              -0.000164357               0.001228592               0.999999985              -0.000160270               0.001248117               0.999999985              -0.000153139               0.001269715               0.999999985              -0.000141337               0.001291491               0.999999985              -0.000124329               0.001312168               0.999999985              -0.000101509               0.001330990               0.999999985              -0.000072496               0.001347167               0.999999985              -0.000037069               0.001360401               0.999999985               0.000005357               0.001370633               0.999999985               0.000055442               0.001378027               0.999999985               0.000113316               0.001383100               0.999999985               0.000178457               0.001386842               0.999999985              -0.000248812               0.001310618               0.999999985              -0.000171545               0.001304321               0.999999985              -0.000137203               0.001297980               0.999999985              -0.000121753               0.001299814               0.999999985              -0.000114825               0.001310277               0.999999985              -0.000111094               0.001327585               0.999999985              -0.000107600               0.001349819               0.999999985              -0.000102380               0.001375165               0.999999985              -0.000093849               0.001402055               0.999999985              -0.000081267               0.001429121               0.999999985              -0.000064215               0.001455400               0.999999985              -0.000042022               0.001480149               0.999999985              -0.000013809               0.001502673               0.999999985               0.000020982               0.001522626               0.999999985               0.000063428               0.001539905               0.999999985               0.000114600               0.001554484               0.999999985               0.000175572               0.001566971               0.999999985              -0.000167087               0.001346741               0.999999985              -0.000113499               0.001360830               0.999999985              -0.000088208               0.001365670               0.999999985              -0.000076108               0.001373751               0.999999985              -0.000070304               0.001387904               0.999999985              -0.000067069               0.001407960               0.999999985              -0.000064361               0.001432810               0.999999985              -0.000060725               0.001461340               0.999999985              -0.000055089               0.001492289               0.999999985              -0.000046864               0.001524528               0.999999985              -0.000035540               0.001557058               0.999999985              -0.000020554               0.001589095               0.999999985              -0.000000892               0.001619857               0.999999985               0.000024049               0.001648741               0.999999985               0.000055273               0.001675392               0.999999985               0.000094285               0.001699446               0.999999985               0.000142834               0.001720642               0.999999985              -0.000083923               0.001368696               0.999999985              -0.000056486               0.001395856               0.999999985              -0.000043066               0.001408378               0.999999985              -0.000036398               0.001421106               0.999999985              -0.000033048               0.001438271               0.999999985              -0.000031190               0.001460559               0.999999985              -0.000029552               0.001487456               0.999999985              -0.000027679               0.001518161               0.999999985              -0.000024839               0.001551750               0.999999985              -0.000020910               0.001587321               0.999999985              -0.000015266               0.001623964               0.999999985              -0.000007564               0.001660887               0.999999985               0.000002462               0.001697306               0.999999985               0.000015527               0.001732596               0.999999985               0.000032229               0.001766130               0.999999985               0.000053417               0.001797366               0.999999985               0.000080518               0.001825377               0.999999985               0.000000000               0.001376039               0.999999985              -0.000000000               0.001407690               0.999999985               0.000000000               0.001422998               0.999999985               0.000000000               0.001437467               0.999999985              -0.000000000               0.001455719               0.999999985              -0.000000000               0.001478871               0.999999985               0.000000000               0.001506501               0.999999985              -0.000000000               0.001537907               0.999999985              -0.000000000               0.001572412               0.999999985              -0.000000000               0.001609280               0.999999985               0.000000000               0.001647470               0.999999985              -0.000000000               0.001686094               0.999999985               0.000000000               0.001724472               0.999999985               0.000000000               0.001762032               0.999999985               0.000000000               0.001798125               0.999999985               0.000000000               0.001831814               0.999999985              -0.000000000               0.001862180               0.999999985              -0.000900381               0.000000000               0.999999985              -0.000950619              -0.000000000               0.999999985              -0.000972285              -0.000000000               0.999999985              -0.000984840               0.000000000               0.999999985              -0.000995283               0.000000000               0.999999985              -0.001005995               0.000000000               0.999999985              -0.001017693               0.000000000               0.999999985              -0.001030275               0.000000000               0.999999985              -0.001043379               0.000000000               0.999999985              -0.001056546               0.000000000               0.999999985              -0.001069464               0.000000000               0.999999985              -0.001081741               0.000000000               0.999999985              -0.001093105               0.000000000               0.999999985              -0.001103243               0.000000000               0.999999985              -0.001111697               0.000000000               0.999999985              -0.001118000              -0.000000000               0.999999985              -0.001121244               0.000000000               0.999999985              -0.000895329              -0.000130885               0.999999985              -0.000941321              -0.000103925               0.999999985              -0.000960277              -0.000091738               0.999999985              -0.000971054              -0.000086691               0.999999985              -0.000980217              -0.000085207               0.999999985              -0.000989849              -0.000085471               0.999999985              -0.001000461              -0.000086189               0.999999985              -0.001011923              -0.000086593               0.999999985              -0.001023797              -0.000086097               0.999999985              -0.001035668              -0.000084360               0.999999985              -0.001047033              -0.000081066               0.999999985              -0.001057449              -0.000076287               0.999999985              -0.001066730              -0.000069644               0.999999985              -0.001074597              -0.000060730               0.999999985              -0.001080687              -0.000048718               0.999999985              -0.001084505              -0.000032682               0.999999985              -0.001085416              -0.000011161               0.999999985              -0.000880311              -0.000260601               0.999999985              -0.000913885              -0.000207447               0.999999985              -0.000925129              -0.000184384               0.999999985              -0.000931036              -0.000175450               0.999999985              -0.000936729              -0.000173320               0.999999985              -0.000943516              -0.000174262               0.999999985              -0.000951445              -0.000176018               0.999999985              -0.000959977              -0.000177049               0.999999985              -0.000968542              -0.000176338               0.999999985              -0.000976697              -0.000173047               0.999999985              -0.000983851              -0.000166889               0.999999985              -0.000989608              -0.000157697               0.999999985              -0.000993642              -0.000145145               0.999999985              -0.000995662              -0.000128404               0.999999985              -0.000995472              -0.000106536               0.999999985              -0.000992797              -0.000078114               0.999999985              -0.000987588              -0.000041586               0.999999985              -0.000855662              -0.000387911               0.999999985              -0.000869673              -0.000310301               0.999999985              -0.000869715              -0.000278733               0.999999985              -0.000868971              -0.000267812               0.999999985              -0.000870189              -0.000266269               0.999999985              -0.000873378              -0.000268746               0.999999985              -0.000877712              -0.000271915               0.999999985              -0.000882235              -0.000273878               0.999999985              -0.000886293              -0.000273114               0.999999985              -0.000889177              -0.000268782               0.999999985              -0.000890292              -0.000260165               0.999999985              -0.000889227              -0.000247331               0.999999985              -0.000885755              -0.000229995               0.999999985              -0.000879740              -0.000207391               0.999999985              -0.000871177              -0.000178617               0.999999985              -0.000860210              -0.000142777               0.999999985              -0.000847078              -0.000099253               0.999999985              -0.000821831              -0.000511621               0.999999985              -0.000810917              -0.000412493               0.999999985              -0.000798545              -0.000375413               0.999999985              -0.000791230              -0.000364490               0.999999985              -0.000788281              -0.000364842               0.999999985              -0.000788002              -0.000369398               0.999999985              -0.000788631              -0.000374302               0.999999985              -0.000788895              -0.000377212               0.999999985              -0.000787627              -0.000376539               0.999999985              -0.000784088              -0.000371215               0.999999985              -0.000777773              -0.000360612               0.999999985              -0.000768576              -0.000345008               0.999999985              -0.000756359              -0.000324263               0.999999985              -0.000741156              -0.000298004               0.999999985              -0.000723200              -0.000265721               0.999999985              -0.000702888              -0.000227413               0.999999985              -0.000681028              -0.000183556               0.999999985              -0.000779366              -0.000630690               0.999999985              -0.000740591              -0.000514224               0.999999985              -0.000716827              -0.000474637               0.999999985              -0.000704444              -0.000465354               0.999999985              -0.000698654              -0.000468319               0.999999985              -0.000695738              -0.000475180               0.999999985              -0.000693035              -0.000481846               0.999999985              -0.000688791              -0.000485584               0.999999985              -0.000681701              -0.000484695               0.999999985              -0.000671109              -0.000478148               0.999999985              -0.000656771              -0.000466023               0.999999985              -0.000638665              -0.000448321               0.999999985              -0.000616917              -0.000425536               0.999999985              -0.000591996              -0.000397623               0.999999985              -0.000564410              -0.000364322               0.999999985              -0.000534811              -0.000326624               0.999999985              -0.000504036              -0.000285914               0.999999985              -0.000729256              -0.000743981               0.999999985              -0.000662349              -0.000615501               0.999999985              -0.000629948              -0.000575926               0.999999985              -0.000615075              -0.000569210               0.999999985              -0.000608095              -0.000574955               0.999999985              -0.000603347              -0.000584033               0.999999985              -0.000597518              -0.000592102               0.999999985              -0.000588558              -0.000596256               0.999999985              -0.000575157              -0.000594654               0.999999985              -0.000556722              -0.000586906               0.999999985              -0.000533521              -0.000573492               0.999999985              -0.000505720              -0.000554633               0.999999985              -0.000473951              -0.000530890               0.999999985              -0.000438878              -0.000502599               0.999999985              -0.000401337              -0.000469929               0.999999985              -0.000362014              -0.000434387               0.999999985              -0.000321720              -0.000397382               0.999999985              -0.000672615              -0.000850294               0.999999985              -0.000579947              -0.000716084               0.999999985              -0.000542787              -0.000678267               0.999999985              -0.000528270              -0.000674284               0.999999985              -0.000521449              -0.000682487               0.999999985              -0.000515407              -0.000693444               0.999999985              -0.000506324              -0.000702315               0.999999985              -0.000491949              -0.000706341               0.999999985              -0.000471263              -0.000703971               0.999999985              -0.000444181              -0.000695146               0.999999985              -0.000411136              -0.000680897               0.999999985              -0.000372951              -0.000661441               0.999999985              -0.000330503              -0.000637317               0.999999985              -0.000284704              -0.000609223               0.999999985              -0.000236551              -0.000577974               0.999999985              -0.000186855              -0.000545179               0.999999985              -0.000136491              -0.000512028               0.999999985              -0.000611285              -0.000947680               0.999999985              -0.000496236              -0.000815851               0.999999985              -0.000459678              -0.000780155               0.999999985              -0.000447433              -0.000778452               0.999999985              -0.000441539              -0.000788819               0.999999985              -0.000434269              -0.000801182               0.999999985              -0.000421329              -0.000810374               0.999999985              -0.000400636              -0.000813843               0.999999985              -0.000371559              -0.000810703               0.999999985              -0.000334667              -0.000801183               0.999999985              -0.000290821              -0.000786141               0.999999985              -0.000241331              -0.000766017               0.999999985              -0.000187188              -0.000741825               0.999999985              -0.000129571              -0.000714766               0.999999985              -0.000069974              -0.000686053               0.999999985              -0.000009666              -0.000657015               0.999999985               0.000050779              -0.000628073               0.999999985              -0.000547786              -0.001040094               0.999999985              -0.000425911              -0.000927856               0.999999985              -0.000386631              -0.000888500               0.999999985              -0.000373836              -0.000882160               0.999999985              -0.000368731              -0.000889843               0.999999985              -0.000363568              -0.000902290               0.999999985              -0.000354027              -0.000914177               0.999999985              -0.000337679              -0.000922646               0.999999985              -0.000313455              -0.000926419               0.999999985              -0.000281622              -0.000925166               0.999999985              -0.000242663              -0.000919076               0.999999985              -0.000197467              -0.000908489               0.999999985              -0.000146899              -0.000894043               0.999999985              -0.000091537              -0.000876387               0.999999985              -0.000032524              -0.000856897               0.999999985               0.000028444              -0.000836584               0.999999985               0.000089890              -0.000816397               0.999999985              -0.000478614              -0.001124482               0.999999985              -0.000358225              -0.001036483               0.999999985              -0.000316526              -0.000999824               0.999999985              -0.000302265              -0.000991135               0.999999985              -0.000297101              -0.000997008               0.999999985              -0.000293165              -0.001009709               0.999999985              -0.000286266              -0.001024130               0.999999985              -0.000273671              -0.001037203               0.999999985              -0.000254086              -0.001047241               0.999999985              -0.000227303              -0.001053620               0.999999985              -0.000193481              -0.001056010               0.999999985              -0.000153077              -0.001054446               0.999999985              -0.000106629              -0.001049231               0.999999985              -0.000054381              -0.001040834               0.999999985               0.000003021              -0.001030070               0.999999985               0.000064256              -0.001018056               0.999999985               0.000127366              -0.001005805               0.999999985              -0.000405294              -0.001198504               0.999999985              -0.000293341              -0.001138289               0.999999985              -0.000251110              -0.001108955               0.999999985              -0.000235325              -0.001101120               0.999999985              -0.000229360              -0.001106783               0.999999985              -0.000225853              -0.001120176               0.999999985              -0.000220747              -0.001137107               0.999999985              -0.000211192              -0.001154570               0.999999985              -0.000195726              -0.001170618               0.999999985              -0.000173942              -0.001184322               0.999999985              -0.000145568              -0.001194968               0.999999985              -0.000110505              -0.001202267               0.999999985              -0.000068998              -0.001206158               0.999999985              -0.000020922              -0.001206872               0.999999985               0.000033869              -0.001205027               0.999999985               0.000094493              -0.001201449               0.999999985               0.000159459              -0.001197077               0.999999985              -0.000328479              -0.001260873               0.999999985              -0.000231276              -0.001228938               0.999999985              -0.000191271              -0.001210404               0.999999985              -0.000174798              -0.001206371               0.999999985              -0.000168001              -0.001213695               0.999999985              -0.000164357              -0.001228592               0.999999985              -0.000160270              -0.001248117               0.999999985              -0.000153139              -0.001269715               0.999999985              -0.000141337              -0.001291491               0.999999985              -0.000124329              -0.001312168               0.999999985              -0.000101509              -0.001330990               0.999999985              -0.000072496              -0.001347167               0.999999985              -0.000037069              -0.001360401               0.999999985               0.000005357              -0.001370633               0.999999985               0.000055442              -0.001378027               0.999999985               0.000113316              -0.001383100               0.999999985               0.000178457              -0.001386842               0.999999985              -0.000248812              -0.001310618               0.999999985              -0.000171545              -0.001304321               0.999999985              -0.000137203              -0.001297980               0.999999985              -0.000121753              -0.001299814               0.999999985              -0.000114825              -0.001310277               0.999999985              -0.000111094              -0.001327585               0.999999985              -0.000107600              -0.001349819               0.999999985              -0.000102380              -0.001375165               0.999999985              -0.000093849              -0.001402055               0.999999985              -0.000081267              -0.001429121               0.999999985              -0.000064215              -0.001455400               0.999999985              -0.000042022              -0.001480149               0.999999985              -0.000013809              -0.001502673               0.999999985               0.000020982              -0.001522626               0.999999985               0.000063428              -0.001539905               0.999999985               0.000114600              -0.001554484               0.999999985               0.000175572              -0.001566971               0.999999985              -0.000167087              -0.001346741               0.999999985              -0.000113499              -0.001360830               0.999999985              -0.000088208              -0.001365670               0.999999985              -0.000076108              -0.001373751               0.999999985              -0.000070304              -0.001387904               0.999999985              -0.000067069              -0.001407960               0.999999985              -0.000064361              -0.001432810               0.999999985              -0.000060725              -0.001461340               0.999999985              -0.000055089              -0.001492289               0.999999985              -0.000046864              -0.001524528               0.999999985              -0.000035540              -0.001557058               0.999999985              -0.000020554              -0.001589095               0.999999985              -0.000000892              -0.001619857               0.999999985               0.000024049              -0.001648741               0.999999985               0.000055273              -0.001675392               0.999999985               0.000094285              -0.001699446               0.999999985               0.000142834              -0.001720642               0.999999985              -0.000083923              -0.001368696               0.999999985              -0.000056486              -0.001395856               0.999999985              -0.000043066              -0.001408378               0.999999985              -0.000036398              -0.001421106               0.999999985              -0.000033048              -0.001438271               0.999999985              -0.000031190              -0.001460559               0.999999985              -0.000029552              -0.001487456               0.999999985              -0.000027679              -0.001518161               0.999999985              -0.000024839              -0.001551750               0.999999985              -0.000020910              -0.001587321               0.999999985              -0.000015266              -0.001623964               0.999999985              -0.000007564              -0.001660887               0.999999985               0.000002462              -0.001697306               0.999999985               0.000015527              -0.001732596               0.999999985               0.000032229              -0.001766130               0.999999985               0.000053417              -0.001797366               0.999999985               0.000080518              -0.001825377               0.999999985              -0.000000000              -0.001376039               0.999999985              -0.000000000              -0.001407690               0.999999985              -0.000000000              -0.001422998               0.999999985              -0.000000000              -0.001437467               0.999999985              -0.000000000              -0.001455719               0.999999985               0.000000000              -0.001478871               0.999999985              -0.000000000              -0.001506501               0.999999985              -0.000000000              -0.001537907               0.999999985              -0.000000000              -0.001572412               0.999999985               0.000000000              -0.001609280               0.999999985              -0.000000000              -0.001647470               0.999999985               0.000000000              -0.001686094               0.999999985              -0.000000000              -0.001724472               0.999999985              -0.000000000              -0.001762032               0.999999985               0.000000000              -0.001798125               0.999999985               0.000000000              -0.001831814               0.999999985              -0.000000000              -0.001862180               0.999999985               0.000900381               0.000000000               0.999999985               0.000950619              -0.000000000               0.999999985               0.000972285              -0.000000000               0.999999985               0.000984840              -0.000000000               0.999999985               0.000995283               0.000000000               0.999999985               0.001005995               0.000000000               0.999999985               0.001017693               0.000000000               0.999999985               0.001030275               0.000000000               0.999999985               0.001043379              -0.000000000               0.999999985               0.001056546               0.000000000               0.999999985               0.001069464               0.000000000               0.999999985               0.001081741               0.000000000               0.999999985               0.001093105               0.000000000               0.999999985               0.001103243               0.000000000               0.999999985               0.001111697               0.000000000               0.999999985               0.001118000               0.000000000               0.999999985               0.001121244               0.000000000               0.999999985               0.000895329              -0.000130885               0.999999985               0.000941321              -0.000103925               0.999999985               0.000960277              -0.000091738               0.999999985               0.000971054              -0.000086691               0.999999985               0.000980217              -0.000085207               0.999999985               0.000989849              -0.000085471               0.999999985               0.001000461              -0.000086189               0.999999985               0.001011923              -0.000086593               0.999999985               0.001023797              -0.000086097               0.999999985               0.001035668              -0.000084360               0.999999985               0.001047033              -0.000081066               0.999999985               0.001057449              -0.000076287               0.999999985               0.001066730              -0.000069644               0.999999985               0.001074597              -0.000060730               0.999999985               0.001080687              -0.000048718               0.999999985               0.001084505              -0.000032682               0.999999985               0.001085416              -0.000011161               0.999999985               0.000880311              -0.000260601               0.999999985               0.000913885              -0.000207447               0.999999985               0.000925129              -0.000184384               0.999999985               0.000931036              -0.000175450               0.999999985               0.000936729              -0.000173320               0.999999985               0.000943516              -0.000174262               0.999999985               0.000951445              -0.000176018               0.999999985               0.000959977              -0.000177049               0.999999985               0.000968542              -0.000176338               0.999999985               0.000976697              -0.000173047               0.999999985               0.000983851              -0.000166889               0.999999985               0.000989608              -0.000157697               0.999999985               0.000993642              -0.000145145               0.999999985               0.000995662              -0.000128404               0.999999985               0.000995472              -0.000106536               0.999999985               0.000992797              -0.000078114               0.999999985               0.000987588              -0.000041586               0.999999985               0.000855662              -0.000387911               0.999999985               0.000869673              -0.000310301               0.999999985               0.000869715              -0.000278733               0.999999985               0.000868971              -0.000267812               0.999999985               0.000870189              -0.000266269               0.999999985               0.000873378              -0.000268746               0.999999985               0.000877712              -0.000271915               0.999999985               0.000882235              -0.000273878               0.999999985               0.000886293              -0.000273114               0.999999985               0.000889177              -0.000268782               0.999999985               0.000890292              -0.000260165               0.999999985               0.000889227              -0.000247331               0.999999985               0.000885755              -0.000229995               0.999999985               0.000879740              -0.000207391               0.999999985               0.000871177              -0.000178617               0.999999985               0.000860210              -0.000142777               0.999999985               0.000847078              -0.000099253               0.999999985               0.000821831              -0.000511621               0.999999985               0.000810917              -0.000412493               0.999999985               0.000798545              -0.000375413               0.999999985               0.000791230              -0.000364490               0.999999985               0.000788281              -0.000364842               0.999999985               0.000788002              -0.000369398               0.999999985               0.000788631              -0.000374302               0.999999985               0.000788895              -0.000377212               0.999999985               0.000787627              -0.000376539               0.999999985               0.000784088              -0.000371215               0.999999985               0.000777773              -0.000360612               0.999999985               0.000768576              -0.000345008               0.999999985               0.000756359              -0.000324263               0.999999985               0.000741156              -0.000298004               0.999999985               0.000723200              -0.000265721               0.999999985               0.000702888              -0.000227413               0.999999985               0.000681028              -0.000183556               0.999999985               0.000779366              -0.000630690               0.999999985               0.000740591              -0.000514224               0.999999985               0.000716827              -0.000474637               0.999999985               0.000704444              -0.000465354               0.999999985               0.000698654              -0.000468319               0.999999985               0.000695738              -0.000475180               0.999999985               0.000693035              -0.000481846               0.999999985               0.000688791              -0.000485584               0.999999985               0.000681701              -0.000484695               0.999999985               0.000671109              -0.000478148               0.999999985               0.000656771              -0.000466023               0.999999985               0.000638665              -0.000448321               0.999999985               0.000616917              -0.000425536               0.999999985               0.000591996              -0.000397623               0.999999985               0.000564410              -0.000364322               0.999999985               0.000534811              -0.000326624               0.999999985               0.000504036              -0.000285914               0.999999985               0.000729256              -0.000743981               0.999999985               0.000662349              -0.000615501               0.999999985               0.000629948              -0.000575926               0.999999985               0.000615075              -0.000569210               0.999999985               0.000608095              -0.000574955               0.999999985               0.000603347              -0.000584033               0.999999985               0.000597518              -0.000592102               0.999999985               0.000588558              -0.000596256               0.999999985               0.000575157              -0.000594654               0.999999985               0.000556722              -0.000586906               0.999999985               0.000533521              -0.000573492               0.999999985               0.000505720              -0.000554633               0.999999985               0.000473951              -0.000530890               0.999999985               0.000438878              -0.000502599               0.999999985               0.000401337              -0.000469929               0.999999985               0.000362014              -0.000434387               0.999999985               0.000321720              -0.000397382               0.999999985               0.000672615              -0.000850294               0.999999985               0.000579947              -0.000716084               0.999999985               0.000542787              -0.000678267               0.999999985               0.000528270              -0.000674284               0.999999985               0.000521449              -0.000682487               0.999999985               0.000515407              -0.000693444               0.999999985               0.000506324              -0.000702315               0.999999985               0.000491949              -0.000706341               0.999999985               0.000471263              -0.000703971               0.999999985               0.000444181              -0.000695146               0.999999985               0.000411136              -0.000680897               0.999999985               0.000372951              -0.000661441               0.999999985               0.000330503              -0.000637317               0.999999985               0.000284704              -0.000609223               0.999999985               0.000236551              -0.000577974               0.999999985               0.000186855              -0.000545179               0.999999985               0.000136491              -0.000512028               0.999999985               0.000611285              -0.000947680               0.999999985               0.000496236              -0.000815851               0.999999985               0.000459678              -0.000780155               0.999999985               0.000447433              -0.000778452               0.999999985               0.000441539              -0.000788819               0.999999985               0.000434269              -0.000801182               0.999999985               0.000421329              -0.000810374               0.999999985               0.000400636              -0.000813843               0.999999985               0.000371559              -0.000810703               0.999999985               0.000334667              -0.000801183               0.999999985               0.000290821              -0.000786141               0.999999985               0.000241331              -0.000766017               0.999999985               0.000187188              -0.000741825               0.999999985               0.000129571              -0.000714766               0.999999985               0.000069974              -0.000686053               0.999999985               0.000009666              -0.000657015               0.999999985              -0.000050779              -0.000628073               0.999999985               0.000547786              -0.001040094               0.999999985               0.000425911              -0.000927856               0.999999985               0.000386631              -0.000888500               0.999999985               0.000373836              -0.000882160               0.999999985               0.000368731              -0.000889843               0.999999985               0.000363568              -0.000902290               0.999999985               0.000354027              -0.000914177               0.999999985               0.000337679              -0.000922646               0.999999985               0.000313455              -0.000926419               0.999999985               0.000281622              -0.000925166               0.999999985               0.000242663              -0.000919076               0.999999985               0.000197467              -0.000908489               0.999999985               0.000146899              -0.000894043               0.999999985               0.000091537              -0.000876387               0.999999985               0.000032524              -0.000856897               0.999999985              -0.000028444              -0.000836584               0.999999985              -0.000089890              -0.000816397               0.999999985               0.000478614              -0.001124482               0.999999985               0.000358225              -0.001036483               0.999999985               0.000316526              -0.000999824               0.999999985               0.000302265              -0.000991135               0.999999985               0.000297101              -0.000997008               0.999999985               0.000293165              -0.001009709               0.999999985               0.000286266              -0.001024130               0.999999985               0.000273671              -0.001037203               0.999999985               0.000254086              -0.001047241               0.999999985               0.000227303              -0.001053620               0.999999985               0.000193481              -0.001056010               0.999999985               0.000153077              -0.001054446               0.999999985               0.000106629              -0.001049231               0.999999985               0.000054381              -0.001040834               0.999999985              -0.000003021              -0.001030070               0.999999985              -0.000064256              -0.001018056               0.999999985              -0.000127366              -0.001005805               0.999999985               0.000405294              -0.001198504               0.999999985               0.000293341              -0.001138289               0.999999985               0.000251110              -0.001108955               0.999999985               0.000235325              -0.001101120               0.999999985               0.000229360              -0.001106783               0.999999985               0.000225853              -0.001120176               0.999999985               0.000220747              -0.001137107               0.999999985               0.000211192              -0.001154570               0.999999985               0.000195726              -0.001170618               0.999999985               0.000173942              -0.001184322               0.999999985               0.000145568              -0.001194968               0.999999985               0.000110505              -0.001202267               0.999999985               0.000068998              -0.001206158               0.999999985               0.000020922              -0.001206872               0.999999985              -0.000033869              -0.001205027               0.999999985              -0.000094493              -0.001201449               0.999999985              -0.000159459              -0.001197077               0.999999985               0.000328479              -0.001260873               0.999999985               0.000231276              -0.001228938               0.999999985               0.000191271              -0.001210404               0.999999985               0.000174798              -0.001206371               0.999999985               0.000168001              -0.001213695               0.999999985               0.000164357              -0.001228592               0.999999985               0.000160270              -0.001248117               0.999999985               0.000153139              -0.001269715               0.999999985               0.000141337              -0.001291491               0.999999985               0.000124329              -0.001312168               0.999999985               0.000101509              -0.001330990               0.999999985               0.000072496              -0.001347167               0.999999985               0.000037069              -0.001360401               0.999999985              -0.000005357              -0.001370633               0.999999985              -0.000055442              -0.001378027               0.999999985              -0.000113316              -0.001383100               0.999999985              -0.000178457              -0.001386842               0.999999985               0.000248812              -0.001310618               0.999999985               0.000171545              -0.001304321               0.999999985               0.000137203              -0.001297980               0.999999985               0.000121753              -0.001299814               0.999999985               0.000114825              -0.001310277               0.999999985               0.000111094              -0.001327585               0.999999985               0.000107600              -0.001349819               0.999999985               0.000102380              -0.001375165               0.999999985               0.000093849              -0.001402055               0.999999985               0.000081267              -0.001429121               0.999999985               0.000064215              -0.001455400               0.999999985               0.000042022              -0.001480149               0.999999985               0.000013809              -0.001502673               0.999999985              -0.000020982              -0.001522626               0.999999985              -0.000063428              -0.001539905               0.999999985              -0.000114600              -0.001554484               0.999999985              -0.000175572              -0.001566971               0.999999985               0.000167087              -0.001346741               0.999999985               0.000113499              -0.001360830               0.999999985               0.000088208              -0.001365670               0.999999985               0.000076108              -0.001373751               0.999999985               0.000070304              -0.001387904               0.999999985               0.000067069              -0.001407960               0.999999985               0.000064361              -0.001432810               0.999999985               0.000060725              -0.001461340               0.999999985               0.000055089              -0.001492289               0.999999985               0.000046864              -0.001524528               0.999999985               0.000035540              -0.001557058               0.999999985               0.000020554              -0.001589095               0.999999985               0.000000892              -0.001619857               0.999999985              -0.000024049              -0.001648741               0.999999985              -0.000055273              -0.001675392               0.999999985              -0.000094285              -0.001699446               0.999999985              -0.000142834              -0.001720642               0.999999985               0.000083923              -0.001368696               0.999999985               0.000056486              -0.001395856               0.999999985               0.000043066              -0.001408378               0.999999985               0.000036398              -0.001421106               0.999999985               0.000033048              -0.001438271               0.999999985               0.000031190              -0.001460559               0.999999985               0.000029552              -0.001487456               0.999999985               0.000027679              -0.001518161               0.999999985               0.000024839              -0.001551750               0.999999985               0.000020910              -0.001587321               0.999999985               0.000015266              -0.001623964               0.999999985               0.000007564              -0.001660887               0.999999985              -0.000002462              -0.001697306               0.999999985              -0.000015527              -0.001732596               0.999999985              -0.000032229              -0.001766130               0.999999985              -0.000053417              -0.001797366               0.999999985              -0.000080518              -0.001825377               0.999999985              -0.000000000              -0.001376039               0.999999985              -0.000000000              -0.001407690               0.999999985              -0.000000000              -0.001422998               0.999999985              -0.000000000              -0.001437467               0.999999985              -0.000000000              -0.001455719               0.999999985               0.000000000              -0.001478871               0.999999985              -0.000000000              -0.001506501               0.999999985              -0.000000000              -0.001537907               0.999999985              -0.000000000              -0.001572412               0.999999985               0.000000000              -0.001609280               0.999999985              -0.000000000              -0.001647470               0.999999985               0.000000000              -0.001686094               0.999999985              -0.000000000              -0.001724472               0.999999985              -0.000000000              -0.001762032               0.999999985               0.000000000              -0.001798125               0.999999985               0.000000000              -0.001831814               0.999999985              -0.000000000              -0.001862180               0.999999985               0.000900381               0.000000000               0.999999985               0.000950619              -0.000000000               0.999999985               0.000972285              -0.000000000               0.999999985               0.000984840              -0.000000000               0.999999985               0.000995283               0.000000000               0.999999985               0.001005995               0.000000000               0.999999985               0.001017693               0.000000000               0.999999985               0.001030275               0.000000000               0.999999985               0.001043379              -0.000000000               0.999999985               0.001056546               0.000000000               0.999999985               0.001069464               0.000000000               0.999999985               0.001081741               0.000000000               0.999999985               0.001093105               0.000000000               0.999999985               0.001103243               0.000000000               0.999999985               0.001111697               0.000000000               0.999999985               0.001118000               0.000000000               0.999999985               0.001121244               0.000000000               0.999999985               0.000895329               0.000130885               0.999999985               0.000941321               0.000103925               0.999999985               0.000960277               0.000091738               0.999999985               0.000971054               0.000086691               0.999999985               0.000980217               0.000085207               0.999999985               0.000989849               0.000085471               0.999999985               0.001000461               0.000086189               0.999999985               0.001011923               0.000086593               0.999999985               0.001023797               0.000086097               0.999999985               0.001035668               0.000084360               0.999999985               0.001047033               0.000081066               0.999999985               0.001057449               0.000076287               0.999999985               0.001066730               0.000069644               0.999999985               0.001074597               0.000060730               0.999999985               0.001080687               0.000048718               0.999999985               0.001084505               0.000032682               0.999999985               0.001085416               0.000011161               0.999999985               0.000880311               0.000260601               0.999999985               0.000913885               0.000207447               0.999999985               0.000925129               0.000184384               0.999999985               0.000931036               0.000175450               0.999999985               0.000936729               0.000173320               0.999999985               0.000943516               0.000174262               0.999999985               0.000951445               0.000176018               0.999999985               0.000959977               0.000177049               0.999999985               0.000968542               0.000176338               0.999999985               0.000976697               0.000173047               0.999999985               0.000983851               0.000166889               0.999999985               0.000989608               0.000157697               0.999999985               0.000993642               0.000145145               0.999999985               0.000995662               0.000128404               0.999999985               0.000995472               0.000106536               0.999999985               0.000992797               0.000078114               0.999999985               0.000987588               0.000041586               0.999999985               0.000855662               0.000387911               0.999999985               0.000869673               0.000310301               0.999999985               0.000869715               0.000278733               0.999999985               0.000868971               0.000267812               0.999999985               0.000870189               0.000266269               0.999999985               0.000873378               0.000268746               0.999999985               0.000877712               0.000271915               0.999999985               0.000882235               0.000273878               0.999999985               0.000886293               0.000273114               0.999999985               0.000889177               0.000268782               0.999999985               0.000890292               0.000260165               0.999999985               0.000889227               0.000247331               0.999999985               0.000885755               0.000229995               0.999999985               0.000879740               0.000207391               0.999999985               0.000871177               0.000178617               0.999999985               0.000860210               0.000142777               0.999999985               0.000847078               0.000099253               0.999999985               0.000821831               0.000511621               0.999999985               0.000810917               0.000412493               0.999999985               0.000798545               0.000375413               0.999999985               0.000791230               0.000364490               0.999999985               0.000788281               0.000364842               0.999999985               0.000788002               0.000369398               0.999999985               0.000788631               0.000374302               0.999999985               0.000788895               0.000377212               0.999999985               0.000787627               0.000376539               0.999999985               0.000784088               0.000371215               0.999999985               0.000777773               0.000360612               0.999999985               0.000768576               0.000345008               0.999999985               0.000756359               0.000324263               0.999999985               0.000741156               0.000298004               0.999999985               0.000723200               0.000265721               0.999999985               0.000702888               0.000227413               0.999999985               0.000681028               0.000183556               0.999999985               0.000779366               0.000630690               0.999999985               0.000740591               0.000514224               0.999999985               0.000716827               0.000474637               0.999999985               0.000704444               0.000465354               0.999999985               0.000698654               0.000468319               0.999999985               0.000695738               0.000475180               0.999999985               0.000693035               0.000481846               0.999999985               0.000688791               0.000485584               0.999999985               0.000681701               0.000484695               0.999999985               0.000671109               0.000478148               0.999999985               0.000656771               0.000466023               0.999999985               0.000638665               0.000448321               0.999999985               0.000616917               0.000425536               0.999999985               0.000591996               0.000397623               0.999999985               0.000564410               0.000364322               0.999999985               0.000534811               0.000326624               0.999999985               0.000504036               0.000285914               0.999999985               0.000729256               0.000743981               0.999999985               0.000662349               0.000615501               0.999999985               0.000629948               0.000575926               0.999999985               0.000615075               0.000569210               0.999999985               0.000608095               0.000574955               0.999999985               0.000603347               0.000584033               0.999999985               0.000597518               0.000592102               0.999999985               0.000588558               0.000596256               0.999999985               0.000575157               0.000594654               0.999999985               0.000556722               0.000586906               0.999999985               0.000533521               0.000573492               0.999999985               0.000505720               0.000554633               0.999999985               0.000473951               0.000530890               0.999999985               0.000438878               0.000502599               0.999999985               0.000401337               0.000469929               0.999999985               0.000362014               0.000434387               0.999999985               0.000321720               0.000397382               0.999999985               0.000672615               0.000850294               0.999999985               0.000579947               0.000716084               0.999999985               0.000542787               0.000678267               0.999999985               0.000528270               0.000674284               0.999999985               0.000521449               0.000682487               0.999999985               0.000515407               0.000693444               0.999999985               0.000506324               0.000702315               0.999999985               0.000491949               0.000706341               0.999999985               0.000471263               0.000703971               0.999999985               0.000444181               0.000695146               0.999999985               0.000411136               0.000680897               0.999999985               0.000372951               0.000661441               0.999999985               0.000330503               0.000637317               0.999999985               0.000284704               0.000609223               0.999999985               0.000236551               0.000577974               0.999999985               0.000186855               0.000545179               0.999999985               0.000136491               0.000512028               0.999999985               0.000611285               0.000947680               0.999999985               0.000496236               0.000815851               0.999999985               0.000459678               0.000780155               0.999999985               0.000447433               0.000778452               0.999999985               0.000441539               0.000788819               0.999999985               0.000434269               0.000801182               0.999999985               0.000421329               0.000810374               0.999999985               0.000400636               0.000813843               0.999999985               0.000371559               0.000810703               0.999999985               0.000334667               0.000801183               0.999999985               0.000290821               0.000786141               0.999999985               0.000241331               0.000766017               0.999999985               0.000187188               0.000741825               0.999999985               0.000129571               0.000714766               0.999999985               0.000069974               0.000686053               0.999999985               0.000009666               0.000657015               0.999999985              -0.000050779               0.000628073               0.999999985               0.000547786               0.001040094               0.999999985               0.000425911               0.000927856               0.999999985               0.000386631               0.000888500               0.999999985               0.000373836               0.000882160               0.999999985               0.000368731               0.000889843               0.999999985               0.000363568               0.000902290               0.999999985               0.000354027               0.000914177               0.999999985               0.000337679               0.000922646               0.999999985               0.000313455               0.000926419               0.999999985               0.000281622               0.000925166               0.999999985               0.000242663               0.000919076               0.999999985               0.000197467               0.000908489               0.999999985               0.000146899               0.000894043               0.999999985               0.000091537               0.000876387               0.999999985               0.000032524               0.000856897               0.999999985              -0.000028444               0.000836584               0.999999985              -0.000089890               0.000816397               0.999999985               0.000478614               0.001124482               0.999999985               0.000358225               0.001036483               0.999999985               0.000316526               0.000999824               0.999999985               0.000302265               0.000991135               0.999999985               0.000297101               0.000997008               0.999999985               0.000293165               0.001009709               0.999999985               0.000286266               0.001024130               0.999999985               0.000273671               0.001037203               0.999999985               0.000254086               0.001047241               0.999999985               0.000227303               0.001053620               0.999999985               0.000193481               0.001056010               0.999999985               0.000153077               0.001054446               0.999999985               0.000106629               0.001049231               0.999999985               0.000054381               0.001040834               0.999999985              -0.000003021               0.001030070               0.999999985              -0.000064256               0.001018056               0.999999985              -0.000127366               0.001005805               0.999999985               0.000405294               0.001198504               0.999999985               0.000293341               0.001138289               0.999999985               0.000251110               0.001108955               0.999999985               0.000235325               0.001101120               0.999999985               0.000229360               0.001106783               0.999999985               0.000225853               0.001120176               0.999999985               0.000220747               0.001137107               0.999999985               0.000211192               0.001154570               0.999999985               0.000195726               0.001170618               0.999999985               0.000173942               0.001184322               0.999999985               0.000145568               0.001194968               0.999999985               0.000110505               0.001202267               0.999999985               0.000068998               0.001206158               0.999999985               0.000020922               0.001206872               0.999999985              -0.000033869               0.001205027               0.999999985              -0.000094493               0.001201449               0.999999985              -0.000159459               0.001197077               0.999999985               0.000328479               0.001260873               0.999999985               0.000231276               0.001228938               0.999999985               0.000191271               0.001210404               0.999999985               0.000174798               0.001206371               0.999999985               0.000168001               0.001213695               0.999999985               0.000164357               0.001228592               0.999999985               0.000160270               0.001248117               0.999999985               0.000153139               0.001269715               0.999999985               0.000141337               0.001291491               0.999999985               0.000124329               0.001312168               0.999999985               0.000101509               0.001330990               0.999999985               0.000072496               0.001347167               0.999999985               0.000037069               0.001360401               0.999999985              -0.000005357               0.001370633               0.999999985              -0.000055442               0.001378027               0.999999985              -0.000113316               0.001383100               0.999999985              -0.000178457               0.001386842               0.999999985               0.000248812               0.001310618               0.999999985               0.000171545               0.001304321               0.999999985               0.000137203               0.001297980               0.999999985               0.000121753               0.001299814               0.999999985               0.000114825               0.001310277               0.999999985               0.000111094               0.001327585               0.999999985               0.000107600               0.001349819               0.999999985               0.000102380               0.001375165               0.999999985               0.000093849               0.001402055               0.999999985               0.000081267               0.001429121               0.999999985               0.000064215               0.001455400               0.999999985               0.000042022               0.001480149               0.999999985               0.000013809               0.001502673               0.999999985              -0.000020982               0.001522626               0.999999985              -0.000063428               0.001539905               0.999999985              -0.000114600               0.001554484               0.999999985              -0.000175572               0.001566971               0.999999985               0.000167087               0.001346741               0.999999985               0.000113499               0.001360830               0.999999985               0.000088208               0.001365670               0.999999985               0.000076108               0.001373751               0.999999985               0.000070304               0.001387904               0.999999985               0.000067069               0.001407960               0.999999985               0.000064361               0.001432810               0.999999985               0.000060725               0.001461340               0.999999985               0.000055089               0.001492289               0.999999985               0.000046864               0.001524528               0.999999985               0.000035540               0.001557058               0.999999985               0.000020554               0.001589095               0.999999985               0.000000892               0.001619857               0.999999985              -0.000024049               0.001648741               0.999999985              -0.000055273               0.001675392               0.999999985              -0.000094285               0.001699446               0.999999985              -0.000142834               0.001720642               0.999999985               0.000083923               0.001368696               0.999999985               0.000056486               0.001395856               0.999999985               0.000043066               0.001408378               0.999999985               0.000036398               0.001421106               0.999999985               0.000033048               0.001438271               0.999999985               0.000031190               0.001460559               0.999999985               0.000029552               0.001487456               0.999999985               0.000027679               0.001518161               0.999999985               0.000024839               0.001551750               0.999999985               0.000020910               0.001587321               0.999999985               0.000015266               0.001623964               0.999999985               0.000007564               0.001660887               0.999999985              -0.000002462               0.001697306               0.999999985              -0.000015527               0.001732596               0.999999985              -0.000032229               0.001766130               0.999999985              -0.000053417               0.001797366               0.999999985              -0.000080518               0.001825377               0.999999985               0.000000000               0.001376039               0.999999985              -0.000000000               0.001407690               0.999999985               0.000000000               0.001422998               0.999999985               0.000000000               0.001437467               0.999999985              -0.000000000               0.001455719               0.999999985              -0.000000000               0.001478871               0.999999985               0.000000000               0.001506501               0.999999985              -0.000000000               0.001537907               0.999999985              -0.000000000               0.001572412               0.999999985              -0.000000000               0.001609280               0.999999985               0.000000000               0.001647470               0.999999985              -0.000000000               0.001686094               0.999999985               0.000000000               0.001724472               0.999999985               0.000000000               0.001762032               0.999999985               0.000000000               0.001798125               0.999999985               0.000000000               0.001831814               0.999999985              -0.000000000               0.001862180               0.999999985 </DataArray>
<DataArray type="Float64"                                    Name="stress"                                                      NumberOfComponents="10" format="ascii">
              0.002200138               0.023749521              -0.000000000              -0.002143633               0.008630972               0.006487339               0.000000000               0.000000000               0.000000000               0.000000000               0.002076202               0.018225238              -0.000000000              -0.001499575               0.006574877               0.005075302               0.000000000               0.000000000               0.000000000               0.000000000               0.002637036               0.013746201               0.000000000              -0.000729385               0.004825149               0.004095765               0.000000000               0.000000000               0.000000000               0.000000000               0.002395360               0.011217302               0.000000000              -0.000503901               0.003907031               0.003403129               0.000000000               0.000000000               0.000000000               0.000000000               0.001952179               0.009618196              -0.000000000              -0.000470206               0.003362769               0.002892562               0.000000000               0.000000000               0.000000000               0.000000000               0.001505269               0.008502728              -0.000000000              -0.000498364               0.003000336               0.002501972               0.000000000               0.000000000               0.000000000               0.000000000               0.001112422               0.007639345              -0.000000000              -0.000537759               0.002725676               0.002187917               0.000000000               0.000000000               0.000000000               0.000000000               0.000792611               0.006908682               0.000000000              -0.000566355               0.002491656               0.001925301               0.000000000               0.000000000               0.000000000               0.000000000               0.000541883               0.006242375               0.000000000              -0.000577089               0.002273134               0.001696045               0.000000000               0.000000000               0.000000000               0.000000000               0.000346738               0.005602006               0.000000000              -0.000570223               0.002057391               0.001487168               0.000000000               0.000000000               0.000000000               0.000000000               0.000198441               0.004967677               0.000000000              -0.000546543               0.001838057               0.001291514               0.000000000               0.000000000               0.000000000               0.000000000               0.000087240               0.004334166               0.000000000              -0.000509055               0.001614392               0.001105338               0.000000000               0.000000000               0.000000000               0.000000000               0.000001540               0.003683338              -0.000000000              -0.000459839               0.001381046               0.000921208               0.000000000               0.000000000               0.000000000               0.000000000              -0.000053543               0.002997744              -0.000000000              -0.000394796               0.001130837               0.000736041               0.000000000               0.000000000               0.000000000               0.000000000              -0.000077540               0.002248373              -0.000000000              -0.000310124               0.000852825               0.000542701               0.000000000               0.000000000               0.000000000               0.000000000              -0.000056933               0.001406488               0.000000000              -0.000197160               0.000534545               0.000337384               0.000000000               0.000000000               0.000000000               0.000000000              -0.000101003               0.000761550               0.000000000              -0.000133070               0.000298204               0.000165134               0.000000000               0.000000000               0.000000000               0.000000000               0.002262600               0.023238432              -0.001561215              -0.002056324               0.008431508               0.006375184               0.000000000               0.000000000               0.000000000               0.000000000               0.002007540               0.017900293              -0.000690616              -0.001484706               0.006461607               0.004976901               0.000000000               0.000000000               0.000000000               0.000000000               0.002430073               0.013618541               0.000165028              -0.000791038               0.004803148               0.004012109               0.000000000               0.000000000               0.000000000               0.000000000               0.002140421               0.011194682               0.000513204              -0.000596676               0.003930415               0.003333739               0.000000000               0.000000000               0.000000000               0.000000000               0.001692028               0.009649042               0.000650302              -0.000571618               0.003406854               0.002835236               0.000000000               0.000000000               0.000000000               0.000000000               0.001258774               0.008555929               0.000691500              -0.000597450               0.003051098               0.002453648               0.000000000               0.000000000               0.000000000               0.000000000               0.000888356               0.007703637               0.000685660              -0.000629820               0.002777793               0.002147973               0.000000000               0.000000000               0.000000000               0.000000000               0.000593087               0.006979320               0.000657873              -0.000650006               0.002543085               0.001893079               0.000000000               0.000000000               0.000000000               0.000000000               0.000364379               0.006318122               0.000619726              -0.000653122               0.002323727               0.001670605               0.000000000               0.000000000               0.000000000               0.000000000               0.000193094               0.005683123               0.000577534              -0.000637979               0.002107015               0.001469036               0.000000000               0.000000000               0.000000000               0.000000000               0.000074980               0.005061059               0.000540195              -0.000604514               0.001888507               0.001283994               0.000000000               0.000000000               0.000000000               0.000000000              -0.000008451               0.004440721               0.000505214              -0.000558258               0.001666312               0.001108054               0.000000000               0.000000000               0.000000000               0.000000000              -0.000068631               0.003809858               0.000462419              -0.000501968               0.001437262               0.000935295               0.000000000               0.000000000               0.000000000               0.000000000              -0.000102485               0.003153655               0.000402049              -0.000432638               0.001195420               0.000762782               0.000000000               0.000000000               0.000000000               0.000000000              -0.000104512               0.002456085               0.000312388              -0.000346202               0.000934088               0.000587885               0.000000000               0.000000000               0.000000000               0.000000000              -0.000066372               0.001697739               0.000179796              -0.000237106               0.000644943               0.000407836               0.000000000               0.000000000               0.000000000               0.000000000              -0.000095551               0.001133498               0.000110956              -0.000177519               0.000437002               0.000259483               0.000000000               0.000000000               0.000000000               0.000000000               0.002405932               0.021771553              -0.002885027              -0.001819216               0.007863517               0.006044301               0.000000000               0.000000000               0.000000000               0.000000000               0.001793182               0.016978546              -0.001267534              -0.001449872               0.006142749               0.004692877               0.000000000               0.000000000               0.000000000               0.000000000               0.001836571               0.013258978               0.000307260              -0.000968656               0.004742500               0.003773845               0.000000000               0.000000000               0.000000000               0.000000000               0.001423686               0.011120668               0.000923098              -0.000856199               0.003992252               0.003136053               0.000000000               0.000000000               0.000000000               0.000000000               0.000970215               0.009716763               0.001150738              -0.000850763               0.003522476               0.002671713               0.000000000               0.000000000               0.000000000               0.000000000               0.000581148               0.008689206               0.001208946              -0.000868219               0.003185779               0.002317560               0.000000000               0.000000000               0.000000000               0.000000000               0.000279218               0.007866050               0.001188350              -0.000878548               0.002914840               0.002036292               0.000000000               0.000000000               0.000000000               0.000000000               0.000060125               0.007158260               0.001130924              -0.000872234               0.002676807               0.001804573               0.000000000               0.000000000               0.000000000               0.000000000              -0.000096508               0.006509704               0.001054613              -0.000849902               0.002453180               0.001603278               0.000000000               0.000000000               0.000000000               0.000000000              -0.000196578               0.005894126               0.000973672              -0.000810481               0.002234849               0.001424368               0.000000000               0.000000000               0.000000000               0.000000000              -0.000246959               0.005297223               0.000900257              -0.000754761               0.002017310               0.001262549               0.000000000               0.000000000               0.000000000               0.000000000              -0.000263949               0.004712017               0.000831242              -0.000687982               0.001799984               0.001112002               0.000000000               0.000000000               0.000000000               0.000000000              -0.000254201               0.004135997               0.000749575              -0.000612324               0.001582760               0.000970436               0.000000000               0.000000000               0.000000000               0.000000000              -0.000223015               0.003561713               0.000639744              -0.000528844               0.001363507               0.000834663               0.000000000               0.000000000               0.000000000               0.000000000              -0.000168243               0.002988954               0.000486106              -0.000436710               0.001141878               0.000705168               0.000000000               0.000000000               0.000000000               0.000000000              -0.000089411               0.002423175               0.000272014              -0.000336425               0.000919859               0.000583433               0.000000000               0.000000000               0.000000000               0.000000000              -0.000083628               0.002039340               0.000161922              -0.000286277               0.000775199               0.000488922               0.000000000               0.000000000               0.000000000               0.000000000               0.002511786               0.019543596              -0.003787274              -0.001501028               0.007014809               0.005513781               0.000000000               0.000000000               0.000000000               0.000000000               0.001406221               0.015606308              -0.001656898              -0.001423453               0.005676535               0.004253082               0.000000000               0.000000000               0.000000000               0.000000000               0.000931532               0.012730726               0.000384441              -0.001242013               0.004657537               0.003415524               0.000000000               0.000000000               0.000000000               0.000000000               0.000381710               0.010988011               0.001133141              -0.001230357               0.004072753               0.002842396               0.000000000               0.000000000               0.000000000               0.000000000              -0.000046910               0.009774035               0.001385764              -0.001239343               0.003671093               0.002431750               0.000000000               0.000000000               0.000000000               0.000000000              -0.000344750               0.008833868               0.001433797              -0.001233512               0.003355764               0.002122252               0.000000000               0.000000000               0.000000000               0.000000000              -0.000530061               0.008049696               0.001392572              -0.001204982               0.003084866               0.001879883               0.000000000               0.000000000               0.000000000               0.000000000              -0.000632154               0.007359630               0.001309231              -0.001157009               0.002838855               0.001681846               0.000000000               0.000000000               0.000000000               0.000000000              -0.000675348               0.006727119               0.001207143              -0.001094143               0.002607065               0.001512922               0.000000000               0.000000000               0.000000000               0.000000000              -0.000667551               0.006135543               0.001100404              -0.001017272               0.002384251               0.001366979               0.000000000               0.000000000               0.000000000               0.000000000              -0.000622162               0.005572891               0.001002659              -0.000929920               0.002167585               0.001237665               0.000000000               0.000000000               0.000000000               0.000000000              -0.000550036               0.005041163               0.000912812              -0.000836407               0.001959173               0.001122766               0.000000000               0.000000000               0.000000000               0.000000000              -0.000458013               0.004540689               0.000808441              -0.000739339               0.001759994               0.001020655               0.000000000               0.000000000               0.000000000               0.000000000              -0.000352803               0.004075495               0.000671367              -0.000641737               0.001572397               0.000930660               0.000000000               0.000000000               0.000000000               0.000000000              -0.000240542               0.003653766               0.000492362              -0.000546923               0.001400217               0.000853295               0.000000000               0.000000000               0.000000000               0.000000000              -0.000123256               0.003300231               0.000267407              -0.000458749               0.001252982               0.000794233               0.000000000               0.000000000               0.000000000               0.000000000              -0.000081233               0.003099923               0.000152451              -0.000417952               0.001172615               0.000754663               0.000000000               0.000000000               0.000000000               0.000000000               0.002426844               0.016837477              -0.004181067              -0.001194618               0.006010642               0.004816023               0.000000000               0.000000000               0.000000000               0.000000000               0.000818495               0.013977418              -0.001843534              -0.001440239               0.005139172               0.003698933               0.000000000               0.000000000               0.000000000               0.000000000              -0.000182381               0.012103522               0.000354748              -0.001581329               0.004561577               0.002980247               0.000000000               0.000000000               0.000000000               0.000000000              -0.000806178               0.010789181               0.001099832              -0.001650960               0.004146678               0.002495717               0.000000000               0.000000000               0.000000000               0.000000000              -0.001144294               0.009767398               0.001323202              -0.001650031               0.003805777               0.002155746               0.000000000               0.000000000               0.000000000               0.000000000              -0.001297172               0.008911664               0.001347441              -0.001600394               0.003503990               0.001903596               0.000000000               0.000000000               0.000000000               0.000000000              -0.001328295               0.008168673               0.001289729              -0.001519192               0.003229261               0.001710069               0.000000000               0.000000000               0.000000000               0.000000000              -0.001279720               0.007498783               0.001196188              -0.001417240               0.002971983               0.001554743               0.000000000               0.000000000               0.000000000               0.000000000              -0.001179277               0.006882208               0.001088531              -0.001302502               0.002728214               0.001425712               0.000000000               0.000000000               0.000000000               0.000000000              -0.001048139               0.006309929               0.000977774              -0.001181791               0.002497219               0.001315428               0.000000000               0.000000000               0.000000000               0.000000000              -0.000899504               0.005790121               0.000875383              -0.001061077               0.002283713               0.001222636               0.000000000               0.000000000               0.000000000               0.000000000              -0.000742437               0.005318387               0.000782037              -0.000943210               0.002087181               0.001143971               0.000000000               0.000000000               0.000000000               0.000000000              -0.000577161               0.004902276               0.000676966              -0.000829218               0.001910482               0.001081264               0.000000000               0.000000000               0.000000000               0.000000000              -0.000411683               0.004548040               0.000541752              -0.000722884               0.001756960               0.001034075               0.000000000               0.000000000               0.000000000               0.000000000              -0.000254056               0.004264582               0.000377987              -0.000628342               0.001630960               0.001002618               0.000000000               0.000000000               0.000000000               0.000000000              -0.000118615               0.004074860               0.000197115              -0.000553837               0.001542885               0.000989049               0.000000000               0.000000000               0.000000000               0.000000000              -0.000062943               0.003998652               0.000106307              -0.000523434               0.001507349               0.000983915               0.000000000               0.000000000               0.000000000               0.000000000               0.002026618               0.013936898              -0.004090162              -0.000982131               0.004972962               0.003990831               0.000000000               0.000000000               0.000000000               0.000000000               0.000037653               0.012265010              -0.001866673              -0.001519004               0.004594630               0.003075626               0.000000000               0.000000000               0.000000000               0.000000000              -0.001373147               0.011418452               0.000191764              -0.001942232               0.004453523               0.002511291               0.000000000               0.000000000               0.000000000               0.000000000              -0.001958044               0.010502489               0.000833032              -0.002047073               0.004183152               0.002136079               0.000000000               0.000000000               0.000000000               0.000000000              -0.002133747               0.009647555               0.001005536              -0.002006095               0.003884518               0.001878423               0.000000000               0.000000000               0.000000000               0.000000000              -0.002097594               0.008870756               0.001014715              -0.001895438               0.003588702               0.001693264               0.000000000               0.000000000               0.000000000               0.000000000              -0.001947703               0.008167571               0.000960453              -0.001751331               0.003306273               0.001554942               0.000000000               0.000000000               0.000000000               0.000000000              -0.001736196               0.007518491               0.000876993              -0.001590881               0.003036432               0.001445551               0.000000000               0.000000000               0.000000000               0.000000000              -0.001495417               0.006915176               0.000783322              -0.001425175               0.002780094               0.001354919               0.000000000               0.000000000               0.000000000               0.000000000              -0.001252528               0.006370248               0.000694014              -0.001265976               0.002545387               0.001279411               0.000000000               0.000000000               0.000000000               0.000000000              -0.001011696               0.005900285               0.000610432              -0.001116919               0.002339048               0.001222129               0.000000000               0.000000000               0.000000000               0.000000000              -0.000780267               0.005496878               0.000532752              -0.000979708               0.002158843               0.001179136               0.000000000               0.000000000               0.000000000               0.000000000              -0.000566937               0.005159408               0.000448771              -0.000857525               0.002005627               0.001148102               0.000000000               0.000000000               0.000000000               0.000000000              -0.000379051               0.004889840               0.000337838              -0.000753372               0.001881054               0.001127682               0.000000000               0.000000000               0.000000000               0.000000000              -0.000217100               0.004696341               0.000214060              -0.000668454               0.001788249               0.001119795               0.000000000               0.000000000               0.000000000               0.000000000              -0.000092929               0.004590740               0.000102981              -0.000608689               0.001733128               0.001124439               0.000000000               0.000000000               0.000000000               0.000000000              -0.000044105               0.004561646               0.000052878              -0.000586744               0.001716115               0.001129371               0.000000000               0.000000000               0.000000000               0.000000000               0.001256515               0.011081570              -0.003609826              -0.000914004               0.003998487               0.003084483               0.000000000               0.000000000               0.000000000               0.000000000              -0.000885000               0.010599849              -0.001787813              -0.001656853               0.004085531               0.002428679               0.000000000               0.000000000               0.000000000               0.000000000              -0.002506630               0.010692793              -0.000108687              -0.002276580               0.004323089               0.002046509               0.000000000               0.000000000               0.000000000               0.000000000              -0.002925333               0.010111298               0.000383515              -0.002360906               0.004157368               0.001796461               0.000000000               0.000000000               0.000000000               0.000000000              -0.002877561               0.009398096               0.000520210              -0.002253842               0.003883948               0.001630106               0.000000000               0.000000000               0.000000000               0.000000000              -0.002633483               0.008693921               0.000538851              -0.002074291               0.003589375               0.001515084               0.000000000               0.000000000               0.000000000               0.000000000              -0.002307551               0.008024152               0.000513550              -0.001868346               0.003297472               0.001429127               0.000000000               0.000000000               0.000000000               0.000000000              -0.001950292               0.007396799               0.000462915              -0.001655955               0.003017560               0.001361605               0.000000000               0.000000000               0.000000000               0.000000000              -0.001587861               0.006825721               0.000404819              -0.001448659               0.002758104               0.001309445               0.000000000               0.000000000               0.000000000               0.000000000              -0.001251566               0.006328819               0.000356837              -0.001260436               0.002529731               0.001269294               0.000000000               0.000000000               0.000000000               0.000000000              -0.000948560               0.005914493               0.000313058              -0.001095019               0.002336484               0.001241465               0.000000000               0.000000000               0.000000000               0.000000000              -0.000679017               0.005573330               0.000265855              -0.000951295               0.002174857               0.001223561               0.000000000               0.000000000               0.000000000               0.000000000              -0.000454681               0.005291435               0.000213133              -0.000831933               0.002041105               0.001209172               0.000000000               0.000000000               0.000000000               0.000000000              -0.000279186               0.005070850               0.000143224              -0.000738549               0.001936449               0.001197900               0.000000000               0.000000000               0.000000000               0.000000000              -0.000145118               0.004924455               0.000074037              -0.000669974               0.001864793               0.001194819               0.000000000               0.000000000               0.000000000               0.000000000              -0.000055030               0.004849696               0.000029796              -0.000626847               0.001825498               0.001198652               0.000000000               0.000000000               0.000000000               0.000000000              -0.000027208               0.004825839               0.000015796              -0.000613431               0.001813074               0.001199643               0.000000000               0.000000000               0.000000000               0.000000000               0.000156054               0.008454751              -0.002852424              -0.000998323               0.003150996               0.002152673               0.000000000               0.000000000               0.000000000               0.000000000              -0.001892443               0.009082007              -0.001658976              -0.001844913               0.003642276               0.001797363               0.000000000               0.000000000               0.000000000               0.000000000              -0.003469990               0.009936549              -0.000525807              -0.002543309               0.004159919               0.001616611               0.000000000               0.000000000               0.000000000               0.000000000              -0.003621238               0.009616953              -0.000165565              -0.002560077               0.004058978               0.001498901               0.000000000               0.000000000               0.000000000               0.000000000              -0.003326677               0.009032878              -0.000029824              -0.002376608               0.003803132               0.001426524               0.000000000               0.000000000               0.000000000               0.000000000              -0.002883331               0.008398291               0.000023427              -0.002131030               0.003509746               0.001378715               0.000000000               0.000000000               0.000000000               0.000000000              -0.002398453               0.007766877               0.000046751              -0.001870275               0.003212358               0.001342083               0.000000000               0.000000000               0.000000000               0.000000000              -0.001919320               0.007174153               0.000051203              -0.001616510               0.002930197               0.001313687               0.000000000               0.000000000               0.000000000               0.000000000              -0.001472928               0.006652939               0.000044899              -0.001383962               0.002678945               0.001294983               0.000000000               0.000000000               0.000000000               0.000000000              -0.001076637               0.006214896               0.000045805              -0.001180598               0.002465144               0.001284546               0.000000000               0.000000000               0.000000000               0.000000000              -0.000747527               0.005847112               0.000048492              -0.001011209               0.002286087               0.001274878               0.000000000               0.000000000               0.000000000               0.000000000              -0.000483726               0.005538878               0.000040582              -0.000873755               0.002137526               0.001263771               0.000000000               0.000000000               0.000000000               0.000000000              -0.000282828               0.005289854               0.000027679              -0.000767290               0.002019030               0.001251740               0.000000000               0.000000000               0.000000000               0.000000000              -0.000146580               0.005105495               0.000007779              -0.000693152               0.001932865               0.001239713               0.000000000               0.000000000               0.000000000               0.000000000              -0.000061175               0.004995022              -0.000006915              -0.000647317               0.001880763               0.001233446               0.000000000               0.000000000               0.000000000               0.000000000              -0.000015943               0.004943722              -0.000005268              -0.000623942               0.001855872               0.001231929               0.000000000               0.000000000               0.000000000               0.000000000              -0.000008732               0.004925646               0.000000699              -0.000618979               0.001848192               0.001229213               0.000000000               0.000000000               0.000000000               0.000000000              -0.001141632               0.006254268              -0.001941990              -0.001209894               0.002488033               0.001278139               0.000000000               0.000000000               0.000000000               0.000000000              -0.002876799               0.007731134              -0.001520380              -0.002045187               0.003258747               0.001213561               0.000000000               0.000000000               0.000000000               0.000000000              -0.004223347               0.009177766              -0.001021252              -0.002730969               0.003969548               0.001238579               0.000000000               0.000000000               0.000000000               0.000000000              -0.004098297               0.009126696              -0.000739998              -0.002677692               0.003934765               0.001257074               0.000000000               0.000000000               0.000000000               0.000000000              -0.003601237               0.008694402              -0.000576346              -0.002437258               0.003710524               0.001273266               0.000000000               0.000000000               0.000000000               0.000000000              -0.003001254               0.008151530              -0.000473451              -0.002144406               0.003431952               0.001287545               0.000000000               0.000000000               0.000000000               0.000000000              -0.002390719               0.007584747              -0.000394949              -0.001844608               0.003143093               0.001298485               0.000000000               0.000000000               0.000000000               0.000000000              -0.001818014               0.007044955              -0.000329000              -0.001562371               0.002869085               0.001306714               0.000000000               0.000000000               0.000000000               0.000000000              -0.001312137               0.006570397              -0.000274901              -0.001313348               0.002627893               0.001314545               0.000000000               0.000000000               0.000000000               0.000000000              -0.000882284               0.006172739              -0.000226334              -0.001102446               0.002425041               0.001322595               0.000000000               0.000000000               0.000000000               0.000000000              -0.000542799               0.005824068              -0.000182350              -0.000931556               0.002251855               0.001320299               0.000000000               0.000000000               0.000000000               0.000000000              -0.000289277               0.005522443              -0.000145516              -0.000798782               0.002107057               0.001308275               0.000000000               0.000000000               0.000000000               0.000000000              -0.000108887               0.005283939              -0.000107963              -0.000701323               0.001995070               0.001293747               0.000000000               0.000000000               0.000000000               0.000000000              -0.000009416               0.005112503              -0.000070763              -0.000642592               0.001918348               0.001275756               0.000000000               0.000000000               0.000000000               0.000000000               0.000021942               0.005019122              -0.000038488              -0.000619161               0.001879411               0.001260250               0.000000000               0.000000000               0.000000000               0.000000000               0.000015876               0.004983664              -0.000013104              -0.000617003               0.001866872               0.001249869               0.000000000               0.000000000               0.000000000               0.000000000               0.000003545               0.004973789              -0.000001541              -0.000620393               0.001864710               0.001244318               0.000000000               0.000000000               0.000000000               0.000000000              -0.002644190               0.004225778              -0.000995816              -0.001519790               0.001915175               0.000395385               0.000000000               0.000000000               0.000000000               0.000000000              -0.003709101               0.006162728              -0.001370107              -0.002161249               0.002774638               0.000613389               0.000000000               0.000000000               0.000000000               0.000000000              -0.004674792               0.008035632              -0.001538588              -0.002757494               0.003597682               0.000840187               0.000000000               0.000000000               0.000000000               0.000000000              -0.004401252               0.008383298              -0.001344493              -0.002698375               0.003693863               0.000995488               0.000000000               0.000000000               0.000000000               0.000000000              -0.003820974               0.008231909              -0.001149009              -0.002461848               0.003564558               0.001102710               0.000000000               0.000000000               0.000000000               0.000000000              -0.003171198               0.007898173              -0.000991929              -0.002176465               0.003358186               0.001181721               0.000000000               0.000000000               0.000000000               0.000000000              -0.002523785               0.007488580              -0.000858097              -0.001882487               0.003123664               0.001241177               0.000000000               0.000000000               0.000000000               0.000000000              -0.001919408               0.007064905              -0.000734875              -0.001602887               0.002889240               0.001286353               0.000000000               0.000000000               0.000000000               0.000000000              -0.001381736               0.006665959              -0.000625682              -0.001351393               0.002672428               0.001321036               0.000000000               0.000000000               0.000000000               0.000000000              -0.000922562               0.006307508              -0.000530023              -0.001134397               0.002480614               0.001346217               0.000000000               0.000000000               0.000000000               0.000000000              -0.000551945               0.005976131              -0.000441853              -0.000953993               0.002310021               0.001356028               0.000000000               0.000000000               0.000000000               0.000000000              -0.000271313               0.005675334              -0.000358664              -0.000811157               0.002162145               0.001350988               0.000000000               0.000000000               0.000000000               0.000000000              -0.000073911               0.005412469              -0.000269676              -0.000704273               0.002038896               0.001334623               0.000000000               0.000000000               0.000000000               0.000000000               0.000043615               0.005209133              -0.000174342              -0.000634785               0.001947955               0.001313171               0.000000000               0.000000000               0.000000000               0.000000000               0.000087002               0.005083149              -0.000089975              -0.000602766               0.001895288               0.001292522               0.000000000               0.000000000               0.000000000               0.000000000               0.000073165               0.005023660              -0.000030991              -0.000600519               0.001874710               0.001274190               0.000000000               0.000000000               0.000000000               0.000000000               0.000046564               0.005003676              -0.000005262              -0.000607997               0.001870541               0.001262544               0.000000000               0.000000000               0.000000000               0.000000000              -0.004533966               0.002392026              -0.000083627              -0.001999237               0.001463745              -0.000535493               0.000000000               0.000000000               0.000000000               0.000000000              -0.004641836               0.004573494              -0.001158440              -0.002312370               0.002295272              -0.000017098               0.000000000               0.000000000               0.000000000               0.000000000              -0.005035406               0.006666246              -0.001955455              -0.002721552               0.003129243               0.000407691               0.000000000               0.000000000               0.000000000               0.000000000              -0.004625163               0.007391710              -0.001919190              -0.002658394               0.003350009               0.000691616               0.000000000               0.000000000               0.000000000               0.000000000              -0.004002149               0.007568452              -0.001726093              -0.002446857               0.003338411               0.000891554               0.000000000               0.000000000               0.000000000               0.000000000              -0.003337804               0.007492200              -0.001528885              -0.002188196               0.003226774               0.001038577               0.000000000               0.000000000               0.000000000               0.000000000              -0.002682650               0.007280456              -0.001347640              -0.001916046               0.003065476               0.001149430               0.000000000               0.000000000               0.000000000               0.000000000              -0.002064579               0.007003343              -0.001178152              -0.001649631               0.002884301               0.001234670               0.000000000               0.000000000               0.000000000               0.000000000              -0.001499000               0.006710703              -0.001026553              -0.001400960               0.002703865               0.001302905               0.000000000               0.000000000               0.000000000               0.000000000              -0.000998506               0.006421997              -0.000892186              -0.001177187               0.002533040               0.001355853               0.000000000               0.000000000               0.000000000               0.000000000              -0.000576957               0.006132657              -0.000766409              -0.000982939               0.002371845               0.001388906               0.000000000               0.000000000               0.000000000               0.000000000              -0.000242710               0.005849436              -0.000643014              -0.000822194               0.002223857               0.001401663               0.000000000               0.000000000               0.000000000               0.000000000               0.000005561               0.005579981              -0.000509623              -0.000695411               0.002091779               0.001396368               0.000000000               0.000000000               0.000000000               0.000000000               0.000171762               0.005347591              -0.000361721              -0.000604037               0.001983858               0.001379821               0.000000000               0.000000000               0.000000000               0.000000000               0.000251671               0.005174103              -0.000213926              -0.000552385               0.001908812               0.001356427               0.000000000               0.000000000               0.000000000               0.000000000               0.000248063               0.005066703              -0.000091067              -0.000540313               0.001868988               0.001328675               0.000000000               0.000000000               0.000000000               0.000000000               0.000206216               0.005015582              -0.000031399              -0.000549616               0.001855049               0.001305434               0.000000000               0.000000000               0.000000000               0.000000000              -0.006678168               0.000910641               0.000708185              -0.002618140               0.001176252              -0.001441888               0.000000000               0.000000000               0.000000000               0.000000000              -0.005713490               0.003074149              -0.000871134              -0.002526823               0.001866978              -0.000659845               0.000000000               0.000000000               0.000000000               0.000000000              -0.005334218               0.005096869              -0.002162179              -0.002637435               0.002578083              -0.000059352               0.000000000               0.000000000               0.000000000               0.000000000              -0.004700826               0.006089013              -0.002323452              -0.002523931               0.002870960               0.000347029               0.000000000               0.000000000               0.000000000               0.000000000              -0.004017401               0.006568214              -0.002185225              -0.002327547               0.002965231               0.000637684               0.000000000               0.000000000               0.000000000               0.000000000              -0.003346776               0.006757185              -0.001982628              -0.002099685               0.002952267               0.000852582               0.000000000               0.000000000               0.000000000               0.000000000              -0.002698998               0.006770543              -0.001775179              -0.001858438               0.002876304               0.001017866               0.000000000               0.000000000               0.000000000               0.000000000              -0.002081628               0.006674380              -0.001577141              -0.001614904               0.002763072               0.001148168               0.000000000               0.000000000               0.000000000               0.000000000              -0.001503955               0.006523762              -0.001401321              -0.001379450               0.002634382               0.001254932               0.000000000               0.000000000               0.000000000               0.000000000              -0.000973574               0.006342609              -0.001244925              -0.001157914               0.002500153               0.001342239               0.000000000               0.000000000               0.000000000               0.000000000              -0.000505415               0.006132746              -0.001095547              -0.000956122               0.002362936               0.001406813               0.000000000               0.000000000               0.000000000               0.000000000              -0.000111613               0.005901070              -0.000946123              -0.000779487               0.002226832               0.001447346               0.000000000               0.000000000               0.000000000               0.000000000               0.000203558               0.005660654              -0.000783556              -0.000631246               0.002097281               0.001466035               0.000000000               0.000000000               0.000000000               0.000000000               0.000438536               0.005434750              -0.000593092              -0.000514892               0.001983196               0.001468304               0.000000000               0.000000000               0.000000000               0.000000000               0.000583413               0.005244831              -0.000385236              -0.000436823               0.001893867               0.001457044               0.000000000               0.000000000               0.000000000               0.000000000               0.000625855               0.005103404              -0.000184660              -0.000403229               0.001835527               0.001432298               0.000000000               0.000000000               0.000000000               0.000000000               0.000598768               0.005033493              -0.000082602              -0.000404648               0.001812697               0.001408049               0.000000000               0.000000000               0.000000000               0.000000000              -0.008939007              -0.000134237               0.001252531              -0.003335345               0.001067028              -0.002268317               0.000000000               0.000000000               0.000000000               0.000000000              -0.006871103               0.001755007              -0.000557542              -0.002796036               0.001517004              -0.001279032               0.000000000               0.000000000               0.000000000               0.000000000              -0.005597153               0.003474454              -0.002124275              -0.002533235               0.002002549              -0.000530686               0.000000000               0.000000000               0.000000000               0.000000000              -0.004658778               0.004591449              -0.002462406              -0.002320968               0.002304122              -0.000016846               0.000000000               0.000000000               0.000000000               0.000000000              -0.003875861               0.005301875              -0.002409869              -0.002116178               0.002472666               0.000356488               0.000000000               0.000000000               0.000000000               0.000000000              -0.003188616               0.005731922              -0.002238613              -0.001912217               0.002548027               0.000635809               0.000000000               0.000000000               0.000000000               0.000000000              -0.002554506               0.005972170              -0.002036572              -0.001704458               0.002558855               0.000854398               0.000000000               0.000000000               0.000000000               0.000000000              -0.001947581               0.006077780              -0.001834813              -0.001490062               0.002522593               0.001032531               0.000000000               0.000000000               0.000000000               0.000000000              -0.001369988               0.006092669              -0.001653348              -0.001275326               0.002455978               0.001180651               0.000000000               0.000000000               0.000000000               0.000000000              -0.000826706               0.006046364              -0.001491411              -0.001065808               0.002370704               0.001304895               0.000000000               0.000000000               0.000000000               0.000000000              -0.000321088               0.005947718              -0.001337171              -0.000863871               0.002270510               0.001406639               0.000000000               0.000000000               0.000000000               0.000000000               0.000134339               0.005802196              -0.001181952              -0.000674896               0.002159011               0.001484115               0.000000000               0.000000000               0.000000000               0.000000000               0.000526853               0.005627366              -0.001009316              -0.000505850               0.002044387               0.001538536               0.000000000               0.000000000               0.000000000               0.000000000               0.000855397               0.005441507              -0.000801910              -0.000359414               0.001933622               0.001574208               0.000000000               0.000000000               0.000000000               0.000000000               0.001110112               0.005262184              -0.000558349              -0.000241481               0.001834538               0.001593057               0.000000000               0.000000000               0.000000000               0.000000000               0.001267950               0.005115440              -0.000289488              -0.000163948               0.001759779               0.001595831               0.000000000               0.000000000               0.000000000               0.000000000               0.001316108               0.005051696              -0.000150098              -0.000137921               0.001729856               0.001591934               0.000000000               0.000000000               0.000000000               0.000000000              -0.011096472              -0.000777753               0.001446574              -0.004063955               0.001095393              -0.002968562               0.000000000               0.000000000               0.000000000               0.000000000              -0.008016881               0.000687158              -0.000281368              -0.003092222               0.001259785              -0.001832437               0.000000000               0.000000000               0.000000000               0.000000000              -0.005836523               0.001963803              -0.001838730              -0.002434168               0.001465980              -0.000968188               0.000000000               0.000000000               0.000000000               0.000000000              -0.004536214               0.003073316              -0.002272519              -0.002085241               0.001719507              -0.000365735               0.000000000               0.000000000               0.000000000               0.000000000              -0.003617477               0.003924439              -0.002300751              -0.001847105               0.001923834               0.000076729               0.000000000               0.000000000               0.000000000               0.000000000              -0.002890922               0.004542888              -0.002183042              -0.001651953               0.002064931               0.000412978               0.000000000               0.000000000               0.000000000               0.000000000              -0.002261266               0.004981028              -0.002017088              -0.001470601               0.002150526               0.000679925               0.000000000               0.000000000               0.000000000               0.000000000              -0.001673795               0.005280143              -0.001840081              -0.001287689               0.002189259               0.000901570               0.000000000               0.000000000               0.000000000               0.000000000              -0.001108882               0.005466870              -0.001673565              -0.001099188               0.002188667               0.001089480               0.000000000               0.000000000               0.000000000               0.000000000              -0.000564109               0.005565400              -0.001526777              -0.000907214               0.002157519               0.001250305               0.000000000               0.000000000               0.000000000               0.000000000              -0.000035133               0.005595873              -0.001389342              -0.000712658               0.002102825               0.001390167               0.000000000               0.000000000               0.000000000               0.000000000               0.000471449               0.005564024              -0.001244845              -0.000518709               0.002027559               0.001508850               0.000000000               0.000000000               0.000000000               0.000000000               0.000943279               0.005480043              -0.001082806              -0.000331276               0.001937088               0.001605812               0.000000000               0.000000000               0.000000000               0.000000000               0.001385444               0.005368066              -0.000890290              -0.000151467               0.001839826               0.001688359               0.000000000               0.000000000               0.000000000               0.000000000               0.001793133               0.005239421              -0.000650767               0.000017496               0.001740624               0.001758120               0.000000000               0.000000000               0.000000000               0.000000000               0.002146256               0.005115672              -0.000354086               0.000165385               0.001650079               0.001815464               0.000000000               0.000000000               0.000000000               0.000000000               0.002351806               0.005077403              -0.000199373               0.000247249               0.001610034               0.001857284               0.000000000               0.000000000               0.000000000               0.000000000              -0.012895122              -0.001106424               0.001255041              -0.004697365               0.001196972              -0.003500393               0.000000000               0.000000000               0.000000000               0.000000000              -0.009002953              -0.000081957              -0.000093752              -0.003365860               0.001094627              -0.002271233               0.000000000               0.000000000               0.000000000               0.000000000              -0.006040814               0.000734700              -0.001342807              -0.002357140               0.001030606              -0.001326534               0.000000000               0.000000000               0.000000000               0.000000000              -0.004390323               0.001751842              -0.001743868              -0.001865349               0.001205721              -0.000659628               0.000000000               0.000000000               0.000000000               0.000000000              -0.003324514               0.002663275              -0.001813017              -0.001579599               0.001414281              -0.000165318               0.000000000               0.000000000               0.000000000               0.000000000              -0.002543195               0.003405464              -0.001750215              -0.001379378               0.001594935               0.000215557               0.000000000               0.000000000               0.000000000               0.000000000              -0.001906562               0.003991082              -0.001638009              -0.001213844               0.001734961               0.000521117               0.000000000               0.000000000               0.000000000               0.000000000              -0.001332819               0.004444563              -0.001509162              -0.001055376               0.001833297               0.000777922               0.000000000               0.000000000               0.000000000               0.000000000              -0.000783691               0.004780510              -0.001384076              -0.000891446               0.001890636               0.000999189               0.000000000               0.000000000               0.000000000               0.000000000              -0.000241452               0.005017713              -0.001272176              -0.000717758               0.001911807               0.001194049               0.000000000               0.000000000               0.000000000               0.000000000               0.000293429               0.005171328              -0.001166259              -0.000536380               0.001902552               0.001366172               0.000000000               0.000000000               0.000000000               0.000000000               0.000827984               0.005250960              -0.001052702              -0.000345876               0.001865594               0.001519719               0.000000000               0.000000000               0.000000000               0.000000000               0.001372604               0.005268679              -0.000925420              -0.000143859               0.001804162               0.001660303               0.000000000               0.000000000               0.000000000               0.000000000               0.001929906               0.005244648              -0.000776234               0.000068132               0.001725488               0.001793620               0.000000000               0.000000000               0.000000000               0.000000000               0.002506316               0.005189451              -0.000583936               0.000291184               0.001632738               0.001923922               0.000000000               0.000000000               0.000000000               0.000000000               0.003100918               0.005105675              -0.000327953               0.000524630               0.001526998               0.002051628               0.000000000               0.000000000               0.000000000               0.000000000               0.003520532               0.005101153              -0.000197355               0.000682548               0.001472851               0.002155400               0.000000000               0.000000000               0.000000000               0.000000000              -0.014098843              -0.001237396               0.000726935              -0.005132388               0.001298322              -0.003834066               0.000000000               0.000000000               0.000000000               0.000000000              -0.009674290              -0.000542328              -0.000011364              -0.003560065               0.001005906              -0.002554160               0.000000000               0.000000000               0.000000000               0.000000000              -0.006179578              -0.000070115              -0.000705538              -0.002308575               0.000746148              -0.001562427               0.000000000               0.000000000               0.000000000               0.000000000              -0.004274348               0.000851306              -0.000944890              -0.001709292               0.000853526              -0.000855765               0.000000000               0.000000000               0.000000000               0.000000000              -0.003092940               0.001777089              -0.000999219              -0.001381986               0.001053018              -0.000328969               0.000000000               0.000000000               0.000000000               0.000000000              -0.002264169               0.002584280              -0.000974472              -0.001172096               0.001252116               0.000080020               0.000000000               0.000000000               0.000000000               0.000000000              -0.001612609               0.003254940              -0.000919445              -0.001011594               0.001422167               0.000410573               0.000000000               0.000000000               0.000000000               0.000000000              -0.001043104               0.003802700              -0.000852877              -0.000866500               0.001556387               0.000689887               0.000000000               0.000000000               0.000000000               0.000000000              -0.000504874               0.004241016              -0.000787901              -0.000719453               0.001653476               0.000934022               0.000000000               0.000000000               0.000000000               0.000000000               0.000023893               0.004576275              -0.000728260              -0.000563073               0.001713101               0.001150027               0.000000000               0.000000000               0.000000000               0.000000000               0.000557086               0.004817970              -0.000667422              -0.000393338               0.001737087               0.001343748               0.000000000               0.000000000               0.000000000               0.000000000               0.001109849               0.004980056              -0.000605324              -0.000206313               0.001728773               0.001522460               0.000000000               0.000000000               0.000000000               0.000000000               0.001702450               0.005079773              -0.000535511               0.000003446               0.001692092               0.001695538               0.000000000               0.000000000               0.000000000               0.000000000               0.002347047               0.005130484              -0.000451616               0.000238830               0.001630534               0.001869364               0.000000000               0.000000000               0.000000000               0.000000000               0.003058064               0.005137401              -0.000344955               0.000504594               0.001544252               0.002048846               0.000000000               0.000000000               0.000000000               0.000000000               0.003852035               0.005090554              -0.000196488               0.000808186               0.001427439               0.002235625               0.000000000               0.000000000               0.000000000               0.000000000               0.004453458               0.005115785              -0.000121418               0.001030563               0.001361724               0.002392287               0.000000000               0.000000000               0.000000000               0.000000000              -0.014523312              -0.001269416              -0.000000000              -0.005287562               0.001339373              -0.003948189               0.000000000               0.000000000               0.000000000               0.000000000              -0.009911502              -0.000693805              -0.000000000              -0.003630085               0.000978753              -0.002651332               0.000000000               0.000000000               0.000000000               0.000000000              -0.006227938              -0.000347501              -0.000000000              -0.002292038               0.000648174              -0.001643863               0.000000000               0.000000000               0.000000000               0.000000000              -0.004229953               0.000532085              -0.000000000              -0.001652741               0.000728270              -0.000924471               0.000000000               0.000000000               0.000000000               0.000000000              -0.003004567               0.001457791              -0.000000000              -0.001308934               0.000922236              -0.000386699               0.000000000               0.000000000               0.000000000               0.000000000              -0.002157955               0.002284247              -0.000000000              -0.001094762               0.001126328               0.000031567               0.000000000               0.000000000               0.000000000               0.000000000              -0.001495844               0.002980720              -0.000000000              -0.000933529               0.001304740               0.000371211               0.000000000               0.000000000               0.000000000               0.000000000              -0.000927401               0.003560450              -0.000000000              -0.000792830               0.001451081               0.000658252               0.000000000               0.000000000               0.000000000               0.000000000              -0.000392371               0.004040479              -0.000000000              -0.000652198               0.001564212               0.000912015               0.000000000               0.000000000               0.000000000               0.000000000               0.000126537               0.004412583              -0.000000000              -0.000504120               0.001638886               0.001134766               0.000000000               0.000000000               0.000000000               0.000000000               0.000656931               0.004682172              -0.000000000              -0.000338922               0.001673682               0.001334761               0.000000000               0.000000000               0.000000000               0.000000000               0.001218633               0.004871803               0.000000000              -0.000151988               0.001674581               0.001522593               0.000000000               0.000000000               0.000000000               0.000000000               0.001826596               0.005001918               0.000000000               0.000059733               0.001647378               0.001707111               0.000000000               0.000000000               0.000000000               0.000000000               0.002504269               0.005084301              -0.000000000               0.000303560               0.001593563               0.001897124               0.000000000               0.000000000               0.000000000               0.000000000               0.003266037               0.005110859               0.000000000               0.000585901               0.001508302               0.002094203               0.000000000               0.000000000               0.000000000               0.000000000               0.004133154               0.005071927               0.000000000               0.000915933               0.001385315               0.002301247               0.000000000               0.000000000               0.000000000               0.000000000               0.004804225               0.005108645              -0.000000000               0.001162992               0.001315200               0.002478193               0.000000000               0.000000000               0.000000000               0.000000000               0.000000000               0.000000000               0.000000000               0.000000000               0.000000000               0.000000000               0.000000000               0.000000000               0.000000000               0.000000000               0.000000000               0.000000000               0.000000000               0.000000000               0.000000000               0.000000000               0.000000000               0.000000000               0.000000000               0.000000000               0.000000000               0.000000000               0.000000000               0.000000000               0.000000000               0.000000000               0.000000000               0.000000000               0.000000000               0.000000000               0.000000000               0.000000000               0.000000000               0.000000000               0.000000000               0.000000000               0.000000000               0.000000000               0.000000000               0.000000000               0.000000000               0.000000000               0.000000000               0.000000000               0.000000000               0.000000000               0.000000000               0.000000000               0.000000000               0.000000000               0.000000000               0.000000000               0.000000000               0.000000000               0.000000000               0.000000000               0.000000000               0.000000000               0.000000000               0.000000000               0.000000000               0.000000000               0.000000000               0.000000000               0.000000000               0.000000000               0.000000000               0.000000000               0.000000000               0.000000000               0.000000000               0.000000000               0.000000000               0.000000000               0.000000000               0.000000000               0.000000000               0.000000000               0.000000000               0.000000000               0.000000000               0.000000000               0.000000000               0.000000000               0.000000000               0.000000000               0.000000000               0.000000000               0.000000000               0.000000000               0.000000000               0.000000000               0.000000000               0.000000000               0.000000000               0.000000000               0.000000000               0.000000000               0.000000000               0.000000000               0.000000000               0.000000000               0.000000000               0.000000000               0.000000000               0.000000000               0.000000000               0.000000000               0.000000000               0.000000000               0.000000000               0.000000000               0.000000000               0.000000000               0.000000000               0.000000000               0.000000000               0.000000000               0.000000000               0.000000000               0.000000000               0.000000000               0.000000000               0.000000000               0.000000000               0.000000000               0.000000000               0.000000000               0.000000000               0.000000000               0.000000000               0.000000000               0.000000000               0.000000000               0.000000000               0.000000000               0.000000000               0.000000000               0.000000000               0.000000000               0.000000000               0.000000000               0.000000000               0.000000000               0.000000000               0.000000000               0.000000000               0.000000000               0.000000000               0.000000000               0.000000000               0.000000000               0.000000000               0.000000000               0.000000000               0.000000000               0.000000000               0.000000000               0.000000000               0.000000000               0.000000000               0.000000000               0.000000000               0.000000000               0.000000000               0.000000000               0.000000000               0.000000000               0.000000000               0.000000000               0.002262600               0.023238432               0.001561215              -0.002056324               0.008431508               0.006375184               0.000000000               0.000000000               0.000000000               0.000000000               0.002007540               0.017900293               0.000690616              -0.001484706               0.006461607               0.004976901               0.000000000               0.000000000               0.000000000               0.000000000               0.002430073               0.013618541              -0.000165028              -0.000791038               0.004803148               0.004012109               0.000000000               0.000000000               0.000000000               0.000000000               0.002140421               0.011194682              -0.000513204              -0.000596676               0.003930415               0.003333739               0.000000000               0.000000000               0.000000000               0.000000000               0.001692028               0.009649042              -0.000650302              -0.000571618               0.003406854               0.002835236               0.000000000               0.000000000               0.000000000               0.000000000               0.001258774               0.008555929              -0.000691500              -0.000597450               0.003051098               0.002453648               0.000000000               0.000000000               0.000000000               0.000000000               0.000888356               0.007703637              -0.000685660              -0.000629820               0.002777793               0.002147973               0.000000000               0.000000000               0.000000000               0.000000000               0.000593087               0.006979320              -0.000657873              -0.000650006               0.002543085               0.001893079               0.000000000               0.000000000               0.000000000               0.000000000               0.000364379               0.006318122              -0.000619726              -0.000653122               0.002323727               0.001670605               0.000000000               0.000000000               0.000000000               0.000000000               0.000193094               0.005683123              -0.000577534              -0.000637979               0.002107015               0.001469036               0.000000000               0.000000000               0.000000000               0.000000000               0.000074980               0.005061059              -0.000540195              -0.000604514               0.001888507               0.001283994               0.000000000               0.000000000               0.000000000               0.000000000              -0.000008451               0.004440721              -0.000505214              -0.000558258               0.001666312               0.001108054               0.000000000               0.000000000               0.000000000               0.000000000              -0.000068631               0.003809858              -0.000462419              -0.000501968               0.001437262               0.000935295               0.000000000               0.000000000               0.000000000               0.000000000              -0.000102485               0.003153655              -0.000402049              -0.000432638               0.001195420               0.000762782               0.000000000               0.000000000               0.000000000               0.000000000              -0.000104512               0.002456085              -0.000312388              -0.000346202               0.000934088               0.000587885               0.000000000               0.000000000               0.000000000               0.000000000              -0.000066372               0.001697739              -0.000179796              -0.000237106               0.000644943               0.000407836               0.000000000               0.000000000               0.000000000               0.000000000              -0.000095551               0.001133498              -0.000110956              -0.000177519               0.000437002               0.000259483               0.000000000               0.000000000               0.000000000               0.000000000               0.002405932               0.021771553               0.002885027              -0.001819216               0.007863517               0.006044301               0.000000000               0.000000000               0.000000000               0.000000000               0.001793182               0.016978546               0.001267534              -0.001449872               0.006142749               0.004692877               0.000000000               0.000000000               0.000000000               0.000000000               0.001836571               0.013258978              -0.000307260              -0.000968656               0.004742500               0.003773845               0.000000000               0.000000000               0.000000000               0.000000000               0.001423686               0.011120668              -0.000923098              -0.000856199               0.003992252               0.003136053               0.000000000               0.000000000               0.000000000               0.000000000               0.000970215               0.009716763              -0.001150738              -0.000850763               0.003522476               0.002671713               0.000000000               0.000000000               0.000000000               0.000000000               0.000581148               0.008689206              -0.001208946              -0.000868219               0.003185779               0.002317560               0.000000000               0.000000000               0.000000000               0.000000000               0.000279218               0.007866050              -0.001188350              -0.000878548               0.002914840               0.002036292               0.000000000               0.000000000               0.000000000               0.000000000               0.000060125               0.007158260              -0.001130924              -0.000872234               0.002676807               0.001804573               0.000000000               0.000000000               0.000000000               0.000000000              -0.000096508               0.006509704              -0.001054613              -0.000849902               0.002453180               0.001603278               0.000000000               0.000000000               0.000000000               0.000000000              -0.000196578               0.005894126              -0.000973672              -0.000810481               0.002234849               0.001424368               0.000000000               0.000000000               0.000000000               0.000000000              -0.000246959               0.005297223              -0.000900257              -0.000754761               0.002017310               0.001262549               0.000000000               0.000000000               0.000000000               0.000000000              -0.000263949               0.004712017              -0.000831242              -0.000687982               0.001799984               0.001112002               0.000000000               0.000000000               0.000000000               0.000000000              -0.000254201               0.004135997              -0.000749575              -0.000612324               0.001582760               0.000970436               0.000000000               0.000000000               0.000000000               0.000000000              -0.000223015               0.003561713              -0.000639744              -0.000528844               0.001363507               0.000834663               0.000000000               0.000000000               0.000000000               0.000000000              -0.000168243               0.002988954              -0.000486106              -0.000436710               0.001141878               0.000705168               0.000000000               0.000000000               0.000000000               0.000000000              -0.000089411               0.002423175              -0.000272014              -0.000336425               0.000919859               0.000583433               0.000000000               0.000000000               0.000000000               0.000000000              -0.000083628               0.002039340              -0.000161922              -0.000286277               0.000775199               0.000488922               0.000000000               0.000000000               0.000000000               0.000000000               0.002511786               0.019543596               0.003787274              -0.001501028               0.007014809               0.005513781               0.000000000               0.000000000               0.000000000               0.000000000               0.001406221               0.015606308               0.001656898              -0.001423453               0.005676535               0.004253082               0.000000000               0.000000000               0.000000000               0.000000000               0.000931532               0.012730726              -0.000384441              -0.001242013               0.004657537               0.003415524               0.000000000               0.000000000               0.000000000               0.000000000               0.000381710               0.010988011              -0.001133141              -0.001230357               0.004072753               0.002842396               0.000000000               0.000000000               0.000000000               0.000000000              -0.000046910               0.009774035              -0.001385764              -0.001239343               0.003671093               0.002431750               0.000000000               0.000000000               0.000000000               0.000000000              -0.000344750               0.008833868              -0.001433797              -0.001233512               0.003355764               0.002122252               0.000000000               0.000000000               0.000000000               0.000000000              -0.000530061               0.008049696              -0.001392572              -0.001204982               0.003084866               0.001879883               0.000000000               0.000000000               0.000000000               0.000000000              -0.000632154               0.007359630              -0.001309231              -0.001157009               0.002838855               0.001681846               0.000000000               0.000000000               0.000000000               0.000000000              -0.000675348               0.006727119              -0.001207143              -0.001094143               0.002607065               0.001512922               0.000000000               0.000000000               0.000000000               0.000000000              -0.000667551               0.006135543              -0.001100404              -0.001017272               0.002384251               0.001366979               0.000000000               0.000000000               0.000000000               0.000000000              -0.000622162               0.005572891              -0.001002659              -0.000929920               0.002167585               0.001237665               0.000000000               0.000000000               0.000000000               0.000000000              -0.000550036               0.005041163              -0.000912812              -0.000836407               0.001959173               0.001122766               0.000000000               0.000000000               0.000000000               0.000000000              -0.000458013               0.004540689              -0.000808441              -0.000739339               0.001759994               0.001020655               0.000000000               0.000000000               0.000000000               0.000000000              -0.000352803               0.004075495              -0.000671367              -0.000641737               0.001572397               0.000930660               0.000000000               0.000000000               0.000000000               0.000000000              -0.000240542               0.003653766              -0.000492362              -0.000546923               0.001400217               0.000853295               0.000000000               0.000000000               0.000000000               0.000000000              -0.000123256               0.003300231              -0.000267407              -0.000458749               0.001252982               0.000794233               0.000000000               0.000000000               0.000000000               0.000000000              -0.000081233               0.003099923              -0.000152451              -0.000417952               0.001172615               0.000754663               0.000000000               0.000000000               0.000000000               0.000000000               0.002426844               0.016837477               0.004181067              -0.001194618               0.006010642               0.004816023               0.000000000               0.000000000               0.000000000               0.000000000               0.000818495               0.013977418               0.001843534              -0.001440239               0.005139172               0.003698933               0.000000000               0.000000000               0.000000000               0.000000000              -0.000182381               0.012103522              -0.000354748              -0.001581329               0.004561577               0.002980247               0.000000000               0.000000000               0.000000000               0.000000000              -0.000806178               0.010789181              -0.001099832              -0.001650960               0.004146678               0.002495717               0.000000000               0.000000000               0.000000000               0.000000000              -0.001144294               0.009767398              -0.001323202              -0.001650031               0.003805777               0.002155746               0.000000000               0.000000000               0.000000000               0.000000000              -0.001297172               0.008911664              -0.001347441              -0.001600394               0.003503990               0.001903596               0.000000000               0.000000000               0.000000000               0.000000000              -0.001328295               0.008168673              -0.001289729              -0.001519192               0.003229261               0.001710069               0.000000000               0.000000000               0.000000000               0.000000000              -0.001279720               0.007498783              -0.001196188              -0.001417240               0.002971983               0.001554743               0.000000000               0.000000000               0.000000000               0.000000000              -0.001179277               0.006882208              -0.001088531              -0.001302502               0.002728214               0.001425712               0.000000000               0.000000000               0.000000000               0.000000000              -0.001048139               0.006309929              -0.000977774              -0.001181791               0.002497219               0.001315428               0.000000000               0.000000000               0.000000000               0.000000000              -0.000899504               0.005790121              -0.000875383              -0.001061077               0.002283713               0.001222636               0.000000000               0.000000000               0.000000000               0.000000000              -0.000742437               0.005318387              -0.000782037              -0.000943210               0.002087181               0.001143971               0.000000000               0.000000000               0.000000000               0.000000000              -0.000577161               0.004902276              -0.000676966              -0.000829218               0.001910482               0.001081264               0.000000000               0.000000000               0.000000000               0.000000000              -0.000411683               0.004548040              -0.000541752              -0.000722884               0.001756960               0.001034075               0.000000000               0.000000000               0.000000000               0.000000000              -0.000254056               0.004264582              -0.000377987              -0.000628342               0.001630960               0.001002618               0.000000000               0.000000000               0.000000000               0.000000000              -0.000118615               0.004074860              -0.000197115              -0.000553837               0.001542885               0.000989049               0.000000000               0.000000000               0.000000000               0.000000000              -0.000062943               0.003998652              -0.000106307              -0.000523434               0.001507349               0.000983915               0.000000000               0.000000000               0.000000000               0.000000000               0.002026618               0.013936898               0.004090162              -0.000982131               0.004972962               0.003990831               0.000000000               0.000000000               0.000000000               0.000000000               0.000037653               0.012265010               0.001866673              -0.001519004               0.004594630               0.003075626               0.000000000               0.000000000               0.000000000               0.000000000              -0.001373147               0.011418452              -0.000191764              -0.001942232               0.004453523               0.002511291               0.000000000               0.000000000               0.000000000               0.000000000              -0.001958044               0.010502489              -0.000833032              -0.002047073               0.004183152               0.002136079               0.000000000               0.000000000               0.000000000               0.000000000              -0.002133747               0.009647555              -0.001005536              -0.002006095               0.003884518               0.001878423               0.000000000               0.000000000               0.000000000               0.000000000              -0.002097594               0.008870756              -0.001014715              -0.001895438               0.003588702               0.001693264               0.000000000               0.000000000               0.000000000               0.000000000              -0.001947703               0.008167571              -0.000960453              -0.001751331               0.003306273               0.001554942               0.000000000               0.000000000               0.000000000               0.000000000              -0.001736196               0.007518491              -0.000876993              -0.001590881               0.003036432               0.001445551               0.000000000               0.000000000               0.000000000               0.000000000              -0.001495417               0.006915176              -0.000783322              -0.001425175               0.002780094               0.001354919               0.000000000               0.000000000               0.000000000               0.000000000              -0.001252528               0.006370248              -0.000694014              -0.001265976               0.002545387               0.001279411               0.000000000               0.000000000               0.000000000               0.000000000              -0.001011696               0.005900285              -0.000610432              -0.001116919               0.002339048               0.001222129               0.000000000               0.000000000               0.000000000               0.000000000              -0.000780267               0.005496878              -0.000532752              -0.000979708               0.002158843               0.001179136               0.000000000               0.000000000               0.000000000               0.000000000              -0.000566937               0.005159408              -0.000448771              -0.000857525               0.002005627               0.001148102               0.000000000               0.000000000               0.000000000               0.000000000              -0.000379051               0.004889840              -0.000337838              -0.000753372               0.001881054               0.001127682               0.000000000               0.000000000               0.000000000               0.000000000              -0.000217100               0.004696341              -0.000214060              -0.000668454               0.001788249               0.001119795               0.000000000               0.000000000               0.000000000               0.000000000              -0.000092929               0.004590740              -0.000102981              -0.000608689               0.001733128               0.001124439               0.000000000               0.000000000               0.000000000               0.000000000              -0.000044105               0.004561646              -0.000052878              -0.000586744               0.001716115               0.001129371               0.000000000               0.000000000               0.000000000               0.000000000               0.001256515               0.011081570               0.003609826              -0.000914004               0.003998487               0.003084483               0.000000000               0.000000000               0.000000000               0.000000000              -0.000885000               0.010599849               0.001787813              -0.001656853               0.004085531               0.002428679               0.000000000               0.000000000               0.000000000               0.000000000              -0.002506630               0.010692793               0.000108687              -0.002276580               0.004323089               0.002046509               0.000000000               0.000000000               0.000000000               0.000000000              -0.002925333               0.010111298              -0.000383515              -0.002360906               0.004157368               0.001796461               0.000000000               0.000000000               0.000000000               0.000000000              -0.002877561               0.009398096              -0.000520210              -0.002253842               0.003883948               0.001630106               0.000000000               0.000000000               0.000000000               0.000000000              -0.002633483               0.008693921              -0.000538851              -0.002074291               0.003589375               0.001515084               0.000000000               0.000000000               0.000000000               0.000000000              -0.002307551               0.008024152              -0.000513550              -0.001868346               0.003297472               0.001429127               0.000000000               0.000000000               0.000000000               0.000000000              -0.001950292               0.007396799              -0.000462915              -0.001655955               0.003017560               0.001361605               0.000000000               0.000000000               0.000000000               0.000000000              -0.001587861               0.006825721              -0.000404819              -0.001448659               0.002758104               0.001309445               0.000000000               0.000000000               0.000000000               0.000000000              -0.001251566               0.006328819              -0.000356837              -0.001260436               0.002529731               0.001269294               0.000000000               0.000000000               0.000000000               0.000000000              -0.000948560               0.005914493              -0.000313058              -0.001095019               0.002336484               0.001241465               0.000000000               0.000000000               0.000000000               0.000000000              -0.000679017               0.005573330              -0.000265855              -0.000951295               0.002174857               0.001223561               0.000000000               0.000000000               0.000000000               0.000000000              -0.000454681               0.005291435              -0.000213133              -0.000831933               0.002041105               0.001209172               0.000000000               0.000000000               0.000000000               0.000000000              -0.000279186               0.005070850              -0.000143224              -0.000738549               0.001936449               0.001197900               0.000000000               0.000000000               0.000000000               0.000000000              -0.000145118               0.004924455              -0.000074037              -0.000669974               0.001864793               0.001194819               0.000000000               0.000000000               0.000000000               0.000000000              -0.000055030               0.004849696              -0.000029796              -0.000626847               0.001825498               0.001198652               0.000000000               0.000000000               0.000000000               0.000000000              -0.000027208               0.004825839              -0.000015796              -0.000613431               0.001813074               0.001199643               0.000000000               0.000000000               0.000000000               0.000000000               0.000156054               0.008454751               0.002852424              -0.000998323               0.003150996               0.002152673               0.000000000               0.000000000               0.000000000               0.000000000              -0.001892443               0.009082007               0.001658976              -0.001844913               0.003642276               0.001797363               0.000000000               0.000000000               0.000000000               0.000000000              -0.003469990               0.009936549               0.000525807              -0.002543309               0.004159919               0.001616611               0.000000000               0.000000000               0.000000000               0.000000000              -0.003621238               0.009616953               0.000165565              -0.002560077               0.004058978               0.001498901               0.000000000               0.000000000               0.000000000               0.000000000              -0.003326677               0.009032878               0.000029824              -0.002376608               0.003803132               0.001426524               0.000000000               0.000000000               0.000000000               0.000000000              -0.002883331               0.008398291              -0.000023427              -0.002131030               0.003509746               0.001378715               0.000000000               0.000000000               0.000000000               0.000000000              -0.002398453               0.007766877              -0.000046751              -0.001870275               0.003212358               0.001342083               0.000000000               0.000000000               0.000000000               0.000000000              -0.001919320               0.007174153              -0.000051203              -0.001616510               0.002930197               0.001313687               0.000000000               0.000000000               0.000000000               0.000000000              -0.001472928               0.006652939              -0.000044899              -0.001383962               0.002678945               0.001294983               0.000000000               0.000000000               0.000000000               0.000000000              -0.001076637               0.006214896              -0.000045805              -0.001180598               0.002465144               0.001284546               0.000000000               0.000000000               0.000000000               0.000000000              -0.000747527               0.005847112              -0.000048492              -0.001011209               0.002286087               0.001274878               0.000000000               0.000000000               0.000000000               0.000000000              -0.000483726               0.005538878              -0.000040582              -0.000873755               0.002137526               0.001263771               0.000000000               0.000000000               0.000000000               0.000000000              -0.000282828               0.005289854              -0.000027679              -0.000767290               0.002019030               0.001251740               0.000000000               0.000000000               0.000000000               0.000000000              -0.000146580               0.005105495              -0.000007779              -0.000693152               0.001932865               0.001239713               0.000000000               0.000000000               0.000000000               0.000000000              -0.000061175               0.004995022               0.000006915              -0.000647317               0.001880763               0.001233446               0.000000000               0.000000000               0.000000000               0.000000000              -0.000015943               0.004943722               0.000005268              -0.000623942               0.001855872               0.001231929               0.000000000               0.000000000               0.000000000               0.000000000              -0.000008732               0.004925646              -0.000000699              -0.000618979               0.001848192               0.001229213               0.000000000               0.000000000               0.000000000               0.000000000              -0.001141632               0.006254268               0.001941990              -0.001209894               0.002488033               0.001278139               0.000000000               0.000000000               0.000000000               0.000000000              -0.002876799               0.007731134               0.001520380              -0.002045187               0.003258747               0.001213561               0.000000000               0.000000000               0.000000000               0.000000000              -0.004223347               0.009177766               0.001021252              -0.002730969               0.003969548               0.001238579               0.000000000               0.000000000               0.000000000               0.000000000              -0.004098297               0.009126696               0.000739998              -0.002677692               0.003934765               0.001257074               0.000000000               0.000000000               0.000000000               0.000000000              -0.003601237               0.008694402               0.000576346              -0.002437258               0.003710524               0.001273266               0.000000000               0.000000000               0.000000000               0.000000000              -0.003001254               0.008151530               0.000473451              -0.002144406               0.003431952               0.001287545               0.000000000               0.000000000               0.000000000               0.000000000              -0.002390719               0.007584747               0.000394949              -0.001844608               0.003143093               0.001298485               0.000000000               0.000000000               0.000000000               0.000000000              -0.001818014               0.007044955               0.000329000              -0.001562371               0.002869085               0.001306714               0.000000000               0.000000000               0.000000000               0.000000000              -0.001312137               0.006570397               0.000274901              -0.001313348               0.002627893               0.001314545               0.000000000               0.000000000               0.000000000               0.000000000              -0.000882284               0.006172739               0.000226334              -0.001102446               0.002425041               0.001322595               0.000000000               0.000000000               0.000000000               0.000000000              -0.000542799               0.005824068               0.000182350              -0.000931556               0.002251855               0.001320299               0.000000000               0.000000000               0.000000000               0.000000000              -0.000289277               0.005522443               0.000145516              -0.000798782               0.002107057               0.001308275               0.000000000               0.000000000               0.000000000               0.000000000              -0.000108887               0.005283939               0.000107963              -0.000701323               0.001995070               0.001293747               0.000000000               0.000000000               0.000000000               0.000000000              -0.000009416               0.005112503               0.000070763              -0.000642592               0.001918348               0.001275756               0.000000000               0.000000000               0.000000000               0.000000000               0.000021942               0.005019122               0.000038488              -0.000619161               0.001879411               0.001260250               0.000000000               0.000000000               0.000000000               0.000000000               0.000015876               0.004983664               0.000013104              -0.000617003               0.001866872               0.001249869               0.000000000               0.000000000               0.000000000               0.000000000               0.000003545               0.004973789               0.000001541              -0.000620393               0.001864710               0.001244318               0.000000000               0.000000000               0.000000000               0.000000000              -0.002644190               0.004225778               0.000995816              -0.001519790               0.001915175               0.000395385               0.000000000               0.000000000               0.000000000               0.000000000              -0.003709101               0.006162728               0.001370107              -0.002161249               0.002774638               0.000613389               0.000000000               0.000000000               0.000000000               0.000000000              -0.004674792               0.008035632               0.001538588              -0.002757494               0.003597682               0.000840187               0.000000000               0.000000000               0.000000000               0.000000000              -0.004401252               0.008383298               0.001344493              -0.002698375               0.003693863               0.000995488               0.000000000               0.000000000               0.000000000               0.000000000              -0.003820974               0.008231909               0.001149009              -0.002461848               0.003564558               0.001102710               0.000000000               0.000000000               0.000000000               0.000000000              -0.003171198               0.007898173               0.000991929              -0.002176465               0.003358186               0.001181721               0.000000000               0.000000000               0.000000000               0.000000000              -0.002523785               0.007488580               0.000858097              -0.001882487               0.003123664               0.001241177               0.000000000               0.000000000               0.000000000               0.000000000              -0.001919408               0.007064905               0.000734875              -0.001602887               0.002889240               0.001286353               0.000000000               0.000000000               0.000000000               0.000000000              -0.001381736               0.006665959               0.000625682              -0.001351393               0.002672428               0.001321036               0.000000000               0.000000000               0.000000000               0.000000000              -0.000922562               0.006307508               0.000530023              -0.001134397               0.002480614               0.001346217               0.000000000               0.000000000               0.000000000               0.000000000              -0.000551945               0.005976131               0.000441853              -0.000953993               0.002310021               0.001356028               0.000000000               0.000000000               0.000000000               0.000000000              -0.000271313               0.005675334               0.000358664              -0.000811157               0.002162145               0.001350988               0.000000000               0.000000000               0.000000000               0.000000000              -0.000073911               0.005412469               0.000269676              -0.000704273               0.002038896               0.001334623               0.000000000               0.000000000               0.000000000               0.000000000               0.000043615               0.005209133               0.000174342              -0.000634785               0.001947955               0.001313171               0.000000000               0.000000000               0.000000000               0.000000000               0.000087002               0.005083149               0.000089975              -0.000602766               0.001895288               0.001292522               0.000000000               0.000000000               0.000000000               0.000000000               0.000073165               0.005023660               0.000030991              -0.000600519               0.001874710               0.001274190               0.000000000               0.000000000               0.000000000               0.000000000               0.000046564               0.005003676               0.000005262              -0.000607997               0.001870541               0.001262544               0.000000000               0.000000000               0.000000000               0.000000000              -0.004533966               0.002392026               0.000083627              -0.001999237               0.001463745              -0.000535493               0.000000000               0.000000000               0.000000000               0.000000000              -0.004641836               0.004573494               0.001158440              -0.002312370               0.002295272              -0.000017098               0.000000000               0.000000000               0.000000000               0.000000000              -0.005035406               0.006666246               0.001955455              -0.002721552               0.003129243               0.000407691               0.000000000               0.000000000               0.000000000               0.000000000              -0.004625163               0.007391710               0.001919190              -0.002658394               0.003350009               0.000691616               0.000000000               0.000000000               0.000000000               0.000000000              -0.004002149               0.007568452               0.001726093              -0.002446857               0.003338411               0.000891554               0.000000000               0.000000000               0.000000000               0.000000000              -0.003337804               0.007492200               0.001528885              -0.002188196               0.003226774               0.001038577               0.000000000               0.000000000               0.000000000               0.000000000              -0.002682650               0.007280456               0.001347640              -0.001916046               0.003065476               0.001149430               0.000000000               0.000000000               0.000000000               0.000000000              -0.002064579               0.007003343               0.001178152              -0.001649631               0.002884301               0.001234670               0.000000000               0.000000000               0.000000000               0.000000000              -0.001499000               0.006710703               0.001026553              -0.001400960               0.002703865               0.001302905               0.000000000               0.000000000               0.000000000               0.000000000              -0.000998506               0.006421997               0.000892186              -0.001177187               0.002533040               0.001355853               0.000000000               0.000000000               0.000000000               0.000000000              -0.000576957               0.006132657               0.000766409              -0.000982939               0.002371845               0.001388906               0.000000000               0.000000000               0.000000000               0.000000000              -0.000242710               0.005849436               0.000643014              -0.000822194               0.002223857               0.001401663               0.000000000               0.000000000               0.000000000               0.000000000               0.000005561               0.005579981               0.000509623              -0.000695411               0.002091779               0.001396368               0.000000000               0.000000000               0.000000000               0.000000000               0.000171762               0.005347591               0.000361721              -0.000604037               0.001983858               0.001379821               0.000000000               0.000000000               0.000000000               0.000000000               0.000251671               0.005174103               0.000213926              -0.000552385               0.001908812               0.001356427               0.000000000               0.000000000               0.000000000               0.000000000               0.000248063               0.005066703               0.000091067              -0.000540313               0.001868988               0.001328675               0.000000000               0.000000000               0.000000000               0.000000000               0.000206216               0.005015582               0.000031399              -0.000549616               0.001855049               0.001305434               0.000000000               0.000000000               0.000000000               0.000000000              -0.006678168               0.000910641              -0.000708185              -0.002618140               0.001176252              -0.001441888               0.000000000               0.000000000               0.000000000               0.000000000              -0.005713490               0.003074149               0.000871134              -0.002526823               0.001866978              -0.000659845               0.000000000               0.000000000               0.000000000               0.000000000              -0.005334218               0.005096869               0.002162179              -0.002637435               0.002578083              -0.000059352               0.000000000               0.000000000               0.000000000               0.000000000              -0.004700826               0.006089013               0.002323452              -0.002523931               0.002870960               0.000347029               0.000000000               0.000000000               0.000000000               0.000000000              -0.004017401               0.006568214               0.002185225              -0.002327547               0.002965231               0.000637684               0.000000000               0.000000000               0.000000000               0.000000000              -0.003346776               0.006757185               0.001982628              -0.002099685               0.002952267               0.000852582               0.000000000               0.000000000               0.000000000               0.000000000              -0.002698998               0.006770543               0.001775179              -0.001858438               0.002876304               0.001017866               0.000000000               0.000000000               0.000000000               0.000000000              -0.002081628               0.006674380               0.001577141              -0.001614904               0.002763072               0.001148168               0.000000000               0.000000000               0.000000000               0.000000000              -0.001503955               0.006523762               0.001401321              -0.001379450               0.002634382               0.001254932               0.000000000               0.000000000               0.000000000               0.000000000              -0.000973574               0.006342609               0.001244925              -0.001157914               0.002500153               0.001342239               0.000000000               0.000000000               0.000000000               0.000000000              -0.000505415               0.006132746               0.001095547              -0.000956122               0.002362936               0.001406813               0.000000000               0.000000000               0.000000000               0.000000000              -0.000111613               0.005901070               0.000946123              -0.000779487               0.002226832               0.001447346               0.000000000               0.000000000               0.000000000               0.000000000               0.000203558               0.005660654               0.000783556              -0.000631246               0.002097281               0.001466035               0.000000000               0.000000000               0.000000000               0.000000000               0.000438536               0.005434750               0.000593092              -0.000514892               0.001983196               0.001468304               0.000000000               0.000000000               0.000000000               0.000000000               0.000583413               0.005244831               0.000385236              -0.000436823               0.001893867               0.001457044               0.000000000               0.000000000               0.000000000               0.000000000               0.000625855               0.005103404               0.000184660              -0.000403229               0.001835527               0.001432298               0.000000000               0.000000000               0.000000000               0.000000000               0.000598768               0.005033493               0.000082602              -0.000404648               0.001812697               0.001408049               0.000000000               0.000000000               0.000000000               0.000000000              -0.008939007              -0.000134237              -0.001252531              -0.003335345               0.001067028              -0.002268317               0.000000000               0.000000000               0.000000000               0.000000000              -0.006871103               0.001755007               0.000557542              -0.002796036               0.001517004              -0.001279032               0.000000000               0.000000000               0.000000000               0.000000000              -0.005597153               0.003474454               0.002124275              -0.002533235               0.002002549              -0.000530686               0.000000000               0.000000000               0.000000000               0.000000000              -0.004658778               0.004591449               0.002462406              -0.002320968               0.002304122              -0.000016846               0.000000000               0.000000000               0.000000000               0.000000000              -0.003875861               0.005301875               0.002409869              -0.002116178               0.002472666               0.000356488               0.000000000               0.000000000               0.000000000               0.000000000              -0.003188616               0.005731922               0.002238613              -0.001912217               0.002548027               0.000635809               0.000000000               0.000000000               0.000000000               0.000000000              -0.002554506               0.005972170               0.002036572              -0.001704458               0.002558855               0.000854398               0.000000000               0.000000000               0.000000000               0.000000000              -0.001947581               0.006077780               0.001834813              -0.001490062               0.002522593               0.001032531               0.000000000               0.000000000               0.000000000               0.000000000              -0.001369988               0.006092669               0.001653348              -0.001275326               0.002455978               0.001180651               0.000000000               0.000000000               0.000000000               0.000000000              -0.000826706               0.006046364               0.001491411              -0.001065808               0.002370704               0.001304895               0.000000000               0.000000000               0.000000000               0.000000000              -0.000321088               0.005947718               0.001337171              -0.000863871               0.002270510               0.001406639               0.000000000               0.000000000               0.000000000               0.000000000               0.000134339               0.005802196               0.001181952              -0.000674896               0.002159011               0.001484115               0.000000000               0.000000000               0.000000000               0.000000000               0.000526853               0.005627366               0.001009316              -0.000505850               0.002044387               0.001538536               0.000000000               0.000000000               0.000000000               0.000000000               0.000855397               0.005441507               0.000801910              -0.000359414               0.001933622               0.001574208               0.000000000               0.000000000               0.000000000               0.000000000               0.001110112               0.005262184               0.000558349              -0.000241481               0.001834538               0.001593057               0.000000000               0.000000000               0.000000000               0.000000000               0.001267950               0.005115440               0.000289488              -0.000163948               0.001759779               0.001595831               0.000000000               0.000000000               0.000000000               0.000000000               0.001316108               0.005051696               0.000150098              -0.000137921               0.001729856               0.001591934               0.000000000               0.000000000               0.000000000               0.000000000              -0.011096472              -0.000777753              -0.001446574              -0.004063955               0.001095393              -0.002968562               0.000000000               0.000000000               0.000000000               0.000000000              -0.008016881               0.000687158               0.000281368              -0.003092222               0.001259785              -0.001832437               0.000000000               0.000000000               0.000000000               0.000000000              -0.005836523               0.001963803               0.001838730              -0.002434168               0.001465980              -0.000968188               0.000000000               0.000000000               0.000000000               0.000000000              -0.004536214               0.003073316               0.002272519              -0.002085241               0.001719507              -0.000365735               0.000000000               0.000000000               0.000000000               0.000000000              -0.003617477               0.003924439               0.002300751              -0.001847105               0.001923834               0.000076729               0.000000000               0.000000000               0.000000000               0.000000000              -0.002890922               0.004542888               0.002183042              -0.001651953               0.002064931               0.000412978               0.000000000               0.000000000               0.000000000               0.000000000              -0.002261266               0.004981028               0.002017088              -0.001470601               0.002150526               0.000679925               0.000000000               0.000000000               0.000000000               0.000000000              -0.001673795               0.005280143               0.001840081              -0.001287689               0.002189259               0.000901570               0.000000000               0.000000000               0.000000000               0.000000000              -0.001108882               0.005466870               0.001673565              -0.001099188               0.002188667               0.001089480               0.000000000               0.000000000               0.000000000               0.000000000              -0.000564109               0.005565400               0.001526777              -0.000907214               0.002157519               0.001250305               0.000000000               0.000000000               0.000000000               0.000000000              -0.000035133               0.005595873               0.001389342              -0.000712658               0.002102825               0.001390167               0.000000000               0.000000000               0.000000000               0.000000000               0.000471449               0.005564024               0.001244845              -0.000518709               0.002027559               0.001508850               0.000000000               0.000000000               0.000000000               0.000000000               0.000943279               0.005480043               0.001082806              -0.000331276               0.001937088               0.001605812               0.000000000               0.000000000               0.000000000               0.000000000               0.001385444               0.005368066               0.000890290              -0.000151467               0.001839826               0.001688359               0.000000000               0.000000000               0.000000000               0.000000000               0.001793133               0.005239421               0.000650767               0.000017496               0.001740624               0.001758120               0.000000000               0.000000000               0.000000000               0.000000000               0.002146256               0.005115672               0.000354086               0.000165385               0.001650079               0.001815464               0.000000000               0.000000000               0.000000000               0.000000000               0.002351806               0.005077403               0.000199373               0.000247249               0.001610034               0.001857284               0.000000000               0.000000000               0.000000000               0.000000000              -0.012895122              -0.001106424              -0.001255041              -0.004697365               0.001196972              -0.003500393               0.000000000               0.000000000               0.000000000               0.000000000              -0.009002953              -0.000081957               0.000093752              -0.003365860               0.001094627              -0.002271233               0.000000000               0.000000000               0.000000000               0.000000000              -0.006040814               0.000734700               0.001342807              -0.002357140               0.001030606              -0.001326534               0.000000000               0.000000000               0.000000000               0.000000000              -0.004390323               0.001751842               0.001743868              -0.001865349               0.001205721              -0.000659628               0.000000000               0.000000000               0.000000000               0.000000000              -0.003324514               0.002663275               0.001813017              -0.001579599               0.001414281              -0.000165318               0.000000000               0.000000000               0.000000000               0.000000000              -0.002543195               0.003405464               0.001750215              -0.001379378               0.001594935               0.000215557               0.000000000               0.000000000               0.000000000               0.000000000              -0.001906562               0.003991082               0.001638009              -0.001213844               0.001734961               0.000521117               0.000000000               0.000000000               0.000000000               0.000000000              -0.001332819               0.004444563               0.001509162              -0.001055376               0.001833297               0.000777922               0.000000000               0.000000000               0.000000000               0.000000000              -0.000783691               0.004780510               0.001384076              -0.000891446               0.001890636               0.000999189               0.000000000               0.000000000               0.000000000               0.000000000              -0.000241452               0.005017713               0.001272176              -0.000717758               0.001911807               0.001194049               0.000000000               0.000000000               0.000000000               0.000000000               0.000293429               0.005171328               0.001166259              -0.000536380               0.001902552               0.001366172               0.000000000               0.000000000               0.000000000               0.000000000               0.000827984               0.005250960               0.001052702              -0.000345876               0.001865594               0.001519719               0.000000000               0.000000000               0.000000000               0.000000000               0.001372604               0.005268679               0.000925420              -0.000143859               0.001804162               0.001660303               0.000000000               0.000000000               0.000000000               0.000000000               0.001929906               0.005244648               0.000776234               0.000068132               0.001725488               0.001793620               0.000000000               0.000000000               0.000000000               0.000000000               0.002506316               0.005189451               0.000583936               0.000291184               0.001632738               0.001923922               0.000000000               0.000000000               0.000000000               0.000000000               0.003100918               0.005105675               0.000327953               0.000524630               0.001526998               0.002051628               0.000000000               0.000000000               0.000000000               0.000000000               0.003520532               0.005101153               0.000197355               0.000682548               0.001472851               0.002155400               0.000000000               0.000000000               0.000000000               0.000000000              -0.014098843              -0.001237396              -0.000726935              -0.005132388               0.001298322              -0.003834066               0.000000000               0.000000000               0.000000000               0.000000000              -0.009674290              -0.000542328               0.000011364              -0.003560065               0.001005906              -0.002554160               0.000000000               0.000000000               0.000000000               0.000000000              -0.006179578              -0.000070115               0.000705538              -0.002308575               0.000746148              -0.001562427               0.000000000               0.000000000               0.000000000               0.000000000              -0.004274348               0.000851306               0.000944890              -0.001709292               0.000853526              -0.000855765               0.000000000               0.000000000               0.000000000               0.000000000              -0.003092940               0.001777089               0.000999219              -0.001381986               0.001053018              -0.000328969               0.000000000               0.000000000               0.000000000               0.000000000              -0.002264169               0.002584280               0.000974472              -0.001172096               0.001252116               0.000080020               0.000000000               0.000000000               0.000000000               0.000000000              -0.001612609               0.003254940               0.000919445              -0.001011594               0.001422167               0.000410573               0.000000000               0.000000000               0.000000000               0.000000000              -0.001043104               0.003802700               0.000852877              -0.000866500               0.001556387               0.000689887               0.000000000               0.000000000               0.000000000               0.000000000              -0.000504874               0.004241016               0.000787901              -0.000719453               0.001653476               0.000934022               0.000000000               0.000000000               0.000000000               0.000000000               0.000023893               0.004576275               0.000728260              -0.000563073               0.001713101               0.001150027               0.000000000               0.000000000               0.000000000               0.000000000               0.000557086               0.004817970               0.000667422              -0.000393338               0.001737087               0.001343748               0.000000000               0.000000000               0.000000000               0.000000000               0.001109849               0.004980056               0.000605324              -0.000206313               0.001728773               0.001522460               0.000000000               0.000000000               0.000000000               0.000000000               0.001702450               0.005079773               0.000535511               0.000003446               0.001692092               0.001695538               0.000000000               0.000000000               0.000000000               0.000000000               0.002347047               0.005130484               0.000451616               0.000238830               0.001630534               0.001869364               0.000000000               0.000000000               0.000000000               0.000000000               0.003058064               0.005137401               0.000344955               0.000504594               0.001544252               0.002048846               0.000000000               0.000000000               0.000000000               0.000000000               0.003852035               0.005090554               0.000196488               0.000808186               0.001427439               0.002235625               0.000000000               0.000000000               0.000000000               0.000000000               0.004453458               0.005115785               0.000121418               0.001030563               0.001361724               0.002392287               0.000000000               0.000000000               0.000000000               0.000000000              -0.014523312              -0.001269416              -0.000000000              -0.005287562               0.001339373              -0.003948189               0.000000000               0.000000000               0.000000000               0.000000000              -0.009911502              -0.000693805               0.000000000              -0.003630085               0.000978753              -0.002651332               0.000000000               0.000000000               0.000000000               0.000000000              -0.006227938              -0.000347501              -0.000000000              -0.002292038               0.000648174              -0.001643863               0.000000000               0.000000000               0.000000000               0.000000000              -0.004229953               0.000532085              -0.000000000              -0.001652741               0.000728270              -0.000924471               0.000000000               0.000000000               0.000000000               0.000000000              -0.003004567               0.001457791              -0.000000000              -0.001308934               0.000922236              -0.000386699               0.000000000               0.000000000               0.000000000               0.000000000              -0.002157955               0.002284247               0.000000000              -0.001094762               0.001126328               0.000031567               0.000000000               0.000000000               0.000000000               0.000000000              -0.001495844               0.002980720               0.000000000              -0.000933529               0.001304740               0.000371211               0.000000000               0.000000000               0.000000000               0.000000000              -0.000927401               0.003560450               0.000000000              -0.000792830               0.001451081               0.000658252               0.000000000               0.000000000               0.000000000               0.000000000              -0.000392371               0.004040479              -0.000000000              -0.000652198               0.001564212               0.000912015               0.000000000               0.000000000               0.000000000               0.000000000               0.000126537               0.004412583              -0.000000000              -0.000504120               0.001638886               0.001134766               0.000000000               0.000000000               0.000000000               0.000000000               0.000656931               0.004682172               0.000000000              -0.000338922               0.001673682               0.001334761               0.000000000               0.000000000               0.000000000               0.000000000               0.001218633               0.004871803               0.000000000              -0.000151988               0.001674581               0.001522593               0.000000000               0.000000000               0.000000000               0.000000000               0.001826596               0.005001918              -0.000000000               0.000059733               0.001647378               0.001707111               0.000000000               0.000000000               0.000000000               0.000000000               0.002504269               0.005084301              -0.000000000               0.000303560               0.001593563               0.001897124               0.000000000               0.000000000               0.000000000               0.000000000               0.003266037               0.005110859               0.000000000               0.000585901               0.001508302               0.002094203               0.000000000               0.000000000               0.000000000               0.000000000               0.004133154               0.005071927               0.000000000               0.000915933               0.001385315               0.002301247               0.000000000               0.000000000               0.000000000               0.000000000               0.004804225               0.005108645              -0.000000000               0.001162992               0.001315200               0.002478193               0.000000000               0.000000000               0.000000000               0.000000000               0.002200138               0.023749521              -0.000000000              -0.002143633               0.008630972               0.006487339               0.000000000               0.000000000               0.000000000               0.000000000               0.002076202               0.018225238              -0.000000000              -0.001499575               0.006574877               0.005075302               0.000000000               0.000000000               0.000000000               0.000000000               0.002637036               0.013746201              -0.000000000              -0.000729385               0.004825149               0.004095765               0.000000000               0.000000000               0.000000000               0.000000000               0.002395360               0.011217302              -0.000000000              -0.000503901               0.003907031               0.003403129               0.000000000               0.000000000               0.000000000               0.000000000               0.001952179               0.009618196              -0.000000000              -0.000470206               0.003362769               0.002892562               0.000000000               0.000000000               0.000000000               0.000000000               0.001505269               0.008502728              -0.000000000              -0.000498364               0.003000336               0.002501972               0.000000000               0.000000000               0.000000000               0.000000000               0.001112422               0.007639345              -0.000000000              -0.000537759               0.002725676               0.002187917               0.000000000               0.000000000               0.000000000               0.000000000               0.000792611               0.006908682               0.000000000              -0.000566355               0.002491656               0.001925301               0.000000000               0.000000000               0.000000000               0.000000000               0.000541883               0.006242375              -0.000000000              -0.000577089               0.002273134               0.001696045               0.000000000               0.000000000               0.000000000               0.000000000               0.000346738               0.005602006              -0.000000000              -0.000570223               0.002057391               0.001487168               0.000000000               0.000000000               0.000000000               0.000000000               0.000198441               0.004967677               0.000000000              -0.000546543               0.001838057               0.001291514               0.000000000               0.000000000               0.000000000               0.000000000               0.000087240               0.004334166               0.000000000              -0.000509055               0.001614392               0.001105338               0.000000000               0.000000000               0.000000000               0.000000000               0.000001540               0.003683338              -0.000000000              -0.000459839               0.001381046               0.000921208               0.000000000               0.000000000               0.000000000               0.000000000              -0.000053543               0.002997744              -0.000000000              -0.000394796               0.001130837               0.000736041               0.000000000               0.000000000               0.000000000               0.000000000              -0.000077540               0.002248373              -0.000000000              -0.000310124               0.000852825               0.000542701               0.000000000               0.000000000               0.000000000               0.000000000              -0.000056933               0.001406488              -0.000000000              -0.000197160               0.000534545               0.000337384               0.000000000               0.000000000               0.000000000               0.000000000              -0.000101003               0.000761550              -0.000000000              -0.000133070               0.000298204               0.000165134               0.000000000               0.000000000               0.000000000               0.000000000               0.002262600               0.023238432              -0.001561215              -0.002056324               0.008431508               0.006375184               0.000000000               0.000000000               0.000000000               0.000000000               0.002007540               0.017900293              -0.000690616              -0.001484706               0.006461607               0.004976901               0.000000000               0.000000000               0.000000000               0.000000000               0.002430073               0.013618541               0.000165028              -0.000791038               0.004803148               0.004012109               0.000000000               0.000000000               0.000000000               0.000000000               0.002140421               0.011194682               0.000513204              -0.000596676               0.003930415               0.003333739               0.000000000               0.000000000               0.000000000               0.000000000               0.001692028               0.009649042               0.000650302              -0.000571618               0.003406854               0.002835236               0.000000000               0.000000000               0.000000000               0.000000000               0.001258774               0.008555929               0.000691500              -0.000597450               0.003051098               0.002453648               0.000000000               0.000000000               0.000000000               0.000000000               0.000888356               0.007703637               0.000685660              -0.000629820               0.002777793               0.002147973               0.000000000               0.000000000               0.000000000               0.000000000               0.000593087               0.006979320               0.000657873              -0.000650006               0.002543085               0.001893079               0.000000000               0.000000000               0.000000000               0.000000000               0.000364379               0.006318122               0.000619726              -0.000653122               0.002323727               0.001670605               0.000000000               0.000000000               0.000000000               0.000000000               0.000193094               0.005683123               0.000577534              -0.000637979               0.002107015               0.001469036               0.000000000               0.000000000               0.000000000               0.000000000               0.000074980               0.005061059               0.000540195              -0.000604514               0.001888507               0.001283994               0.000000000               0.000000000               0.000000000               0.000000000              -0.000008451               0.004440721               0.000505214              -0.000558258               0.001666312               0.001108054               0.000000000               0.000000000               0.000000000               0.000000000              -0.000068631               0.003809858               0.000462419              -0.000501968               0.001437262               0.000935295               0.000000000               0.000000000               0.000000000               0.000000000              -0.000102485               0.003153655               0.000402049              -0.000432638               0.001195420               0.000762782               0.000000000               0.000000000               0.000000000               0.000000000              -0.000104512               0.002456085               0.000312388              -0.000346202               0.000934088               0.000587885               0.000000000               0.000000000               0.000000000               0.000000000              -0.000066372               0.001697739               0.000179796              -0.000237106               0.000644943               0.000407836               0.000000000               0.000000000               0.000000000               0.000000000              -0.000095551               0.001133498               0.000110956              -0.000177519               0.000437002               0.000259483               0.000000000               0.000000000               0.000000000               0.000000000               0.002405932               0.021771553              -0.002885027              -0.001819216               0.007863517               0.006044301               0.000000000               0.000000000               0.000000000               0.000000000               0.001793182               0.016978546              -0.001267534              -0.001449872               0.006142749               0.004692877               0.000000000               0.000000000               0.000000000               0.000000000               0.001836571               0.013258978               0.000307260              -0.000968656               0.004742500               0.003773845               0.000000000               0.000000000               0.000000000               0.000000000               0.001423686               0.011120668               0.000923098              -0.000856199               0.003992252               0.003136053               0.000000000               0.000000000               0.000000000               0.000000000               0.000970215               0.009716763               0.001150738              -0.000850763               0.003522476               0.002671713               0.000000000               0.000000000               0.000000000               0.000000000               0.000581148               0.008689206               0.001208946              -0.000868219               0.003185779               0.002317560               0.000000000               0.000000000               0.000000000               0.000000000               0.000279218               0.007866050               0.001188350              -0.000878548               0.002914840               0.002036292               0.000000000               0.000000000               0.000000000               0.000000000               0.000060125               0.007158260               0.001130924              -0.000872234               0.002676807               0.001804573               0.000000000               0.000000000               0.000000000               0.000000000              -0.000096508               0.006509704               0.001054613              -0.000849902               0.002453180               0.001603278               0.000000000               0.000000000               0.000000000               0.000000000              -0.000196578               0.005894126               0.000973672              -0.000810481               0.002234849               0.001424368               0.000000000               0.000000000               0.000000000               0.000000000              -0.000246959               0.005297223               0.000900257              -0.000754761               0.002017310               0.001262549               0.000000000               0.000000000               0.000000000               0.000000000              -0.000263949               0.004712017               0.000831242              -0.000687982               0.001799984               0.001112002               0.000000000               0.000000000               0.000000000               0.000000000              -0.000254201               0.004135997               0.000749575              -0.000612324               0.001582760               0.000970436               0.000000000               0.000000000               0.000000000               0.000000000              -0.000223015               0.003561713               0.000639744              -0.000528844               0.001363507               0.000834663               0.000000000               0.000000000               0.000000000               0.000000000              -0.000168243               0.002988954               0.000486106              -0.000436710               0.001141878               0.000705168               0.000000000               0.000000000               0.000000000               0.000000000              -0.000089411               0.002423175               0.000272014              -0.000336425               0.000919859               0.000583433               0.000000000               0.000000000               0.000000000               0.000000000              -0.000083628               0.002039340               0.000161922              -0.000286277               0.000775199               0.000488922               0.000000000               0.000000000               0.000000000               0.000000000               0.002511786               0.019543596              -0.003787274              -0.001501028               0.007014809               0.005513781               0.000000000               0.000000000               0.000000000               0.000000000               0.001406221               0.015606308              -0.001656898              -0.001423453               0.005676535               0.004253082               0.000000000               0.000000000               0.000000000               0.000000000               0.000931532               0.012730726               0.000384441              -0.001242013               0.004657537               0.003415524               0.000000000               0.000000000               0.000000000               0.000000000               0.000381710               0.010988011               0.001133141              -0.001230357               0.004072753               0.002842396               0.000000000               0.000000000               0.000000000               0.000000000              -0.000046910               0.009774035               0.001385764              -0.001239343               0.003671093               0.002431750               0.000000000               0.000000000               0.000000000               0.000000000              -0.000344750               0.008833868               0.001433797              -0.001233512               0.003355764               0.002122252               0.000000000               0.000000000               0.000000000               0.000000000              -0.000530061               0.008049696               0.001392572              -0.001204982               0.003084866               0.001879883               0.000000000               0.000000000               0.000000000               0.000000000              -0.000632154               0.007359630               0.001309231              -0.001157009               0.002838855               0.001681846               0.000000000               0.000000000               0.000000000               0.000000000              -0.000675348               0.006727119               0.001207143              -0.001094143               0.002607065               0.001512922               0.000000000               0.000000000               0.000000000               0.000000000              -0.000667551               0.006135543               0.001100404              -0.001017272               0.002384251               0.001366979               0.000000000               0.000000000               0.000000000               0.000000000              -0.000622162               0.005572891               0.001002659              -0.000929920               0.002167585               0.001237665               0.000000000               0.000000000               0.000000000               0.000000000              -0.000550036               0.005041163               0.000912812              -0.000836407               0.001959173               0.001122766               0.000000000               0.000000000               0.000000000               0.000000000              -0.000458013               0.004540689               0.000808441              -0.000739339               0.001759994               0.001020655               0.000000000               0.000000000               0.000000000               0.000000000              -0.000352803               0.004075495               0.000671367              -0.000641737               0.001572397               0.000930660               0.000000000               0.000000000               0.000000000               0.000000000              -0.000240542               0.003653766               0.000492362              -0.000546923               0.001400217               0.000853295               0.000000000               0.000000000               0.000000000               0.000000000              -0.000123256               0.003300231               0.000267407              -0.000458749               0.001252982               0.000794233               0.000000000               0.000000000               0.000000000               0.000000000              -0.000081233               0.003099923               0.000152451              -0.000417952               0.001172615               0.000754663               0.000000000               0.000000000               0.000000000               0.000000000               0.002426844               0.016837477              -0.004181067              -0.001194618               0.006010642               0.004816023               0.000000000               0.000000000               0.000000000               0.000000000               0.000818495               0.013977418              -0.001843534              -0.001440239               0.005139172               0.003698933               0.000000000               0.000000000               0.000000000               0.000000000              -0.000182381               0.012103522               0.000354748              -0.001581329               0.004561577               0.002980247               0.000000000               0.000000000               0.000000000               0.000000000              -0.000806178               0.010789181               0.001099832              -0.001650960               0.004146678               0.002495717               0.000000000               0.000000000               0.000000000               0.000000000              -0.001144294               0.009767398               0.001323202              -0.001650031               0.003805777               0.002155746               0.000000000               0.000000000               0.000000000               0.000000000              -0.001297172               0.008911664               0.001347441              -0.001600394               0.003503990               0.001903596               0.000000000               0.000000000               0.000000000               0.000000000              -0.001328295               0.008168673               0.001289729              -0.001519192               0.003229261               0.001710069               0.000000000               0.000000000               0.000000000               0.000000000              -0.001279720               0.007498783               0.001196188              -0.001417240               0.002971983               0.001554743               0.000000000               0.000000000               0.000000000               0.000000000              -0.001179277               0.006882208               0.001088531              -0.001302502               0.002728214               0.001425712               0.000000000               0.000000000               0.000000000               0.000000000              -0.001048139               0.006309929               0.000977774              -0.001181791               0.002497219               0.001315428               0.000000000               0.000000000               0.000000000               0.000000000              -0.000899504               0.005790121               0.000875383              -0.001061077               0.002283713               0.001222636               0.000000000               0.000000000               0.000000000               0.000000000              -0.000742437               0.005318387               0.000782037              -0.000943210               0.002087181               0.001143971               0.000000000               0.000000000               0.000000000               0.000000000              -0.000577161               0.004902276               0.000676966              -0.000829218               0.001910482               0.001081264               0.000000000               0.000000000               0.000000000               0.000000000              -0.000411683               0.004548040               0.000541752              -0.000722884               0.001756960               0.001034075               0.000000000               0.000000000               0.000000000               0.000000000              -0.000254056               0.004264582               0.000377987              -0.000628342               0.001630960               0.001002618               0.000000000               0.000000000               0.000000000               0.000000000              -0.000118615               0.004074860               0.000197115              -0.000553837               0.001542885               0.000989049               0.000000000               0.000000000               0.000000000               0.000000000              -0.000062943               0.003998652               0.000106307              -0.000523434               0.001507349               0.000983915               0.000000000               0.000000000               0.000000000               0.000000000               0.002026618               0.013936898              -0.004090162              -0.000982131               0.004972962               0.003990831               0.000000000               0.000000000               0.000000000               0.000000000               0.000037653               0.012265010              -0.001866673              -0.001519004               0.004594630               0.003075626               0.000000000               0.000000000               0.000000000               0.000000000              -0.001373147               0.011418452               0.000191764              -0.001942232               0.004453523               0.002511291               0.000000000               0.000000000               0.000000000               0.000000000              -0.001958044               0.010502489               0.000833032              -0.002047073               0.004183152               0.002136079               0.000000000               0.000000000               0.000000000               0.000000000              -0.002133747               0.009647555               0.001005536              -0.002006095               0.003884518               0.001878423               0.000000000               0.000000000               0.000000000               0.000000000              -0.002097594               0.008870756               0.001014715              -0.001895438               0.003588702               0.001693264               0.000000000               0.000000000               0.000000000               0.000000000              -0.001947703               0.008167571               0.000960453              -0.001751331               0.003306273               0.001554942               0.000000000               0.000000000               0.000000000               0.000000000              -0.001736196               0.007518491               0.000876993              -0.001590881               0.003036432               0.001445551               0.000000000               0.000000000               0.000000000               0.000000000              -0.001495417               0.006915176               0.000783322              -0.001425175               0.002780094               0.001354919               0.000000000               0.000000000               0.000000000               0.000000000              -0.001252528               0.006370248               0.000694014              -0.001265976               0.002545387               0.001279411               0.000000000               0.000000000               0.000000000               0.000000000              -0.001011696               0.005900285               0.000610432              -0.001116919               0.002339048               0.001222129               0.000000000               0.000000000               0.000000000               0.000000000              -0.000780267               0.005496878               0.000532752              -0.000979708               0.002158843               0.001179136               0.000000000               0.000000000               0.000000000               0.000000000              -0.000566937               0.005159408               0.000448771              -0.000857525               0.002005627               0.001148102               0.000000000               0.000000000               0.000000000               0.000000000              -0.000379051               0.004889840               0.000337838              -0.000753372               0.001881054               0.001127682               0.000000000               0.000000000               0.000000000               0.000000000              -0.000217100               0.004696341               0.000214060              -0.000668454               0.001788249               0.001119795               0.000000000               0.000000000               0.000000000               0.000000000              -0.000092929               0.004590740               0.000102981              -0.000608689               0.001733128               0.001124439               0.000000000               0.000000000               0.000000000               0.000000000              -0.000044105               0.004561646               0.000052878              -0.000586744               0.001716115               0.001129371               0.000000000               0.000000000               0.000000000               0.000000000               0.001256515               0.011081570              -0.003609826              -0.000914004               0.003998487               0.003084483               0.000000000               0.000000000               0.000000000               0.000000000              -0.000885000               0.010599849              -0.001787813              -0.001656853               0.004085531               0.002428679               0.000000000               0.000000000               0.000000000               0.000000000              -0.002506630               0.010692793              -0.000108687              -0.002276580               0.004323089               0.002046509               0.000000000               0.000000000               0.000000000               0.000000000              -0.002925333               0.010111298               0.000383515              -0.002360906               0.004157368               0.001796461               0.000000000               0.000000000               0.000000000               0.000000000              -0.002877561               0.009398096               0.000520210              -0.002253842               0.003883948               0.001630106               0.000000000               0.000000000               0.000000000               0.000000000              -0.002633483               0.008693921               0.000538851              -0.002074291               0.003589375               0.001515084               0.000000000               0.000000000               0.000000000               0.000000000              -0.002307551               0.008024152               0.000513550              -0.001868346               0.003297472               0.001429127               0.000000000               0.000000000               0.000000000               0.000000000              -0.001950292               0.007396799               0.000462915              -0.001655955               0.003017560               0.001361605               0.000000000               0.000000000               0.000000000               0.000000000              -0.001587861               0.006825721               0.000404819              -0.001448659               0.002758104               0.001309445               0.000000000               0.000000000               0.000000000               0.000000000              -0.001251566               0.006328819               0.000356837              -0.001260436               0.002529731               0.001269294               0.000000000               0.000000000               0.000000000               0.000000000              -0.000948560               0.005914493               0.000313058              -0.001095019               0.002336484               0.001241465               0.000000000               0.000000000               0.000000000               0.000000000              -0.000679017               0.005573330               0.000265855              -0.000951295               0.002174857               0.001223561               0.000000000               0.000000000               0.000000000               0.000000000              -0.000454681               0.005291435               0.000213133              -0.000831933               0.002041105               0.001209172               0.000000000               0.000000000               0.000000000               0.000000000              -0.000279186               0.005070850               0.000143224              -0.000738549               0.001936449               0.001197900               0.000000000               0.000000000               0.000000000               0.000000000              -0.000145118               0.004924455               0.000074037              -0.000669974               0.001864793               0.001194819               0.000000000               0.000000000               0.000000000               0.000000000              -0.000055030               0.004849696               0.000029796              -0.000626847               0.001825498               0.001198652               0.000000000               0.000000000               0.000000000               0.000000000              -0.000027208               0.004825839               0.000015796              -0.000613431               0.001813074               0.001199643               0.000000000               0.000000000               0.000000000               0.000000000               0.000156054               0.008454751              -0.002852424              -0.000998323               0.003150996               0.002152673               0.000000000               0.000000000               0.000000000               0.000000000              -0.001892443               0.009082007              -0.001658976              -0.001844913               0.003642276               0.001797363               0.000000000               0.000000000               0.000000000               0.000000000              -0.003469990               0.009936549              -0.000525807              -0.002543309               0.004159919               0.001616611               0.000000000               0.000000000               0.000000000               0.000000000              -0.003621238               0.009616953              -0.000165565              -0.002560077               0.004058978               0.001498901               0.000000000               0.000000000               0.000000000               0.000000000              -0.003326677               0.009032878              -0.000029824              -0.002376608               0.003803132               0.001426524               0.000000000               0.000000000               0.000000000               0.000000000              -0.002883331               0.008398291               0.000023427              -0.002131030               0.003509746               0.001378715               0.000000000               0.000000000               0.000000000               0.000000000              -0.002398453               0.007766877               0.000046751              -0.001870275               0.003212358               0.001342083               0.000000000               0.000000000               0.000000000               0.000000000              -0.001919320               0.007174153               0.000051203              -0.001616510               0.002930197               0.001313687               0.000000000               0.000000000               0.000000000               0.000000000              -0.001472928               0.006652939               0.000044899              -0.001383962               0.002678945               0.001294983               0.000000000               0.000000000               0.000000000               0.000000000              -0.001076637               0.006214896               0.000045805              -0.001180598               0.002465144               0.001284546               0.000000000               0.000000000               0.000000000               0.000000000              -0.000747527               0.005847112               0.000048492              -0.001011209               0.002286087               0.001274878               0.000000000               0.000000000               0.000000000               0.000000000              -0.000483726               0.005538878               0.000040582              -0.000873755               0.002137526               0.001263771               0.000000000               0.000000000               0.000000000               0.000000000              -0.000282828               0.005289854               0.000027679              -0.000767290               0.002019030               0.001251740               0.000000000               0.000000000               0.000000000               0.000000000              -0.000146580               0.005105495               0.000007779              -0.000693152               0.001932865               0.001239713               0.000000000               0.000000000               0.000000000               0.000000000              -0.000061175               0.004995022              -0.000006915              -0.000647317               0.001880763               0.001233446               0.000000000               0.000000000               0.000000000               0.000000000              -0.000015943               0.004943722              -0.000005268              -0.000623942               0.001855872               0.001231929               0.000000000               0.000000000               0.000000000               0.000000000              -0.000008732               0.004925646               0.000000699              -0.000618979               0.001848192               0.001229213               0.000000000               0.000000000               0.000000000               0.000000000              -0.001141632               0.006254268              -0.001941990              -0.001209894               0.002488033               0.001278139               0.000000000               0.000000000               0.000000000               0.000000000              -0.002876799               0.007731134              -0.001520380              -0.002045187               0.003258747               0.001213561               0.000000000               0.000000000               0.000000000               0.000000000              -0.004223347               0.009177766              -0.001021252              -0.002730969               0.003969548               0.001238579               0.000000000               0.000000000               0.000000000               0.000000000              -0.004098297               0.009126696              -0.000739998              -0.002677692               0.003934765               0.001257074               0.000000000               0.000000000               0.000000000               0.000000000              -0.003601237               0.008694402              -0.000576346              -0.002437258               0.003710524               0.001273266               0.000000000               0.000000000               0.000000000               0.000000000              -0.003001254               0.008151530              -0.000473451              -0.002144406               0.003431952               0.001287545               0.000000000               0.000000000               0.000000000               0.000000000              -0.002390719               0.007584747              -0.000394949              -0.001844608               0.003143093               0.001298485               0.000000000               0.000000000               0.000000000               0.000000000              -0.001818014               0.007044955              -0.000329000              -0.001562371               0.002869085               0.001306714               0.000000000               0.000000000               0.000000000               0.000000000              -0.001312137               0.006570397              -0.000274901              -0.001313348               0.002627893               0.001314545               0.000000000               0.000000000               0.000000000               0.000000000              -0.000882284               0.006172739              -0.000226334              -0.001102446               0.002425041               0.001322595               0.000000000               0.000000000               0.000000000               0.000000000              -0.000542799               0.005824068              -0.000182350              -0.000931556               0.002251855               0.001320299               0.000000000               0.000000000               0.000000000               0.000000000              -0.000289277               0.005522443              -0.000145516              -0.000798782               0.002107057               0.001308275               0.000000000               0.000000000               0.000000000               0.000000000              -0.000108887               0.005283939              -0.000107963              -0.000701323               0.001995070               0.001293747               0.000000000               0.000000000               0.000000000               0.000000000              -0.000009416               0.005112503              -0.000070763              -0.000642592               0.001918348               0.001275756               0.000000000               0.000000000               0.000000000               0.000000000               0.000021942               0.005019122              -0.000038488              -0.000619161               0.001879411               0.001260250               0.000000000               0.000000000               0.000000000               0.000000000               0.000015876               0.004983664              -0.000013104              -0.000617003               0.001866872               0.001249869               0.000000000               0.000000000               0.000000000               0.000000000               0.000003545               0.004973789              -0.000001541              -0.000620393               0.001864710               0.001244318               0.000000000               0.000000000               0.000000000               0.000000000              -0.002644190               0.004225778              -0.000995816              -0.001519790               0.001915175               0.000395385               0.000000000               0.000000000               0.000000000               0.000000000              -0.003709101               0.006162728              -0.001370107              -0.002161249               0.002774638               0.000613389               0.000000000               0.000000000               0.000000000               0.000000000              -0.004674792               0.008035632              -0.001538588              -0.002757494               0.003597682               0.000840187               0.000000000               0.000000000               0.000000000               0.000000000              -0.004401252               0.008383298              -0.001344493              -0.002698375               0.003693863               0.000995488               0.000000000               0.000000000               0.000000000               0.000000000              -0.003820974               0.008231909              -0.001149009              -0.002461848               0.003564558               0.001102710               0.000000000               0.000000000               0.000000000               0.000000000              -0.003171198               0.007898173              -0.000991929              -0.002176465               0.003358186               0.001181721               0.000000000               0.000000000               0.000000000               0.000000000              -0.002523785               0.007488580              -0.000858097              -0.001882487               0.003123664               0.001241177               0.000000000               0.000000000               0.000000000               0.000000000              -0.001919408               0.007064905              -0.000734875              -0.001602887               0.002889240               0.001286353               0.000000000               0.000000000               0.000000000               0.000000000              -0.001381736               0.006665959              -0.000625682              -0.001351393               0.002672428               0.001321036               0.000000000               0.000000000               0.000000000               0.000000000              -0.000922562               0.006307508              -0.000530023              -0.001134397               0.002480614               0.001346217               0.000000000               0.000000000               0.000000000               0.000000000              -0.000551945               0.005976131              -0.000441853              -0.000953993               0.002310021               0.001356028               0.000000000               0.000000000               0.000000000               0.000000000              -0.000271313               0.005675334              -0.000358664              -0.000811157               0.002162145               0.001350988               0.000000000               0.000000000               0.000000000               0.000000000              -0.000073911               0.005412469              -0.000269676              -0.000704273               0.002038896               0.001334623               0.000000000               0.000000000               0.000000000               0.000000000               0.000043615               0.005209133              -0.000174342              -0.000634785               0.001947955               0.001313171               0.000000000               0.000000000               0.000000000               0.000000000               0.000087002               0.005083149              -0.000089975              -0.000602766               0.001895288               0.001292522               0.000000000               0.000000000               0.000000000               0.000000000               0.000073165               0.005023660              -0.000030991              -0.000600519               0.001874710               0.001274190               0.000000000               0.000000000               0.000000000               0.000000000               0.000046564               0.005003676              -0.000005262              -0.000607997               0.001870541               0.001262544               0.000000000               0.000000000               0.000000000               0.000000000              -0.004533966               0.002392026              -0.000083627              -0.001999237               0.001463745              -0.000535493               0.000000000               0.000000000               0.000000000               0.000000000              -0.004641836               0.004573494              -0.001158440              -0.002312370               0.002295272              -0.000017098               0.000000000               0.000000000               0.000000000               0.000000000              -0.005035406               0.006666246              -0.001955455              -0.002721552               0.003129243               0.000407691               0.000000000               0.000000000               0.000000000               0.000000000              -0.004625163               0.007391710              -0.001919190              -0.002658394               0.003350009               0.000691616               0.000000000               0.000000000               0.000000000               0.000000000              -0.004002149               0.007568452              -0.001726093              -0.002446857               0.003338411               0.000891554               0.000000000               0.000000000               0.000000000               0.000000000              -0.003337804               0.007492200              -0.001528885              -0.002188196               0.003226774               0.001038577               0.000000000               0.000000000               0.000000000               0.000000000              -0.002682650               0.007280456              -0.001347640              -0.001916046               0.003065476               0.001149430               0.000000000               0.000000000               0.000000000               0.000000000              -0.002064579               0.007003343              -0.001178152              -0.001649631               0.002884301               0.001234670               0.000000000               0.000000000               0.000000000               0.000000000              -0.001499000               0.006710703              -0.001026553              -0.001400960               0.002703865               0.001302905               0.000000000               0.000000000               0.000000000               0.000000000              -0.000998506               0.006421997              -0.000892186              -0.001177187               0.002533040               0.001355853               0.000000000               0.000000000               0.000000000               0.000000000              -0.000576957               0.006132657              -0.000766409              -0.000982939               0.002371845               0.001388906               0.000000000               0.000000000               0.000000000               0.000000000              -0.000242710               0.005849436              -0.000643014              -0.000822194               0.002223857               0.001401663               0.000000000               0.000000000               0.000000000               0.000000000               0.000005561               0.005579981              -0.000509623              -0.000695411               0.002091779               0.001396368               0.000000000               0.000000000               0.000000000               0.000000000               0.000171762               0.005347591              -0.000361721              -0.000604037               0.001983858               0.001379821               0.000000000               0.000000000               0.000000000               0.000000000               0.000251671               0.005174103              -0.000213926              -0.000552385               0.001908812               0.001356427               0.000000000               0.000000000               0.000000000               0.000000000               0.000248063               0.005066703              -0.000091067              -0.000540313               0.001868988               0.001328675               0.000000000               0.000000000               0.000000000               0.000000000               0.000206216               0.005015582              -0.000031399              -0.000549616               0.001855049               0.001305434               0.000000000               0.000000000               0.000000000               0.000000000              -0.006678168               0.000910641               0.000708185              -0.002618140               0.001176252              -0.001441888               0.000000000               0.000000000               0.000000000               0.000000000              -0.005713490               0.003074149              -0.000871134              -0.002526823               0.001866978              -0.000659845               0.000000000               0.000000000               0.000000000               0.000000000              -0.005334218               0.005096869              -0.002162179              -0.002637435               0.002578083              -0.000059352               0.000000000               0.000000000               0.000000000               0.000000000              -0.004700826               0.006089013              -0.002323452              -0.002523931               0.002870960               0.000347029               0.000000000               0.000000000               0.000000000               0.000000000              -0.004017401               0.006568214              -0.002185225              -0.002327547               0.002965231               0.000637684               0.000000000               0.000000000               0.000000000               0.000000000              -0.003346776               0.006757185              -0.001982628              -0.002099685               0.002952267               0.000852582               0.000000000               0.000000000               0.000000000               0.000000000              -0.002698998               0.006770543              -0.001775179              -0.001858438               0.002876304               0.001017866               0.000000000               0.000000000               0.000000000               0.000000000              -0.002081628               0.006674380              -0.001577141              -0.001614904               0.002763072               0.001148168               0.000000000               0.000000000               0.000000000               0.000000000              -0.001503955               0.006523762              -0.001401321              -0.001379450               0.002634382               0.001254932               0.000000000               0.000000000               0.000000000               0.000000000              -0.000973574               0.006342609              -0.001244925              -0.001157914               0.002500153               0.001342239               0.000000000               0.000000000               0.000000000               0.000000000              -0.000505415               0.006132746              -0.001095547              -0.000956122               0.002362936               0.001406813               0.000000000               0.000000000               0.000000000               0.000000000              -0.000111613               0.005901070              -0.000946123              -0.000779487               0.002226832               0.001447346               0.000000000               0.000000000               0.000000000               0.000000000               0.000203558               0.005660654              -0.000783556              -0.000631246               0.002097281               0.001466035               0.000000000               0.000000000               0.000000000               0.000000000               0.000438536               0.005434750              -0.000593092              -0.000514892               0.001983196               0.001468304               0.000000000               0.000000000               0.000000000               0.000000000               0.000583413               0.005244831              -0.000385236              -0.000436823               0.001893867               0.001457044               0.000000000               0.000000000               0.000000000               0.000000000               0.000625855               0.005103404              -0.000184660              -0.000403229               0.001835527               0.001432298               0.000000000               0.000000000               0.000000000               0.000000000               0.000598768               0.005033493              -0.000082602              -0.000404648               0.001812697               0.001408049               0.000000000               0.000000000               0.000000000               0.000000000              -0.008939007              -0.000134237               0.001252531              -0.003335345               0.001067028              -0.002268317               0.000000000               0.000000000               0.000000000               0.000000000              -0.006871103               0.001755007              -0.000557542              -0.002796036               0.001517004              -0.001279032               0.000000000               0.000000000               0.000000000               0.000000000              -0.005597153               0.003474454              -0.002124275              -0.002533235               0.002002549              -0.000530686               0.000000000               0.000000000               0.000000000               0.000000000              -0.004658778               0.004591449              -0.002462406              -0.002320968               0.002304122              -0.000016846               0.000000000               0.000000000               0.000000000               0.000000000              -0.003875861               0.005301875              -0.002409869              -0.002116178               0.002472666               0.000356488               0.000000000               0.000000000               0.000000000               0.000000000              -0.003188616               0.005731922              -0.002238613              -0.001912217               0.002548027               0.000635809               0.000000000               0.000000000               0.000000000               0.000000000              -0.002554506               0.005972170              -0.002036572              -0.001704458               0.002558855               0.000854398               0.000000000               0.000000000               0.000000000               0.000000000              -0.001947581               0.006077780              -0.001834813              -0.001490062               0.002522593               0.001032531               0.000000000               0.000000000               0.000000000               0.000000000              -0.001369988               0.006092669              -0.001653348              -0.001275326               0.002455978               0.001180651               0.000000000               0.000000000               0.000000000               0.000000000              -0.000826706               0.006046364              -0.001491411              -0.001065808               0.002370704               0.001304895               0.000000000               0.000000000               0.000000000               0.000000000              -0.000321088               0.005947718              -0.001337171              -0.000863871               0.002270510               0.001406639               0.000000000               0.000000000               0.000000000               0.000000000               0.000134339               0.005802196              -0.001181952              -0.000674896               0.002159011               0.001484115               0.000000000               0.000000000               0.000000000               0.000000000               0.000526853               0.005627366              -0.001009316              -0.000505850               0.002044387               0.001538536               0.000000000               0.000000000               0.000000000               0.000000000               0.000855397               0.005441507              -0.000801910              -0.000359414               0.001933622               0.001574208               0.000000000               0.000000000               0.000000000               0.000000000               0.001110112               0.005262184              -0.000558349              -0.000241481               0.001834538               0.001593057               0.000000000               0.000000000               0.000000000               0.000000000               0.001267950               0.005115440              -0.000289488              -0.000163948               0.001759779               0.001595831               0.000000000               0.000000000               0.000000000               0.000000000               0.001316108               0.005051696              -0.000150098              -0.000137921               0.001729856               0.001591934               0.000000000               0.000000000               0.000000000               0.000000000              -0.011096472              -0.000777753               0.001446574              -0.004063955               0.001095393              -0.002968562               0.000000000               0.000000000               0.000000000               0.000000000              -0.008016881               0.000687158              -0.000281368              -0.003092222               0.001259785              -0.001832437               0.000000000               0.000000000               0.000000000               0.000000000              -0.005836523               0.001963803              -0.001838730              -0.002434168               0.001465980              -0.000968188               0.000000000               0.000000000               0.000000000               0.000000000              -0.004536214               0.003073316              -0.002272519              -0.002085241               0.001719507              -0.000365735               0.000000000               0.000000000               0.000000000               0.000000000              -0.003617477               0.003924439              -0.002300751              -0.001847105               0.001923834               0.000076729               0.000000000               0.000000000               0.000000000               0.000000000              -0.002890922               0.004542888              -0.002183042              -0.001651953               0.002064931               0.000412978               0.000000000               0.000000000               0.000000000               0.000000000              -0.002261266               0.004981028              -0.002017088              -0.001470601               0.002150526               0.000679925               0.000000000               0.000000000               0.000000000               0.000000000              -0.001673795               0.005280143              -0.001840081              -0.001287689               0.002189259               0.000901570               0.000000000               0.000000000               0.000000000               0.000000000              -0.001108882               0.005466870              -0.001673565              -0.001099188               0.002188667               0.001089480               0.000000000               0.000000000               0.000000000               0.000000000              -0.000564109               0.005565400              -0.001526777              -0.000907214               0.002157519               0.001250305               0.000000000               0.000000000               0.000000000               0.000000000              -0.000035133               0.005595873              -0.001389342              -0.000712658               0.002102825               0.001390167               0.000000000               0.000000000               0.000000000               0.000000000               0.000471449               0.005564024              -0.001244845              -0.000518709               0.002027559               0.001508850               0.000000000               0.000000000               0.000000000               0.000000000               0.000943279               0.005480043              -0.001082806              -0.000331276               0.001937088               0.001605812               0.000000000               0.000000000               0.000000000               0.000000000               0.001385444               0.005368066              -0.000890290              -0.000151467               0.001839826               0.001688359               0.000000000               0.000000000               0.000000000               0.000000000               0.001793133               0.005239421              -0.000650767               0.000017496               0.001740624               0.001758120               0.000000000               0.000000000               0.000000000               0.000000000               0.002146256               0.005115672              -0.000354086               0.000165385               0.001650079               0.001815464               0.000000000               0.000000000               0.000000000               0.000000000               0.002351806               0.005077403              -0.000199373               0.000247249               0.001610034               0.001857284               0.000000000               0.000000000               0.000000000               0.000000000              -0.012895122              -0.001106424               0.001255041              -0.004697365               0.001196972              -0.003500393               0.000000000               0.000000000               0.000000000               0.000000000              -0.009002953              -0.000081957              -0.000093752              -0.003365860               0.001094627              -0.002271233               0.000000000               0.000000000               0.000000000               0.000000000              -0.006040814               0.000734700              -0.001342807              -0.002357140               0.001030606              -0.001326534               0.000000000               0.000000000               0.000000000               0.000000000              -0.004390323               0.001751842              -0.001743868              -0.001865349               0.001205721              -0.000659628               0.000000000               0.000000000               0.000000000               0.000000000              -0.003324514               0.002663275              -0.001813017              -0.001579599               0.001414281              -0.000165318               0.000000000               0.000000000               0.000000000               0.000000000              -0.002543195               0.003405464              -0.001750215              -0.001379378               0.001594935               0.000215557               0.000000000               0.000000000               0.000000000               0.000000000              -0.001906562               0.003991082              -0.001638009              -0.001213844               0.001734961               0.000521117               0.000000000               0.000000000               0.000000000               0.000000000              -0.001332819               0.004444563              -0.001509162              -0.001055376               0.001833297               0.000777922               0.000000000               0.000000000               0.000000000               0.000000000              -0.000783691               0.004780510              -0.001384076              -0.000891446               0.001890636               0.000999189               0.000000000               0.000000000               0.000000000               0.000000000              -0.000241452               0.005017713              -0.001272176              -0.000717758               0.001911807               0.001194049               0.000000000               0.000000000               0.000000000               0.000000000               0.000293429               0.005171328              -0.001166259              -0.000536380               0.001902552               0.001366172               0.000000000               0.000000000               0.000000000               0.000000000               0.000827984               0.005250960              -0.001052702              -0.000345876               0.001865594               0.001519719               0.000000000               0.000000000               0.000000000               0.000000000               0.001372604               0.005268679              -0.000925420              -0.000143859               0.001804162               0.001660303               0.000000000               0.000000000               0.000000000               0.000000000               0.001929906               0.005244648              -0.000776234               0.000068132               0.001725488               0.001793620               0.000000000               0.000000000               0.000000000               0.000000000               0.002506316               0.005189451              -0.000583936               0.000291184               0.001632738               0.001923922               0.000000000               0.000000000               0.000000000               0.000000000               0.003100918               0.005105675              -0.000327953               0.000524630               0.001526998               0.002051628               0.000000000               0.000000000               0.000000000               0.000000000               0.003520532               0.005101153              -0.000197355               0.000682548               0.001472851               0.002155400               0.000000000               0.000000000               0.000000000               0.000000000              -0.014098843              -0.001237396               0.000726935              -0.005132388               0.001298322              -0.003834066               0.000000000               0.000000000               0.000000000               0.000000000              -0.009674290              -0.000542328              -0.000011364              -0.003560065               0.001005906              -0.002554160               0.000000000               0.000000000               0.000000000               0.000000000              -0.006179578              -0.000070115              -0.000705538              -0.002308575               0.000746148              -0.001562427               0.000000000               0.000000000               0.000000000               0.000000000              -0.004274348               0.000851306              -0.000944890              -0.001709292               0.000853526              -0.000855765               0.000000000               0.000000000               0.000000000               0.000000000              -0.003092940               0.001777089              -0.000999219              -0.001381986               0.001053018              -0.000328969               0.000000000               0.000000000               0.000000000               0.000000000              -0.002264169               0.002584280              -0.000974472              -0.001172096               0.001252116               0.000080020               0.000000000               0.000000000               0.000000000               0.000000000              -0.001612609               0.003254940              -0.000919445              -0.001011594               0.001422167               0.000410573               0.000000000               0.000000000               0.000000000               0.000000000              -0.001043104               0.003802700              -0.000852877              -0.000866500               0.001556387               0.000689887               0.000000000               0.000000000               0.000000000               0.000000000              -0.000504874               0.004241016              -0.000787901              -0.000719453               0.001653476               0.000934022               0.000000000               0.000000000               0.000000000               0.000000000               0.000023893               0.004576275              -0.000728260              -0.000563073               0.001713101               0.001150027               0.000000000               0.000000000               0.000000000               0.000000000               0.000557086               0.004817970              -0.000667422              -0.000393338               0.001737087               0.001343748               0.000000000               0.000000000               0.000000000               0.000000000               0.001109849               0.004980056              -0.000605324              -0.000206313               0.001728773               0.001522460               0.000000000               0.000000000               0.000000000               0.000000000               0.001702450               0.005079773              -0.000535511               0.000003446               0.001692092               0.001695538               0.000000000               0.000000000               0.000000000               0.000000000               0.002347047               0.005130484              -0.000451616               0.000238830               0.001630534               0.001869364               0.000000000               0.000000000               0.000000000               0.000000000               0.003058064               0.005137401              -0.000344955               0.000504594               0.001544252               0.002048846               0.000000000               0.000000000               0.000000000               0.000000000               0.003852035               0.005090554              -0.000196488               0.000808186               0.001427439               0.002235625               0.000000000               0.000000000               0.000000000               0.000000000               0.004453458               0.005115785              -0.000121418               0.001030563               0.001361724               0.002392287               0.000000000               0.000000000               0.000000000               0.000000000               0.000000000               0.000000000               0.000000000               0.000000000               0.000000000               0.000000000               0.000000000               0.000000000               0.000000000               0.000000000               0.000000000               0.000000000               0.000000000               0.000000000               0.000000000               0.000000000               0.000000000               0.000000000               0.000000000               0.000000000               0.000000000               0.000000000               0.000000000               0.000000000               0.000000000               0.000000000               0.000000000               0.000000000               0.000000000               0.000000000               0.000000000               0.000000000               0.000000000               0.000000000               0.000000000               0.000000000               0.000000000               0.000000000               0.000000000               0.000000000               0.000000000               0.000000000               0.000000000               0.000000000               0.000000000               0.000000000               0.000000000               0.000000000               0.000000000               0.000000000               0.000000000               0.000000000               0.000000000               0.000000000               0.000000000               0.000000000               0.000000000               0.000000000               0.000000000               0.000000000               0.000000000               0.000000000               0.000000000               0.000000000               0.000000000               0.000000000               0.000000000               0.000000000               0.000000000               0.000000000               0.000000000               0.000000000               0.000000000               0.000000000               0.000000000               0.000000000               0.000000000               0.000000000               0.000000000               0.000000000               0.000000000               0.000000000               0.000000000               0.000000000               0.000000000               0.000000000               0.000000000               0.000000000               0.000000000               0.000000000               0.000000000               0.000000000               0.000000000               0.000000000               0.000000000               0.000000000               0.000000000               0.000000000               0.000000000               0.000000000               0.000000000               0.000000000               0.000000000               0.000000000               0.000000000               0.000000000               0.000000000               0.000000000               0.000000000               0.000000000               0.000000000               0.000000000               0.000000000               0.000000000               0.000000000               0.000000000               0.000000000               0.000000000               0.000000000               0.000000000               0.000000000               0.000000000               0.000000000               0.000000000               0.000000000               0.000000000               0.000000000               0.000000000               0.000000000               0.000000000               0.000000000               0.000000000               0.000000000               0.000000000               0.000000000               0.000000000               0.000000000               0.000000000               0.000000000               0.000000000               0.000000000               0.000000000               0.000000000               0.000000000               0.000000000               0.000000000               0.000000000               0.000000000               0.000000000               0.000000000               0.000000000               0.000000000               0.000000000               0.000000000               0.000000000               0.000000000               0.000000000               0.000000000               0.000000000               0.000000000               0.000000000               0.000000000               0.000000000               0.000000000               0.000000000               0.000000000               0.000000000               0.000000000               0.000000000               0.000000000               0.000000000               0.000000000               0.000000000               0.000000000               0.000000000               0.000000000               0.000000000               0.000000000               0.000000000               0.000000000               0.000000000               0.000000000               0.000000000               0.000000000               0.000000000               0.000000000               0.000000000               0.000000000               0.000000000               0.000000000               0.000000000               0.000000000               0.000000000               0.000000000               0.000000000               0.000000000               0.000000000               0.000000000               0.000000000               0.000000000               0.000000000               0.000000000               0.000000000               0.000000000               0.000000000               0.000000000               0.000000000               0.000000000               0.000000000               0.000000000               0.000000000               0.000000000               0.000000000               0.000000000               0.000000000               0.000000000               0.000000000               0.000000000               0.000000000               0.000000000               0.000000000               0.000000000               0.000000000               0.000000000               0.000000000               0.000000000               0.000000000               0.000000000               0.000000000               0.000000000               0.000000000               0.000000000               0.000000000               0.000000000               0.000000000               0.000000000               0.000000000               0.000000000               0.000000000               0.000000000               0.000000000               0.000000000               0.000000000               0.000000000               0.000000000               0.000000000               0.000000000               0.000000000               0.000000000               0.000000000               0.000000000               0.000000000               0.000000000               0.000000000               0.000000000               0.000000000               0.000000000               0.000000000               0.000000000               0.000000000               0.000000000               0.000000000               0.000000000               0.000000000               0.000000000               0.000000000               0.000000000               0.000000000               0.000000000               0.000000000               0.000000000               0.000000000               0.000000000               0.000000000               0.000000000               0.000000000               0.000000000               0.000000000               0.000000000               0.000000000               0.000000000               0.000000000               0.000000000               0.000000000               0.000000000               0.000000000               0.000000000               0.000000000               0.000000000               0.000000000               0.000000000               0.000000000               0.000000000               0.000000000               0.000000000               0.000000000               0.000000000               0.000000000               0.000000000               0.000000000               0.000000000               0.000000000               0.000000000               0.000000000               0.000000000               0.000000000               0.000000000               0.000000000               0.000000000               0.000000000               0.000000000               0.000000000               0.000000000               0.000000000               0.000000000               0.000000000               0.000000000               0.000000000               0.000000000               0.000000000               0.000000000               0.000000000               0.000000000               0.000000000               0.000000000               0.000000000               0.000000000               0.000000000               0.000000000               0.000000000               0.000000000               0.000000000               0.000000000               0.000000000               0.000000000               0.000000000               0.000000000               0.000000000               0.000000000               0.000000000               0.002262600               0.023238432               0.001561215              -0.002056324               0.008431508               0.006375184               0.000000000               0.000000000               0.000000000               0.000000000               0.002007540               0.017900293               0.000690616              -0.001484706               0.006461607               0.004976901               0.000000000               0.000000000               0.000000000               0.000000000               0.002430073               0.013618541              -0.000165028              -0.000791038               0.004803148               0.004012109               0.000000000               0.000000000               0.000000000               0.000000000               0.002140421               0.011194682              -0.000513204              -0.000596676               0.003930415               0.003333739               0.000000000               0.000000000               0.000000000               0.000000000               0.001692028               0.009649042              -0.000650302              -0.000571618               0.003406854               0.002835236               0.000000000               0.000000000               0.000000000               0.000000000               0.001258774               0.008555929              -0.000691500              -0.000597450               0.003051098               0.002453648               0.000000000               0.000000000               0.000000000               0.000000000               0.000888356               0.007703637              -0.000685660              -0.000629820               0.002777793               0.002147973               0.000000000               0.000000000               0.000000000               0.000000000               0.000593087               0.006979320              -0.000657873              -0.000650006               0.002543085               0.001893079               0.000000000               0.000000000               0.000000000               0.000000000               0.000364379               0.006318122              -0.000619726              -0.000653122               0.002323727               0.001670605               0.000000000               0.000000000               0.000000000               0.000000000               0.000193094               0.005683123              -0.000577534              -0.000637979               0.002107015               0.001469036               0.000000000               0.000000000               0.000000000               0.000000000               0.000074980               0.005061059              -0.000540195              -0.000604514               0.001888507               0.001283994               0.000000000               0.000000000               0.000000000               0.000000000              -0.000008451               0.004440721              -0.000505214              -0.000558258               0.001666312               0.001108054               0.000000000               0.000000000               0.000000000               0.000000000              -0.000068631               0.003809858              -0.000462419              -0.000501968               0.001437262               0.000935295               0.000000000               0.000000000               0.000000000               0.000000000              -0.000102485               0.003153655              -0.000402049              -0.000432638               0.001195420               0.000762782               0.000000000               0.000000000               0.000000000               0.000000000              -0.000104512               0.002456085              -0.000312388              -0.000346202               0.000934088               0.000587885               0.000000000               0.000000000               0.000000000               0.000000000              -0.000066372               0.001697739              -0.000179796              -0.000237106               0.000644943               0.000407836               0.000000000               0.000000000               0.000000000               0.000000000              -0.000095551               0.001133498              -0.000110956              -0.000177519               0.000437002               0.000259483               0.000000000               0.000000000               0.000000000               0.000000000               0.002405932               0.021771553               0.002885027              -0.001819216               0.007863517               0.006044301               0.000000000               0.000000000               0.000000000               0.000000000               0.001793182               0.016978546               0.001267534              -0.001449872               0.006142749               0.004692877               0.000000000               0.000000000               0.000000000               0.000000000               0.001836571               0.013258978              -0.000307260              -0.000968656               0.004742500               0.003773845               0.000000000               0.000000000               0.000000000               0.000000000               0.001423686               0.011120668              -0.000923098              -0.000856199               0.003992252               0.003136053               0.000000000               0.000000000               0.000000000               0.000000000               0.000970215               0.009716763              -0.001150738              -0.000850763               0.003522476               0.002671713               0.000000000               0.000000000               0.000000000               0.000000000               0.000581148               0.008689206              -0.001208946              -0.000868219               0.003185779               0.002317560               0.000000000               0.000000000               0.000000000               0.000000000               0.000279218               0.007866050              -0.001188350              -0.000878548               0.002914840               0.002036292               0.000000000               0.000000000               0.000000000               0.000000000               0.000060125               0.007158260              -0.001130924              -0.000872234               0.002676807               0.001804573               0.000000000               0.000000000               0.000000000               0.000000000              -0.000096508               0.006509704              -0.001054613              -0.000849902               0.002453180               0.001603278               0.000000000               0.000000000               0.000000000               0.000000000              -0.000196578               0.005894126              -0.000973672              -0.000810481               0.002234849               0.001424368               0.000000000               0.000000000               0.000000000               0.000000000              -0.000246959               0.005297223              -0.000900257              -0.000754761               0.002017310               0.001262549               0.000000000               0.000000000               0.000000000               0.000000000              -0.000263949               0.004712017              -0.000831242              -0.000687982               0.001799984               0.001112002               0.000000000               0.000000000               0.000000000               0.000000000              -0.000254201               0.004135997              -0.000749575              -0.000612324               0.001582760               0.000970436               0.000000000               0.000000000               0.000000000               0.000000000              -0.000223015               0.003561713              -0.000639744              -0.000528844               0.001363507               0.000834663               0.000000000               0.000000000               0.000000000               0.000000000              -0.000168243               0.002988954              -0.000486106              -0.000436710               0.001141878               0.000705168               0.000000000               0.000000000               0.000000000               0.000000000              -0.000089411               0.002423175              -0.000272014              -0.000336425               0.000919859               0.000583433               0.000000000               0.000000000               0.000000000               0.000000000              -0.000083628               0.002039340              -0.000161922              -0.000286277               0.000775199               0.000488922               0.000000000               0.000000000               0.000000000               0.000000000               0.002511786               0.019543596               0.003787274              -0.001501028               0.007014809               0.005513781               0.000000000               0.000000000               0.000000000               0.000000000               0.001406221               0.015606308               0.001656898              -0.001423453               0.005676535               0.004253082               0.000000000               0.000000000               0.000000000               0.000000000               0.000931532               0.012730726              -0.000384441              -0.001242013               0.004657537               0.003415524               0.000000000               0.000000000               0.000000000               0.000000000               0.000381710               0.010988011              -0.001133141              -0.001230357               0.004072753               0.002842396               0.000000000               0.000000000               0.000000000               0.000000000              -0.000046910               0.009774035              -0.001385764              -0.001239343               0.003671093               0.002431750               0.000000000               0.000000000               0.000000000               0.000000000              -0.000344750               0.008833868              -0.001433797              -0.001233512               0.003355764               0.002122252               0.000000000               0.000000000               0.000000000               0.000000000              -0.000530061               0.008049696              -0.001392572              -0.001204982               0.003084866               0.001879883               0.000000000               0.000000000               0.000000000               0.000000000              -0.000632154               0.007359630              -0.001309231              -0.001157009               0.002838855               0.001681846               0.000000000               0.000000000               0.000000000               0.000000000              -0.000675348               0.006727119              -0.001207143              -0.001094143               0.002607065               0.001512922               0.000000000               0.000000000               0.000000000               0.000000000              -0.000667551               0.006135543              -0.001100404              -0.001017272               0.002384251               0.001366979               0.000000000               0.000000000               0.000000000               0.000000000              -0.000622162               0.005572891              -0.001002659              -0.000929920               0.002167585               0.001237665               0.000000000               0.000000000               0.000000000               0.000000000              -0.000550036               0.005041163              -0.000912812              -0.000836407               0.001959173               0.001122766               0.000000000               0.000000000               0.000000000               0.000000000              -0.000458013               0.004540689              -0.000808441              -0.000739339               0.001759994               0.001020655               0.000000000               0.000000000               0.000000000               0.000000000              -0.000352803               0.004075495              -0.000671367              -0.000641737               0.001572397               0.000930660               0.000000000               0.000000000               0.000000000               0.000000000              -0.000240542               0.003653766              -0.000492362              -0.000546923               0.001400217               0.000853295               0.000000000               0.000000000               0.000000000               0.000000000              -0.000123256               0.003300231              -0.000267407              -0.000458749               0.001252982               0.000794233               0.000000000               0.000000000               0.000000000               0.000000000              -0.000081233               0.003099923              -0.000152451              -0.000417952               0.001172615               0.000754663               0.000000000               0.000000000               0.000000000               0.000000000               0.002426844               0.016837477               0.004181067              -0.001194618               0.006010642               0.004816023               0.000000000               0.000000000               0.000000000               0.000000000               0.000818495               0.013977418               0.001843534              -0.001440239               0.005139172               0.003698933               0.000000000               0.000000000               0.000000000               0.000000000              -0.000182381               0.012103522              -0.000354748              -0.001581329               0.004561577               0.002980247               0.000000000               0.000000000               0.000000000               0.000000000              -0.000806178               0.010789181              -0.001099832              -0.001650960               0.004146678               0.002495717               0.000000000               0.000000000               0.000000000               0.000000000              -0.001144294               0.009767398              -0.001323202              -0.001650031               0.003805777               0.002155746               0.000000000               0.000000000               0.000000000               0.000000000              -0.001297172               0.008911664              -0.001347441              -0.001600394               0.003503990               0.001903596               0.000000000               0.000000000               0.000000000               0.000000000              -0.001328295               0.008168673              -0.001289729              -0.001519192               0.003229261               0.001710069               0.000000000               0.000000000               0.000000000               0.000000000              -0.001279720               0.007498783              -0.001196188              -0.001417240               0.002971983               0.001554743               0.000000000               0.000000000               0.000000000               0.000000000              -0.001179277               0.006882208              -0.001088531              -0.001302502               0.002728214               0.001425712               0.000000000               0.000000000               0.000000000               0.000000000              -0.001048139               0.006309929              -0.000977774              -0.001181791               0.002497219               0.001315428               0.000000000               0.000000000               0.000000000               0.000000000              -0.000899504               0.005790121              -0.000875383              -0.001061077               0.002283713               0.001222636               0.000000000               0.000000000               0.000000000               0.000000000              -0.000742437               0.005318387              -0.000782037              -0.000943210               0.002087181               0.001143971               0.000000000               0.000000000               0.000000000               0.000000000              -0.000577161               0.004902276              -0.000676966              -0.000829218               0.001910482               0.001081264               0.000000000               0.000000000               0.000000000               0.000000000              -0.000411683               0.004548040              -0.000541752              -0.000722884               0.001756960               0.001034075               0.000000000               0.000000000               0.000000000               0.000000000              -0.000254056               0.004264582              -0.000377987              -0.000628342               0.001630960               0.001002618               0.000000000               0.000000000               0.000000000               0.000000000              -0.000118615               0.004074860              -0.000197115              -0.000553837               0.001542885               0.000989049               0.000000000               0.000000000               0.000000000               0.000000000              -0.000062943               0.003998652              -0.000106307              -0.000523434               0.001507349               0.000983915               0.000000000               0.000000000               0.000000000               0.000000000               0.002026618               0.013936898               0.004090162              -0.000982131               0.004972962               0.003990831               0.000000000               0.000000000               0.000000000               0.000000000               0.000037653               0.012265010               0.001866673              -0.001519004               0.004594630               0.003075626               0.000000000               0.000000000               0.000000000               0.000000000              -0.001373147               0.011418452              -0.000191764              -0.001942232               0.004453523               0.002511291               0.000000000               0.000000000               0.000000000               0.000000000              -0.001958044               0.010502489              -0.000833032              -0.002047073               0.004183152               0.002136079               0.000000000               0.000000000               0.000000000               0.000000000              -0.002133747               0.009647555              -0.001005536              -0.002006095               0.003884518               0.001878423               0.000000000               0.000000000               0.000000000               0.000000000              -0.002097594               0.008870756              -0.001014715              -0.001895438               0.003588702               0.001693264               0.000000000               0.000000000               0.000000000               0.000000000              -0.001947703               0.008167571              -0.000960453              -0.001751331               0.003306273               0.001554942               0.000000000               0.000000000               0.000000000               0.000000000              -0.001736196               0.007518491              -0.000876993              -0.001590881               0.003036432               0.001445551               0.000000000               0.000000000               0.000000000               0.000000000              -0.001495417               0.006915176              -0.000783322              -0.001425175               0.002780094               0.001354919               0.000000000               0.000000000               0.000000000               0.000000000              -0.001252528               0.006370248              -0.000694014              -0.001265976               0.002545387               0.001279411               0.000000000               0.000000000               0.000000000               0.000000000              -0.001011696               0.005900285              -0.000610432              -0.001116919               0.002339048               0.001222129               0.000000000               0.000000000               0.000000000               0.000000000              -0.000780267               0.005496878              -0.000532752              -0.000979708               0.002158843               0.001179136               0.000000000               0.000000000               0.000000000               0.000000000              -0.000566937               0.005159408              -0.000448771              -0.000857525               0.002005627               0.001148102               0.000000000               0.000000000               0.000000000               0.000000000              -0.000379051               0.004889840              -0.000337838              -0.000753372               0.001881054               0.001127682               0.000000000               0.000000000               0.000000000               0.000000000              -0.000217100               0.004696341              -0.000214060              -0.000668454               0.001788249               0.001119795               0.000000000               0.000000000               0.000000000               0.000000000              -0.000092929               0.004590740              -0.000102981              -0.000608689               0.001733128               0.001124439               0.000000000               0.000000000               0.000000000               0.000000000              -0.000044105               0.004561646              -0.000052878              -0.000586744               0.001716115               0.001129371               0.000000000               0.000000000               0.000000000               0.000000000               0.001256515               0.011081570               0.003609826              -0.000914004               0.003998487               0.003084483               0.000000000               0.000000000               0.000000000               0.000000000              -0.000885000               0.010599849               0.001787813              -0.001656853               0.004085531               0.002428679               0.000000000               0.000000000               0.000000000               0.000000000              -0.002506630               0.010692793               0.000108687              -0.002276580               0.004323089               0.002046509               0.000000000               0.000000000               0.000000000               0.000000000              -0.002925333               0.010111298              -0.000383515              -0.002360906               0.004157368               0.001796461               0.000000000               0.000000000               0.000000000               0.000000000              -0.002877561               0.009398096              -0.000520210              -0.002253842               0.003883948               0.001630106               0.000000000               0.000000000               0.000000000               0.000000000              -0.002633483               0.008693921              -0.000538851              -0.002074291               0.003589375               0.001515084               0.000000000               0.000000000               0.000000000               0.000000000              -0.002307551               0.008024152              -0.000513550              -0.001868346               0.003297472               0.001429127               0.000000000               0.000000000               0.000000000               0.000000000              -0.001950292               0.007396799              -0.000462915              -0.001655955               0.003017560               0.001361605               0.000000000               0.000000000               0.000000000               0.000000000              -0.001587861               0.006825721              -0.000404819              -0.001448659               0.002758104               0.001309445               0.000000000               0.000000000               0.000000000               0.000000000              -0.001251566               0.006328819              -0.000356837              -0.001260436               0.002529731               0.001269294               0.000000000               0.000000000               0.000000000               0.000000000              -0.000948560               0.005914493              -0.000313058              -0.001095019               0.002336484               0.001241465               0.000000000               0.000000000               0.000000000               0.000000000              -0.000679017               0.005573330              -0.000265855              -0.000951295               0.002174857               0.001223561               0.000000000               0.000000000               0.000000000               0.000000000              -0.000454681               0.005291435              -0.000213133              -0.000831933               0.002041105               0.001209172               0.000000000               0.000000000               0.000000000               0.000000000              -0.000279186               0.005070850              -0.000143224              -0.000738549               0.001936449               0.001197900               0.000000000               0.000000000               0.000000000               0.000000000              -0.000145118               0.004924455              -0.000074037              -0.000669974               0.001864793               0.001194819               0.000000000               0.000000000               0.000000000               0.000000000              -0.000055030               0.004849696              -0.000029796              -0.000626847               0.001825498               0.001198652               0.000000000               0.000000000               0.000000000               0.000000000              -0.000027208               0.004825839              -0.000015796              -0.000613431               0.001813074               0.001199643               0.000000000               0.000000000               0.000000000               0.000000000               0.000156054               0.008454751               0.002852424              -0.000998323               0.003150996               0.002152673               0.000000000               0.000000000               0.000000000               0.000000000              -0.001892443               0.009082007               0.001658976              -0.001844913               0.003642276               0.001797363               0.000000000               0.000000000               0.000000000               0.000000000              -0.003469990               0.009936549               0.000525807              -0.002543309               0.004159919               0.001616611               0.000000000               0.000000000               0.000000000               0.000000000              -0.003621238               0.009616953               0.000165565              -0.002560077               0.004058978               0.001498901               0.000000000               0.000000000               0.000000000               0.000000000              -0.003326677               0.009032878               0.000029824              -0.002376608               0.003803132               0.001426524               0.000000000               0.000000000               0.000000000               0.000000000              -0.002883331               0.008398291              -0.000023427              -0.002131030               0.003509746               0.001378715               0.000000000               0.000000000               0.000000000               0.000000000              -0.002398453               0.007766877              -0.000046751              -0.001870275               0.003212358               0.001342083               0.000000000               0.000000000               0.000000000               0.000000000              -0.001919320               0.007174153              -0.000051203              -0.001616510               0.002930197               0.001313687               0.000000000               0.000000000               0.000000000               0.000000000              -0.001472928               0.006652939              -0.000044899              -0.001383962               0.002678945               0.001294983               0.000000000               0.000000000               0.000000000               0.000000000              -0.001076637               0.006214896              -0.000045805              -0.001180598               0.002465144               0.001284546               0.000000000               0.000000000               0.000000000               0.000000000              -0.000747527               0.005847112              -0.000048492              -0.001011209               0.002286087               0.001274878               0.000000000               0.000000000               0.000000000               0.000000000              -0.000483726               0.005538878              -0.000040582              -0.000873755               0.002137526               0.001263771               0.000000000               0.000000000               0.000000000               0.000000000              -0.000282828               0.005289854              -0.000027679              -0.000767290               0.002019030               0.001251740               0.000000000               0.000000000               0.000000000               0.000000000              -0.000146580               0.005105495              -0.000007779              -0.000693152               0.001932865               0.001239713               0.000000000               0.000000000               0.000000000               0.000000000              -0.000061175               0.004995022               0.000006915              -0.000647317               0.001880763               0.001233446               0.000000000               0.000000000               0.000000000               0.000000000              -0.000015943               0.004943722               0.000005268              -0.000623942               0.001855872               0.001231929               0.000000000               0.000000000               0.000000000               0.000000000              -0.000008732               0.004925646              -0.000000699              -0.000618979               0.001848192               0.001229213               0.000000000               0.000000000               0.000000000               0.000000000              -0.001141632               0.006254268               0.001941990              -0.001209894               0.002488033               0.001278139               0.000000000               0.000000000               0.000000000               0.000000000              -0.002876799               0.007731134               0.001520380              -0.002045187               0.003258747               0.001213561               0.000000000               0.000000000               0.000000000               0.000000000              -0.004223347               0.009177766               0.001021252              -0.002730969               0.003969548               0.001238579               0.000000000               0.000000000               0.000000000               0.000000000              -0.004098297               0.009126696               0.000739998              -0.002677692               0.003934765               0.001257074               0.000000000               0.000000000               0.000000000               0.000000000              -0.003601237               0.008694402               0.000576346              -0.002437258               0.003710524               0.001273266               0.000000000               0.000000000               0.000000000               0.000000000              -0.003001254               0.008151530               0.000473451              -0.002144406               0.003431952               0.001287545               0.000000000               0.000000000               0.000000000               0.000000000              -0.002390719               0.007584747               0.000394949              -0.001844608               0.003143093               0.001298485               0.000000000               0.000000000               0.000000000               0.000000000              -0.001818014               0.007044955               0.000329000              -0.001562371               0.002869085               0.001306714               0.000000000               0.000000000               0.000000000               0.000000000              -0.001312137               0.006570397               0.000274901              -0.001313348               0.002627893               0.001314545               0.000000000               0.000000000               0.000000000               0.000000000              -0.000882284               0.006172739               0.000226334              -0.001102446               0.002425041               0.001322595               0.000000000               0.000000000               0.000000000               0.000000000              -0.000542799               0.005824068               0.000182350              -0.000931556               0.002251855               0.001320299               0.000000000               0.000000000               0.000000000               0.000000000              -0.000289277               0.005522443               0.000145516              -0.000798782               0.002107057               0.001308275               0.000000000               0.000000000               0.000000000               0.000000000              -0.000108887               0.005283939               0.000107963              -0.000701323               0.001995070               0.001293747               0.000000000               0.000000000               0.000000000               0.000000000              -0.000009416               0.005112503               0.000070763              -0.000642592               0.001918348               0.001275756               0.000000000               0.000000000               0.000000000               0.000000000               0.000021942               0.005019122               0.000038488              -0.000619161               0.001879411               0.001260250               0.000000000               0.000000000               0.000000000               0.000000000               0.000015876               0.004983664               0.000013104              -0.000617003               0.001866872               0.001249869               0.000000000               0.000000000               0.000000000               0.000000000               0.000003545               0.004973789               0.000001541              -0.000620393               0.001864710               0.001244318               0.000000000               0.000000000               0.000000000               0.000000000              -0.002644190               0.004225778               0.000995816              -0.001519790               0.001915175               0.000395385               0.000000000               0.000000000               0.000000000               0.000000000              -0.003709101               0.006162728               0.001370107              -0.002161249               0.002774638               0.000613389               0.000000000               0.000000000               0.000000000               0.000000000              -0.004674792               0.008035632               0.001538588              -0.002757494               0.003597682               0.000840187               0.000000000               0.000000000               0.000000000               0.000000000              -0.004401252               0.008383298               0.001344493              -0.002698375               0.003693863               0.000995488               0.000000000               0.000000000               0.000000000               0.000000000              -0.003820974               0.008231909               0.001149009              -0.002461848               0.003564558               0.001102710               0.000000000               0.000000000               0.000000000               0.000000000              -0.003171198               0.007898173               0.000991929              -0.002176465               0.003358186               0.001181721               0.000000000               0.000000000               0.000000000               0.000000000              -0.002523785               0.007488580               0.000858097              -0.001882487               0.003123664               0.001241177               0.000000000               0.000000000               0.000000000               0.000000000              -0.001919408               0.007064905               0.000734875              -0.001602887               0.002889240               0.001286353               0.000000000               0.000000000               0.000000000               0.000000000              -0.001381736               0.006665959               0.000625682              -0.001351393               0.002672428               0.001321036               0.000000000               0.000000000               0.000000000               0.000000000              -0.000922562               0.006307508               0.000530023              -0.001134397               0.002480614               0.001346217               0.000000000               0.000000000               0.000000000               0.000000000              -0.000551945               0.005976131               0.000441853              -0.000953993               0.002310021               0.001356028               0.000000000               0.000000000               0.000000000               0.000000000              -0.000271313               0.005675334               0.000358664              -0.000811157               0.002162145               0.001350988               0.000000000               0.000000000               0.000000000               0.000000000              -0.000073911               0.005412469               0.000269676              -0.000704273               0.002038896               0.001334623               0.000000000               0.000000000               0.000000000               0.000000000               0.000043615               0.005209133               0.000174342              -0.000634785               0.001947955               0.001313171               0.000000000               0.000000000               0.000000000               0.000000000               0.000087002               0.005083149               0.000089975              -0.000602766               0.001895288               0.001292522               0.000000000               0.000000000               0.000000000               0.000000000               0.000073165               0.005023660               0.000030991              -0.000600519               0.001874710               0.001274190               0.000000000               0.000000000               0.000000000               0.000000000               0.000046564               0.005003676               0.000005262              -0.000607997               0.001870541               0.001262544               0.000000000               0.000000000               0.000000000               0.000000000              -0.004533966               0.002392026               0.000083627              -0.001999237               0.001463745              -0.000535493               0.000000000               0.000000000               0.000000000               0.000000000              -0.004641836               0.004573494               0.001158440              -0.002312370               0.002295272              -0.000017098               0.000000000               0.000000000               0.000000000               0.000000000              -0.005035406               0.006666246               0.001955455              -0.002721552               0.003129243               0.000407691               0.000000000               0.000000000               0.000000000               0.000000000              -0.004625163               0.007391710               0.001919190              -0.002658394               0.003350009               0.000691616               0.000000000               0.000000000               0.000000000               0.000000000              -0.004002149               0.007568452               0.001726093              -0.002446857               0.003338411               0.000891554               0.000000000               0.000000000               0.000000000               0.000000000              -0.003337804               0.007492200               0.001528885              -0.002188196               0.003226774               0.001038577               0.000000000               0.000000000               0.000000000               0.000000000              -0.002682650               0.007280456               0.001347640              -0.001916046               0.003065476               0.001149430               0.000000000               0.000000000               0.000000000               0.000000000              -0.002064579               0.007003343               0.001178152              -0.001649631               0.002884301               0.001234670               0.000000000               0.000000000               0.000000000               0.000000000              -0.001499000               0.006710703               0.001026553              -0.001400960               0.002703865               0.001302905               0.000000000               0.000000000               0.000000000               0.000000000              -0.000998506               0.006421997               0.000892186              -0.001177187               0.002533040               0.001355853               0.000000000               0.000000000               0.000000000               0.000000000              -0.000576957               0.006132657               0.000766409              -0.000982939               0.002371845               0.001388906               0.000000000               0.000000000               0.000000000               0.000000000              -0.000242710               0.005849436               0.000643014              -0.000822194               0.002223857               0.001401663               0.000000000               0.000000000               0.000000000               0.000000000               0.000005561               0.005579981               0.000509623              -0.000695411               0.002091779               0.001396368               0.000000000               0.000000000               0.000000000               0.000000000               0.000171762               0.005347591               0.000361721              -0.000604037               0.001983858               0.001379821               0.000000000               0.000000000               0.000000000               0.000000000               0.000251671               0.005174103               0.000213926              -0.000552385               0.001908812               0.001356427               0.000000000               0.000000000               0.000000000               0.000000000               0.000248063               0.005066703               0.000091067              -0.000540313               0.001868988               0.001328675               0.000000000               0.000000000               0.000000000               0.000000000               0.000206216               0.005015582               0.000031399              -0.000549616               0.001855049               0.001305434               0.000000000               0.000000000               0.000000000               0.000000000              -0.006678168               0.000910641              -0.000708185              -0.002618140               0.001176252              -0.001441888               0.000000000               0.000000000               0.000000000               0.000000000              -0.005713490               0.003074149               0.000871134              -0.002526823               0.001866978              -0.000659845               0.000000000               0.000000000               0.000000000               0.000000000              -0.005334218               0.005096869               0.002162179              -0.002637435               0.002578083              -0.000059352               0.000000000               0.000000000               0.000000000               0.000000000              -0.004700826               0.006089013               0.002323452              -0.002523931               0.002870960               0.000347029               0.000000000               0.000000000               0.000000000               0.000000000              -0.004017401               0.006568214               0.002185225              -0.002327547               0.002965231               0.000637684               0.000000000               0.000000000               0.000000000               0.000000000              -0.003346776               0.006757185               0.001982628              -0.002099685               0.002952267               0.000852582               0.000000000               0.000000000               0.000000000               0.000000000              -0.002698998               0.006770543               0.001775179              -0.001858438               0.002876304               0.001017866               0.000000000               0.000000000               0.000000000               0.000000000              -0.002081628               0.006674380               0.001577141              -0.001614904               0.002763072               0.001148168               0.000000000               0.000000000               0.000000000               0.000000000              -0.001503955               0.006523762               0.001401321              -0.001379450               0.002634382               0.001254932               0.000000000               0.000000000               0.000000000               0.000000000              -0.000973574               0.006342609               0.001244925              -0.001157914               0.002500153               0.001342239               0.000000000               0.000000000               0.000000000               0.000000000              -0.000505415               0.006132746               0.001095547              -0.000956122               0.002362936               0.001406813               0.000000000               0.000000000               0.000000000               0.000000000              -0.000111613               0.005901070               0.000946123              -0.000779487               0.002226832               0.001447346               0.000000000               0.000000000               0.000000000               0.000000000               0.000203558               0.005660654               0.000783556              -0.000631246               0.002097281               0.001466035               0.000000000               0.000000000               0.000000000               0.000000000               0.000438536               0.005434750               0.000593092              -0.000514892               0.001983196               0.001468304               0.000000000               0.000000000               0.000000000               0.000000000               0.000583413               0.005244831               0.000385236              -0.000436823               0.001893867               0.001457044               0.000000000               0.000000000               0.000000000               0.000000000               0.000625855               0.005103404               0.000184660              -0.000403229               0.001835527               0.001432298               0.000000000               0.000000000               0.000000000               0.000000000               0.000598768               0.005033493               0.000082602              -0.000404648               0.001812697               0.001408049               0.000000000               0.000000000               0.000000000               0.000000000              -0.008939007              -0.000134237              -0.001252531              -0.003335345               0.001067028              -0.002268317               0.000000000               0.000000000               0.000000000               0.000000000              -0.006871103               0.001755007               0.000557542              -0.002796036               0.001517004              -0.001279032               0.000000000               0.000000000               0.000000000               0.000000000              -0.005597153               0.003474454               0.002124275              -0.002533235               0.002002549              -0.000530686               0.000000000               0.000000000               0.000000000               0.000000000              -0.004658778               0.004591449               0.002462406              -0.002320968               0.002304122              -0.000016846               0.000000000               0.000000000               0.000000000               0.000000000              -0.003875861               0.005301875               0.002409869              -0.002116178               0.002472666               0.000356488               0.000000000               0.000000000               0.000000000               0.000000000              -0.003188616               0.005731922               0.002238613              -0.001912217               0.002548027               0.000635809               0.000000000               0.000000000               0.000000000               0.000000000              -0.002554506               0.005972170               0.002036572              -0.001704458               0.002558855               0.000854398               0.000000000               0.000000000               0.000000000               0.000000000              -0.001947581               0.006077780               0.001834813              -0.001490062               0.002522593               0.001032531               0.000000000               0.000000000               0.000000000               0.000000000              -0.001369988               0.006092669               0.001653348              -0.001275326               0.002455978               0.001180651               0.000000000               0.000000000               0.000000000               0.000000000              -0.000826706               0.006046364               0.001491411              -0.001065808               0.002370704               0.001304895               0.000000000               0.000000000               0.000000000               0.000000000              -0.000321088               0.005947718               0.001337171              -0.000863871               0.002270510               0.001406639               0.000000000               0.000000000               0.000000000               0.000000000               0.000134339               0.005802196               0.001181952              -0.000674896               0.002159011               0.001484115               0.000000000               0.000000000               0.000000000               0.000000000               0.000526853               0.005627366               0.001009316              -0.000505850               0.002044387               0.001538536               0.000000000               0.000000000               0.000000000               0.000000000               0.000855397               0.005441507               0.000801910              -0.000359414               0.001933622               0.001574208               0.000000000               0.000000000               0.000000000               0.000000000               0.001110112               0.005262184               0.000558349              -0.000241481               0.001834538               0.001593057               0.000000000               0.000000000               0.000000000               0.000000000               0.001267950               0.005115440               0.000289488              -0.000163948               0.001759779               0.001595831               0.000000000               0.000000000               0.000000000               0.000000000               0.001316108               0.005051696               0.000150098              -0.000137921               0.001729856               0.001591934               0.000000000               0.000000000               0.000000000               0.000000000              -0.011096472              -0.000777753              -0.001446574              -0.004063955               0.001095393              -0.002968562               0.000000000               0.000000000               0.000000000               0.000000000              -0.008016881               0.000687158               0.000281368              -0.003092222               0.001259785              -0.001832437               0.000000000               0.000000000               0.000000000               0.000000000              -0.005836523               0.001963803               0.001838730              -0.002434168               0.001465980              -0.000968188               0.000000000               0.000000000               0.000000000               0.000000000              -0.004536214               0.003073316               0.002272519              -0.002085241               0.001719507              -0.000365735               0.000000000               0.000000000               0.000000000               0.000000000              -0.003617477               0.003924439               0.002300751              -0.001847105               0.001923834               0.000076729               0.000000000               0.000000000               0.000000000               0.000000000              -0.002890922               0.004542888               0.002183042              -0.001651953               0.002064931               0.000412978               0.000000000               0.000000000               0.000000000               0.000000000              -0.002261266               0.004981028               0.002017088              -0.001470601               0.002150526               0.000679925               0.000000000               0.000000000               0.000000000               0.000000000              -0.001673795               0.005280143               0.001840081              -0.001287689               0.002189259               0.000901570               0.000000000               0.000000000               0.000000000               0.000000000              -0.001108882               0.005466870               0.001673565              -0.001099188               0.002188667               0.001089480               0.000000000               0.000000000               0.000000000               0.000000000              -0.000564109               0.005565400               0.001526777              -0.000907214               0.002157519               0.001250305               0.000000000               0.000000000               0.000000000               0.000000000              -0.000035133               0.005595873               0.001389342              -0.000712658               0.002102825               0.001390167               0.000000000               0.000000000               0.000000000               0.000000000               0.000471449               0.005564024               0.001244845              -0.000518709               0.002027559               0.001508850               0.000000000               0.000000000               0.000000000               0.000000000               0.000943279               0.005480043               0.001082806              -0.000331276               0.001937088               0.001605812               0.000000000               0.000000000               0.000000000               0.000000000               0.001385444               0.005368066               0.000890290              -0.000151467               0.001839826               0.001688359               0.000000000               0.000000000               0.000000000               0.000000000               0.001793133               0.005239421               0.000650767               0.000017496               0.001740624               0.001758120               0.000000000               0.000000000               0.000000000               0.000000000               0.002146256               0.005115672               0.000354086               0.000165385               0.001650079               0.001815464               0.000000000               0.000000000               0.000000000               0.000000000               0.002351806               0.005077403               0.000199373               0.000247249               0.001610034               0.001857284               0.000000000               0.000000000               0.000000000               0.000000000              -0.012895122              -0.001106424              -0.001255041              -0.004697365               0.001196972              -0.003500393               0.000000000               0.000000000               0.000000000               0.000000000              -0.009002953              -0.000081957               0.000093752              -0.003365860               0.001094627              -0.002271233               0.000000000               0.000000000               0.000000000               0.000000000              -0.006040814               0.000734700               0.001342807              -0.002357140               0.001030606              -0.001326534               0.000000000               0.000000000               0.000000000               0.000000000              -0.004390323               0.001751842               0.001743868              -0.001865349               0.001205721              -0.000659628               0.000000000               0.000000000               0.000000000               0.000000000              -0.003324514               0.002663275               0.001813017              -0.001579599               0.001414281              -0.000165318               0.000000000               0.000000000               0.000000000               0.000000000              -0.002543195               0.003405464               0.001750215              -0.001379378               0.001594935               0.000215557               0.000000000               0.000000000               0.000000000               0.000000000              -0.001906562               0.003991082               0.001638009              -0.001213844               0.001734961               0.000521117               0.000000000               0.000000000               0.000000000               0.000000000              -0.001332819               0.004444563               0.001509162              -0.001055376               0.001833297               0.000777922               0.000000000               0.000000000               0.000000000               0.000000000              -0.000783691               0.004780510               0.001384076              -0.000891446               0.001890636               0.000999189               0.000000000               0.000000000               0.000000000               0.000000000              -0.000241452               0.005017713               0.001272176              -0.000717758               0.001911807               0.001194049               0.000000000               0.000000000               0.000000000               0.000000000               0.000293429               0.005171328               0.001166259              -0.000536380               0.001902552               0.001366172               0.000000000               0.000000000               0.000000000               0.000000000               0.000827984               0.005250960               0.001052702              -0.000345876               0.001865594               0.001519719               0.000000000               0.000000000               0.000000000               0.000000000               0.001372604               0.005268679               0.000925420              -0.000143859               0.001804162               0.001660303               0.000000000               0.000000000               0.000000000               0.000000000               0.001929906               0.005244648               0.000776234               0.000068132               0.001725488               0.001793620               0.000000000               0.000000000               0.000000000               0.000000000               0.002506316               0.005189451               0.000583936               0.000291184               0.001632738               0.001923922               0.000000000               0.000000000               0.000000000               0.000000000               0.003100918               0.005105675               0.000327953               0.000524630               0.001526998               0.002051628               0.000000000               0.000000000               0.000000000               0.000000000               0.003520532               0.005101153               0.000197355               0.000682548               0.001472851               0.002155400               0.000000000               0.000000000               0.000000000               0.000000000              -0.014098843              -0.001237396              -0.000726935              -0.005132388               0.001298322              -0.003834066               0.000000000               0.000000000               0.000000000               0.000000000              -0.009674290              -0.000542328               0.000011364              -0.003560065               0.001005906              -0.002554160               0.000000000               0.000000000               0.000000000               0.000000000              -0.006179578              -0.000070115               0.000705538              -0.002308575               0.000746148              -0.001562427               0.000000000               0.000000000               0.000000000               0.000000000              -0.004274348               0.000851306               0.000944890              -0.001709292               0.000853526              -0.000855765               0.000000000               0.000000000               0.000000000               0.000000000              -0.003092940               0.001777089               0.000999219              -0.001381986               0.001053018              -0.000328969               0.000000000               0.000000000               0.000000000               0.000000000              -0.002264169               0.002584280               0.000974472              -0.001172096               0.001252116               0.000080020               0.000000000               0.000000000               0.000000000               0.000000000              -0.001612609               0.003254940               0.000919445              -0.001011594               0.001422167               0.000410573               0.000000000               0.000000000               0.000000000               0.000000000              -0.001043104               0.003802700               0.000852877              -0.000866500               0.001556387               0.000689887               0.000000000               0.000000000               0.000000000               0.000000000              -0.000504874               0.004241016               0.000787901              -0.000719453               0.001653476               0.000934022               0.000000000               0.000000000               0.000000000               0.000000000               0.000023893               0.004576275               0.000728260              -0.000563073               0.001713101               0.001150027               0.000000000               0.000000000               0.000000000               0.000000000               0.000557086               0.004817970               0.000667422              -0.000393338               0.001737087               0.001343748               0.000000000               0.000000000               0.000000000               0.000000000               0.001109849               0.004980056               0.000605324              -0.000206313               0.001728773               0.001522460               0.000000000               0.000000000               0.000000000               0.000000000               0.001702450               0.005079773               0.000535511               0.000003446               0.001692092               0.001695538               0.000000000               0.000000000               0.000000000               0.000000000               0.002347047               0.005130484               0.000451616               0.000238830               0.001630534               0.001869364               0.000000000               0.000000000               0.000000000               0.000000000               0.003058064               0.005137401               0.000344955               0.000504594               0.001544252               0.002048846               0.000000000               0.000000000               0.000000000               0.000000000               0.003852035               0.005090554               0.000196488               0.000808186               0.001427439               0.002235625               0.000000000               0.000000000               0.000000000               0.000000000               0.004453458               0.005115785               0.000121418               0.001030563               0.001361724               0.002392287               0.000000000               0.000000000               0.000000000               0.000000000               0.000000000               0.000000000               0.000000000               0.000000000               0.000000000               0.000000000               0.000000000               0.000000000               0.000000000               0.000000000               0.000000000               0.000000000               0.000000000               0.000000000               0.000000000               0.000000000               0.000000000               0.000000000               0.000000000               0.000000000               0.000000000               0.000000000               0.000000000               0.000000000               0.000000000               0.000000000               0.000000000               0.000000000               0.000000000               0.000000000               0.000000000               0.000000000               0.000000000               0.000000000               0.000000000               0.000000000               0.000000000               0.000000000               0.000000000               0.000000000               0.000000000               0.000000000               0.000000000               0.000000000               0.000000000               0.000000000               0.000000000               0.000000000               0.000000000               0.000000000               0.000000000               0.000000000               0.000000000               0.000000000               0.000000000               0.000000000               0.000000000               0.000000000               0.000000000               0.000000000               0.000000000               0.000000000               0.000000000               0.000000000               0.000000000               0.000000000               0.000000000               0.000000000               0.000000000               0.000000000               0.000000000               0.000000000               0.000000000               0.000000000               0.000000000               0.000000000               0.000000000               0.000000000               0.000000000               0.000000000               0.000000000               0.000000000               0.000000000               0.000000000               0.000000000               0.000000000               0.000000000               0.000000000               0.000000000               0.000000000               0.000000000               0.000000000               0.000000000               0.000000000               0.000000000               0.000000000               0.000000000               0.000000000               0.000000000               0.000000000               0.000000000               0.000000000               0.000000000               0.000000000               0.000000000               0.000000000               0.000000000               0.000000000               0.000000000               0.000000000               0.000000000               0.000000000               0.000000000               0.000000000               0.000000000               0.000000000               0.000000000               0.000000000               0.000000000               0.000000000               0.000000000               0.000000000               0.000000000               0.000000000               0.000000000               0.000000000               0.000000000               0.000000000               0.000000000               0.000000000               0.000000000               0.000000000               0.000000000               0.000000000               0.000000000               0.000000000               0.000000000               0.000000000               0.000000000               0.000000000               0.000000000               0.000000000               0.000000000               0.000000000               0.000000000               0.000000000               0.000000000               0.000000000               0.000000000               0.000000000               0.000000000               0.000000000               0.000000000               0.000000000               0.000000000               0.000000000               0.000000000               0.000000000               0.000000000               0.000000000               0.000000000               0.000000000               0.000000000               0.000000000               0.000000000               0.000000000               0.000000000               0.000000000               0.000000000               0.000000000 </DataArray>
</PointData>
</Piece>
</UnstructuredGrid> </VTKFile>
