<?xml version="1.0"?>
<VTKFile type="UnstructuredGrid" version="0.1">
<UnstructuredGrid>
<Piece NumberOfPoints="      1156" NumberOfCells="      1024">
<Points>
<DataArray type="Float64"                                    Name="coordinates"                                                      NumberOfComponents=" 3" format="ascii">
              0.133000000               0.000000000               0.000000000               0.155937500               0.000000000               0.000000000               0.178875000               0.000000000               0.000000000               0.201812500               0.000000000               0.000000000               0.224750000               0.000000000               0.000000000               0.247687500               0.000000000               0.000000000               0.270625000               0.000000000               0.000000000               0.293562500               0.000000000               0.000000000               0.316500000               0.000000000               0.000000000               0.339437500               0.000000000               0.000000000               0.362375000               0.000000000               0.000000000               0.385312500               0.000000000               0.000000000               0.408250000               0.000000000               0.000000000               0.431187500               0.000000000               0.000000000               0.454125000               0.000000000               0.000000000               0.477062500               0.000000000               0.000000000               0.500000000               0.000000000               0.000000000               0.132359569               0.013036280               0.000000000               0.155337096               0.016127762               0.000000000               0.178314623               0.019219245               0.000000000               0.201292150               0.022310727               0.000000000               0.224269676               0.025402210               0.000000000               0.247247203               0.028493692               0.000000000               0.270224730               0.031585175               0.000000000               0.293202257               0.034676657               0.000000000               0.316179784               0.037768140               0.000000000               0.339157311               0.040859622               0.000000000               0.362134838               0.043951105               0.000000000               0.385112365               0.047042587               0.000000000               0.408089892               0.050134070               0.000000000               0.431067419               0.053225552               0.000000000               0.454044946               0.056317035               0.000000000               0.477022473               0.059408517               0.000000000               0.500000000               0.062500000               0.000000000               0.130444442               0.025947013               0.000000000               0.153541665               0.032137825               0.000000000               0.176638887               0.038328636               0.000000000               0.199736109               0.044519448               0.000000000               0.222833332               0.050710260               0.000000000               0.245930554               0.056901071               0.000000000               0.269027776               0.063091883               0.000000000               0.292124999               0.069282695               0.000000000               0.315222221               0.075473506               0.000000000               0.338319444               0.081664318               0.000000000               0.361416666               0.087855130               0.000000000               0.384513888               0.094045942               0.000000000               0.407611111               0.100236753               0.000000000               0.430708333               0.106427565               0.000000000               0.453805555               0.112618377               0.000000000               0.476902778               0.118809188               0.000000000               0.500000000               0.125000000               0.000000000               0.127273065               0.038607862               0.000000000               0.150568498               0.047913621               0.000000000               0.173863932               0.057219379               0.000000000               0.197159365               0.066525138               0.000000000               0.220454798               0.075830897               0.000000000               0.243750232               0.085136655               0.000000000               0.267045665               0.094442414               0.000000000               0.290341099               0.103748172               0.000000000               0.313636532               0.113053931               0.000000000               0.336931966               0.122359690               0.000000000               0.360227399               0.131665448               0.000000000               0.383522833               0.140971207               0.000000000               0.406818266               0.150276966               0.000000000               0.430113700               0.159582724               0.000000000               0.453409133               0.168888483               0.000000000               0.476704567               0.178194241               0.000000000               0.500000000               0.187500000               0.000000000               0.122875978               0.050896897               0.000000000               0.146446229               0.063340840               0.000000000               0.170016481               0.075784784               0.000000000               0.193586732               0.088228728               0.000000000               0.217156983               0.100672672               0.000000000               0.240727235               0.113116616               0.000000000               0.264297486               0.125560560               0.000000000               0.287867738               0.138004504               0.000000000               0.311437989               0.150448448               0.000000000               0.335008240               0.162892392               0.000000000               0.358578492               0.175336336               0.000000000               0.382148743               0.187780280               0.000000000               0.405718994               0.200224224               0.000000000               0.429289246               0.212668168               0.000000000               0.452859497               0.225112112               0.000000000               0.476429749               0.237556056               0.000000000               0.500000000               0.250000000               0.000000000               0.117295528               0.062695766               0.000000000               0.141214558               0.078308531               0.000000000               0.165133587               0.093921295               0.000000000               0.189052617               0.109534060               0.000000000               0.212971646               0.125146824               0.000000000               0.236890676               0.140759589               0.000000000               0.260809705               0.156372354               0.000000000               0.284728735               0.171985118               0.000000000               0.308647764               0.187597883               0.000000000               0.332566794               0.203210648               0.000000000               0.356485823               0.218823412               0.000000000               0.380404853               0.234436177               0.000000000               0.404323882               0.250048941               0.000000000               0.428242912               0.265661706               0.000000000               0.452161941               0.281274471               0.000000000               0.476080971               0.296887235               0.000000000               0.500000000               0.312500000               0.000000000               0.110585458               0.073890841               0.000000000               0.134923867               0.092710163               0.000000000               0.159262276               0.111529486               0.000000000               0.183600685               0.130348808               0.000000000               0.207939094               0.149168131               0.000000000               0.232277503               0.167987453               0.000000000               0.256615912               0.186806776               0.000000000               0.280954320               0.205626098               0.000000000               0.305292729               0.224445420               0.000000000               0.329631138               0.243264743               0.000000000               0.353969547               0.262084065               0.000000000               0.378307956               0.280903388               0.000000000               0.402646365               0.299722710               0.000000000               0.426984773               0.318542033               0.000000000               0.451323182               0.337361355               0.000000000               0.475661591               0.356180678               0.000000000               0.500000000               0.375000000               0.000000000               0.102810390               0.084374307               0.000000000               0.127634741               0.106444663               0.000000000               0.152459092               0.128515018               0.000000000               0.177283442               0.150585374               0.000000000               0.202107793               0.172655730               0.000000000               0.226932143               0.194726086               0.000000000               0.251756494               0.216796442               0.000000000               0.276580845               0.238866798               0.000000000               0.301405195               0.260937153               0.000000000               0.326229546               0.283007509               0.000000000               0.351053896               0.305077865               0.000000000               0.375878247               0.327148221               0.000000000               0.400702598               0.349218577               0.000000000               0.425526948               0.371288933               0.000000000               0.450351299               0.393359288               0.000000000               0.475175649               0.415429644               0.000000000               0.500000000               0.437500000               0.000000000               0.094045202               0.094045202               0.000000000               0.119417377               0.119417377               0.000000000               0.144789552               0.144789552               0.000000000               0.170161727               0.170161727               0.000000000               0.195533901               0.195533901               0.000000000               0.220906076               0.220906076               0.000000000               0.246278251               0.246278251               0.000000000               0.271650426               0.271650426               0.000000000               0.297022601               0.297022601               0.000000000               0.322394776               0.322394776               0.000000000               0.347766951               0.347766951               0.000000000               0.373139126               0.373139126               0.000000000               0.398511300               0.398511300               0.000000000               0.423883475               0.423883475               0.000000000               0.449255650               0.449255650               0.000000000               0.474627825               0.474627825               0.000000000               0.500000000               0.500000000               0.000000000               0.084374307               0.102810390               0.000000000               0.106444663               0.127634741               0.000000000               0.128515018               0.152459092               0.000000000               0.150585374               0.177283442               0.000000000               0.172655730               0.202107793               0.000000000               0.194726086               0.226932143               0.000000000               0.216796442               0.251756494               0.000000000               0.238866798               0.276580845               0.000000000               0.260937153               0.301405195               0.000000000               0.283007509               0.326229546               0.000000000               0.305077865               0.351053896               0.000000000               0.327148221               0.375878247               0.000000000               0.349218577               0.400702598               0.000000000               0.371288933               0.425526948               0.000000000               0.393359288               0.450351299               0.000000000               0.415429644               0.475175649               0.000000000               0.437500000               0.500000000               0.000000000               0.073890841               0.110585458               0.000000000               0.092710163               0.134923867               0.000000000               0.111529486               0.159262276               0.000000000               0.130348808               0.183600685               0.000000000               0.149168131               0.207939094               0.000000000               0.167987453               0.232277503               0.000000000               0.186806776               0.256615912               0.000000000               0.205626098               0.280954320               0.000000000               0.224445420               0.305292729               0.000000000               0.243264743               0.329631138               0.000000000               0.262084065               0.353969547               0.000000000               0.280903388               0.378307956               0.000000000               0.299722710               0.402646365               0.000000000               0.318542033               0.426984773               0.000000000               0.337361355               0.451323182               0.000000000               0.356180678               0.475661591               0.000000000               0.375000000               0.500000000               0.000000000               0.062695766               0.117295528               0.000000000               0.078308531               0.141214558               0.000000000               0.093921295               0.165133587               0.000000000               0.109534060               0.189052617               0.000000000               0.125146824               0.212971646               0.000000000               0.140759589               0.236890676               0.000000000               0.156372354               0.260809705               0.000000000               0.171985118               0.284728735               0.000000000               0.187597883               0.308647764               0.000000000               0.203210648               0.332566794               0.000000000               0.218823412               0.356485823               0.000000000               0.234436177               0.380404853               0.000000000               0.250048941               0.404323882               0.000000000               0.265661706               0.428242912               0.000000000               0.281274471               0.452161941               0.000000000               0.296887235               0.476080971               0.000000000               0.312500000               0.500000000               0.000000000               0.050896897               0.122875978               0.000000000               0.063340840               0.146446229               0.000000000               0.075784784               0.170016481               0.000000000               0.088228728               0.193586732               0.000000000               0.100672672               0.217156983               0.000000000               0.113116616               0.240727235               0.000000000               0.125560560               0.264297486               0.000000000               0.138004504               0.287867738               0.000000000               0.150448448               0.311437989               0.000000000               0.162892392               0.335008240               0.000000000               0.175336336               0.358578492               0.000000000               0.187780280               0.382148743               0.000000000               0.200224224               0.405718994               0.000000000               0.212668168               0.429289246               0.000000000               0.225112112               0.452859497               0.000000000               0.237556056               0.476429749               0.000000000               0.250000000               0.500000000               0.000000000               0.038607862               0.127273065               0.000000000               0.047913621               0.150568498               0.000000000               0.057219379               0.173863932               0.000000000               0.066525138               0.197159365               0.000000000               0.075830897               0.220454798               0.000000000               0.085136655               0.243750232               0.000000000               0.094442414               0.267045665               0.000000000               0.103748172               0.290341099               0.000000000               0.113053931               0.313636532               0.000000000               0.122359690               0.336931966               0.000000000               0.131665448               0.360227399               0.000000000               0.140971207               0.383522833               0.000000000               0.150276966               0.406818266               0.000000000               0.159582724               0.430113700               0.000000000               0.168888483               0.453409133               0.000000000               0.178194241               0.476704567               0.000000000               0.187500000               0.500000000               0.000000000               0.025947013               0.130444442               0.000000000               0.032137825               0.153541665               0.000000000               0.038328636               0.176638887               0.000000000               0.044519448               0.199736109               0.000000000               0.050710260               0.222833332               0.000000000               0.056901071               0.245930554               0.000000000               0.063091883               0.269027776               0.000000000               0.069282695               0.292124999               0.000000000               0.075473506               0.315222221               0.000000000               0.081664318               0.338319444               0.000000000               0.087855130               0.361416666               0.000000000               0.094045942               0.384513888               0.000000000               0.100236753               0.407611111               0.000000000               0.106427565               0.430708333               0.000000000               0.112618377               0.453805555               0.000000000               0.118809188               0.476902778               0.000000000               0.125000000               0.500000000               0.000000000               0.013036280               0.132359569               0.000000000               0.016127762               0.155337096               0.000000000               0.019219245               0.178314623               0.000000000               0.022310727               0.201292150               0.000000000               0.025402210               0.224269676               0.000000000               0.028493692               0.247247203               0.000000000               0.031585175               0.270224730               0.000000000               0.034676657               0.293202257               0.000000000               0.037768140               0.316179784               0.000000000               0.040859622               0.339157311               0.000000000               0.043951105               0.362134838               0.000000000               0.047042587               0.385112365               0.000000000               0.050134070               0.408089892               0.000000000               0.053225552               0.431067419               0.000000000               0.056317035               0.454044946               0.000000000               0.059408517               0.477022473               0.000000000               0.062500000               0.500000000               0.000000000               0.000000000               0.133000000               0.000000000               0.000000000               0.155937500               0.000000000               0.000000000               0.178875000               0.000000000               0.000000000               0.201812500               0.000000000               0.000000000               0.224750000               0.000000000               0.000000000               0.247687500               0.000000000               0.000000000               0.270625000               0.000000000               0.000000000               0.293562500               0.000000000               0.000000000               0.316500000               0.000000000               0.000000000               0.339437500               0.000000000               0.000000000               0.362375000               0.000000000               0.000000000               0.385312500               0.000000000               0.000000000               0.408250000               0.000000000               0.000000000               0.431187500               0.000000000               0.000000000               0.454125000               0.000000000               0.000000000               0.477062500               0.000000000               0.000000000               0.500000000               0.000000000               0.133000000               0.000000000               0.000000000               0.155937500               0.000000000               0.000000000               0.178875000               0.000000000               0.000000000               0.201812500               0.000000000               0.000000000               0.224750000               0.000000000               0.000000000               0.247687500               0.000000000               0.000000000               0.270625000               0.000000000               0.000000000               0.293562500               0.000000000               0.000000000               0.316500000               0.000000000               0.000000000               0.339437500               0.000000000               0.000000000               0.362375000               0.000000000               0.000000000               0.385312500               0.000000000               0.000000000               0.408250000               0.000000000               0.000000000               0.431187500               0.000000000               0.000000000               0.454125000               0.000000000               0.000000000               0.477062500               0.000000000               0.000000000               0.500000000               0.000000000               0.000000000               0.132359569              -0.013036280               0.000000000               0.155337096              -0.016127762               0.000000000               0.178314623              -0.019219245               0.000000000               0.201292150              -0.022310727               0.000000000               0.224269676              -0.025402210               0.000000000               0.247247203              -0.028493692               0.000000000               0.270224730              -0.031585175               0.000000000               0.293202257              -0.034676657               0.000000000               0.316179784              -0.037768140               0.000000000               0.339157311              -0.040859622               0.000000000               0.362134838              -0.043951105               0.000000000               0.385112365              -0.047042587               0.000000000               0.408089892              -0.050134070               0.000000000               0.431067419              -0.053225552               0.000000000               0.454044946              -0.056317035               0.000000000               0.477022473              -0.059408517               0.000000000               0.500000000              -0.062500000               0.000000000               0.130444442              -0.025947013               0.000000000               0.153541665              -0.032137825               0.000000000               0.176638887              -0.038328636               0.000000000               0.199736109              -0.044519448               0.000000000               0.222833332              -0.050710260               0.000000000               0.245930554              -0.056901071               0.000000000               0.269027776              -0.063091883               0.000000000               0.292124999              -0.069282695               0.000000000               0.315222221              -0.075473506               0.000000000               0.338319444              -0.081664318               0.000000000               0.361416666              -0.087855130               0.000000000               0.384513888              -0.094045942               0.000000000               0.407611111              -0.100236753               0.000000000               0.430708333              -0.106427565               0.000000000               0.453805555              -0.112618377               0.000000000               0.476902778              -0.118809188               0.000000000               0.500000000              -0.125000000               0.000000000               0.127273065              -0.038607862               0.000000000               0.150568498              -0.047913621               0.000000000               0.173863932              -0.057219379               0.000000000               0.197159365              -0.066525138               0.000000000               0.220454798              -0.075830897               0.000000000               0.243750232              -0.085136655               0.000000000               0.267045665              -0.094442414               0.000000000               0.290341099              -0.103748172               0.000000000               0.313636532              -0.113053931               0.000000000               0.336931966              -0.122359690               0.000000000               0.360227399              -0.131665448               0.000000000               0.383522833              -0.140971207               0.000000000               0.406818266              -0.150276966               0.000000000               0.430113700              -0.159582724               0.000000000               0.453409133              -0.168888483               0.000000000               0.476704567              -0.178194241               0.000000000               0.500000000              -0.187500000               0.000000000               0.122875978              -0.050896897               0.000000000               0.146446229              -0.063340840               0.000000000               0.170016481              -0.075784784               0.000000000               0.193586732              -0.088228728               0.000000000               0.217156983              -0.100672672               0.000000000               0.240727235              -0.113116616               0.000000000               0.264297486              -0.125560560               0.000000000               0.287867738              -0.138004504               0.000000000               0.311437989              -0.150448448               0.000000000               0.335008240              -0.162892392               0.000000000               0.358578492              -0.175336336               0.000000000               0.382148743              -0.187780280               0.000000000               0.405718994              -0.200224224               0.000000000               0.429289246              -0.212668168               0.000000000               0.452859497              -0.225112112               0.000000000               0.476429749              -0.237556056               0.000000000               0.500000000              -0.250000000               0.000000000               0.117295528              -0.062695766               0.000000000               0.141214558              -0.078308531               0.000000000               0.165133587              -0.093921295               0.000000000               0.189052617              -0.109534060               0.000000000               0.212971646              -0.125146824               0.000000000               0.236890676              -0.140759589               0.000000000               0.260809705              -0.156372354               0.000000000               0.284728735              -0.171985118               0.000000000               0.308647764              -0.187597883               0.000000000               0.332566794              -0.203210648               0.000000000               0.356485823              -0.218823412               0.000000000               0.380404853              -0.234436177               0.000000000               0.404323882              -0.250048941               0.000000000               0.428242912              -0.265661706               0.000000000               0.452161941              -0.281274471               0.000000000               0.476080971              -0.296887235               0.000000000               0.500000000              -0.312500000               0.000000000               0.110585458              -0.073890841               0.000000000               0.134923867              -0.092710163               0.000000000               0.159262276              -0.111529486               0.000000000               0.183600685              -0.130348808               0.000000000               0.207939094              -0.149168131               0.000000000               0.232277503              -0.167987453               0.000000000               0.256615912              -0.186806776               0.000000000               0.280954320              -0.205626098               0.000000000               0.305292729              -0.224445420               0.000000000               0.329631138              -0.243264743               0.000000000               0.353969547              -0.262084065               0.000000000               0.378307956              -0.280903388               0.000000000               0.402646365              -0.299722710               0.000000000               0.426984773              -0.318542033               0.000000000               0.451323182              -0.337361355               0.000000000               0.475661591              -0.356180678               0.000000000               0.500000000              -0.375000000               0.000000000               0.102810390              -0.084374307               0.000000000               0.127634741              -0.106444663               0.000000000               0.152459092              -0.128515018               0.000000000               0.177283442              -0.150585374               0.000000000               0.202107793              -0.172655730               0.000000000               0.226932143              -0.194726086               0.000000000               0.251756494              -0.216796442               0.000000000               0.276580845              -0.238866798               0.000000000               0.301405195              -0.260937153               0.000000000               0.326229546              -0.283007509               0.000000000               0.351053896              -0.305077865               0.000000000               0.375878247              -0.327148221               0.000000000               0.400702598              -0.349218577               0.000000000               0.425526948              -0.371288933               0.000000000               0.450351299              -0.393359288               0.000000000               0.475175649              -0.415429644               0.000000000               0.500000000              -0.437500000               0.000000000               0.094045202              -0.094045202               0.000000000               0.119417377              -0.119417377               0.000000000               0.144789552              -0.144789552               0.000000000               0.170161727              -0.170161727               0.000000000               0.195533901              -0.195533901               0.000000000               0.220906076              -0.220906076               0.000000000               0.246278251              -0.246278251               0.000000000               0.271650426              -0.271650426               0.000000000               0.297022601              -0.297022601               0.000000000               0.322394776              -0.322394776               0.000000000               0.347766951              -0.347766951               0.000000000               0.373139126              -0.373139126               0.000000000               0.398511300              -0.398511300               0.000000000               0.423883475              -0.423883475               0.000000000               0.449255650              -0.449255650               0.000000000               0.474627825              -0.474627825               0.000000000               0.500000000              -0.500000000               0.000000000               0.084374307              -0.102810390               0.000000000               0.106444663              -0.127634741               0.000000000               0.128515018              -0.152459092               0.000000000               0.150585374              -0.177283442               0.000000000               0.172655730              -0.202107793               0.000000000               0.194726086              -0.226932143               0.000000000               0.216796442              -0.251756494               0.000000000               0.238866798              -0.276580845               0.000000000               0.260937153              -0.301405195               0.000000000               0.283007509              -0.326229546               0.000000000               0.305077865              -0.351053896               0.000000000               0.327148221              -0.375878247               0.000000000               0.349218577              -0.400702598               0.000000000               0.371288933              -0.425526948               0.000000000               0.393359288              -0.450351299               0.000000000               0.415429644              -0.475175649               0.000000000               0.437500000              -0.500000000               0.000000000               0.073890841              -0.110585458               0.000000000               0.092710163              -0.134923867               0.000000000               0.111529486              -0.159262276               0.000000000               0.130348808              -0.183600685               0.000000000               0.149168131              -0.207939094               0.000000000               0.167987453              -0.232277503               0.000000000               0.186806776              -0.256615912               0.000000000               0.205626098              -0.280954320               0.000000000               0.224445420              -0.305292729               0.000000000               0.243264743              -0.329631138               0.000000000               0.262084065              -0.353969547               0.000000000               0.280903388              -0.378307956               0.000000000               0.299722710              -0.402646365               0.000000000               0.318542033              -0.426984773               0.000000000               0.337361355              -0.451323182               0.000000000               0.356180678              -0.475661591               0.000000000               0.375000000              -0.500000000               0.000000000               0.062695766              -0.117295528               0.000000000               0.078308531              -0.141214558               0.000000000               0.093921295              -0.165133587               0.000000000               0.109534060              -0.189052617               0.000000000               0.125146824              -0.212971646               0.000000000               0.140759589              -0.236890676               0.000000000               0.156372354              -0.260809705               0.000000000               0.171985118              -0.284728735               0.000000000               0.187597883              -0.308647764               0.000000000               0.203210648              -0.332566794               0.000000000               0.218823412              -0.356485823               0.000000000               0.234436177              -0.380404853               0.000000000               0.250048941              -0.404323882               0.000000000               0.265661706              -0.428242912               0.000000000               0.281274471              -0.452161941               0.000000000               0.296887235              -0.476080971               0.000000000               0.312500000              -0.500000000               0.000000000               0.050896897              -0.122875978               0.000000000               0.063340840              -0.146446229               0.000000000               0.075784784              -0.170016481               0.000000000               0.088228728              -0.193586732               0.000000000               0.100672672              -0.217156983               0.000000000               0.113116616              -0.240727235               0.000000000               0.125560560              -0.264297486               0.000000000               0.138004504              -0.287867738               0.000000000               0.150448448              -0.311437989               0.000000000               0.162892392              -0.335008240               0.000000000               0.175336336              -0.358578492               0.000000000               0.187780280              -0.382148743               0.000000000               0.200224224              -0.405718994               0.000000000               0.212668168              -0.429289246               0.000000000               0.225112112              -0.452859497               0.000000000               0.237556056              -0.476429749               0.000000000               0.250000000              -0.500000000               0.000000000               0.038607862              -0.127273065               0.000000000               0.047913621              -0.150568498               0.000000000               0.057219379              -0.173863932               0.000000000               0.066525138              -0.197159365               0.000000000               0.075830897              -0.220454798               0.000000000               0.085136655              -0.243750232               0.000000000               0.094442414              -0.267045665               0.000000000               0.103748172              -0.290341099               0.000000000               0.113053931              -0.313636532               0.000000000               0.122359690              -0.336931966               0.000000000               0.131665448              -0.360227399               0.000000000               0.140971207              -0.383522833               0.000000000               0.150276966              -0.406818266               0.000000000               0.159582724              -0.430113700               0.000000000               0.168888483              -0.453409133               0.000000000               0.178194241              -0.476704567               0.000000000               0.187500000              -0.500000000               0.000000000               0.025947013              -0.130444442               0.000000000               0.032137825              -0.153541665               0.000000000               0.038328636              -0.176638887               0.000000000               0.044519448              -0.199736109               0.000000000               0.050710260              -0.222833332               0.000000000               0.056901071              -0.245930554               0.000000000               0.063091883              -0.269027776               0.000000000               0.069282695              -0.292124999               0.000000000               0.075473506              -0.315222221               0.000000000               0.081664318              -0.338319444               0.000000000               0.087855130              -0.361416666               0.000000000               0.094045942              -0.384513888               0.000000000               0.100236753              -0.407611111               0.000000000               0.106427565              -0.430708333               0.000000000               0.112618377              -0.453805555               0.000000000               0.118809188              -0.476902778               0.000000000               0.125000000              -0.500000000               0.000000000               0.013036280              -0.132359569               0.000000000               0.016127762              -0.155337096               0.000000000               0.019219245              -0.178314623               0.000000000               0.022310727              -0.201292150               0.000000000               0.025402210              -0.224269676               0.000000000               0.028493692              -0.247247203               0.000000000               0.031585175              -0.270224730               0.000000000               0.034676657              -0.293202257               0.000000000               0.037768140              -0.316179784               0.000000000               0.040859622              -0.339157311               0.000000000               0.043951105              -0.362134838               0.000000000               0.047042587              -0.385112365               0.000000000               0.050134070              -0.408089892               0.000000000               0.053225552              -0.431067419               0.000000000               0.056317035              -0.454044946               0.000000000               0.059408517              -0.477022473               0.000000000               0.062500000              -0.500000000               0.000000000               0.000000000              -0.133000000               0.000000000               0.000000000              -0.155937500               0.000000000               0.000000000              -0.178875000               0.000000000               0.000000000              -0.201812500               0.000000000               0.000000000              -0.224750000               0.000000000               0.000000000              -0.247687500               0.000000000               0.000000000              -0.270625000               0.000000000               0.000000000              -0.293562500               0.000000000               0.000000000              -0.316500000               0.000000000               0.000000000              -0.339437500               0.000000000               0.000000000              -0.362375000               0.000000000               0.000000000              -0.385312500               0.000000000               0.000000000              -0.408250000               0.000000000               0.000000000              -0.431187500               0.000000000               0.000000000              -0.454125000               0.000000000               0.000000000              -0.477062500               0.000000000               0.000000000              -0.500000000               0.000000000              -0.133000000               0.000000000               0.000000000              -0.155937500               0.000000000               0.000000000              -0.178875000               0.000000000               0.000000000              -0.201812500               0.000000000               0.000000000              -0.224750000               0.000000000               0.000000000              -0.247687500               0.000000000               0.000000000              -0.270625000               0.000000000               0.000000000              -0.293562500               0.000000000               0.000000000              -0.316500000               0.000000000               0.000000000              -0.339437500               0.000000000               0.000000000              -0.362375000               0.000000000               0.000000000              -0.385312500               0.000000000               0.000000000              -0.408250000               0.000000000               0.000000000              -0.431187500               0.000000000               0.000000000              -0.454125000               0.000000000               0.000000000              -0.477062500               0.000000000               0.000000000              -0.500000000               0.000000000               0.000000000              -0.132359569              -0.013036280               0.000000000              -0.155337096              -0.016127762               0.000000000              -0.178314623              -0.019219245               0.000000000              -0.201292150              -0.022310727               0.000000000              -0.224269676              -0.025402210               0.000000000              -0.247247203              -0.028493692               0.000000000              -0.270224730              -0.031585175               0.000000000              -0.293202257              -0.034676657               0.000000000              -0.316179784              -0.037768140               0.000000000              -0.339157311              -0.040859622               0.000000000              -0.362134838              -0.043951105               0.000000000              -0.385112365              -0.047042587               0.000000000              -0.408089892              -0.050134070               0.000000000              -0.431067419              -0.053225552               0.000000000              -0.454044946              -0.056317035               0.000000000              -0.477022473              -0.059408517               0.000000000              -0.500000000              -0.062500000               0.000000000              -0.130444442              -0.025947013               0.000000000              -0.153541665              -0.032137825               0.000000000              -0.176638887              -0.038328636               0.000000000              -0.199736109              -0.044519448               0.000000000              -0.222833332              -0.050710260               0.000000000              -0.245930554              -0.056901071               0.000000000              -0.269027776              -0.063091883               0.000000000              -0.292124999              -0.069282695               0.000000000              -0.315222221              -0.075473506               0.000000000              -0.338319444              -0.081664318               0.000000000              -0.361416666              -0.087855130               0.000000000              -0.384513888              -0.094045942               0.000000000              -0.407611111              -0.100236753               0.000000000              -0.430708333              -0.106427565               0.000000000              -0.453805555              -0.112618377               0.000000000              -0.476902778              -0.118809188               0.000000000              -0.500000000              -0.125000000               0.000000000              -0.127273065              -0.038607862               0.000000000              -0.150568498              -0.047913621               0.000000000              -0.173863932              -0.057219379               0.000000000              -0.197159365              -0.066525138               0.000000000              -0.220454798              -0.075830897               0.000000000              -0.243750232              -0.085136655               0.000000000              -0.267045665              -0.094442414               0.000000000              -0.290341099              -0.103748172               0.000000000              -0.313636532              -0.113053931               0.000000000              -0.336931966              -0.122359690               0.000000000              -0.360227399              -0.131665448               0.000000000              -0.383522833              -0.140971207               0.000000000              -0.406818266              -0.150276966               0.000000000              -0.430113700              -0.159582724               0.000000000              -0.453409133              -0.168888483               0.000000000              -0.476704567              -0.178194241               0.000000000              -0.500000000              -0.187500000               0.000000000              -0.122875978              -0.050896897               0.000000000              -0.146446229              -0.063340840               0.000000000              -0.170016481              -0.075784784               0.000000000              -0.193586732              -0.088228728               0.000000000              -0.217156983              -0.100672672               0.000000000              -0.240727235              -0.113116616               0.000000000              -0.264297486              -0.125560560               0.000000000              -0.287867738              -0.138004504               0.000000000              -0.311437989              -0.150448448               0.000000000              -0.335008240              -0.162892392               0.000000000              -0.358578492              -0.175336336               0.000000000              -0.382148743              -0.187780280               0.000000000              -0.405718994              -0.200224224               0.000000000              -0.429289246              -0.212668168               0.000000000              -0.452859497              -0.225112112               0.000000000              -0.476429749              -0.237556056               0.000000000              -0.500000000              -0.250000000               0.000000000              -0.117295528              -0.062695766               0.000000000              -0.141214558              -0.078308531               0.000000000              -0.165133587              -0.093921295               0.000000000              -0.189052617              -0.109534060               0.000000000              -0.212971646              -0.125146824               0.000000000              -0.236890676              -0.140759589               0.000000000              -0.260809705              -0.156372354               0.000000000              -0.284728735              -0.171985118               0.000000000              -0.308647764              -0.187597883               0.000000000              -0.332566794              -0.203210648               0.000000000              -0.356485823              -0.218823412               0.000000000              -0.380404853              -0.234436177               0.000000000              -0.404323882              -0.250048941               0.000000000              -0.428242912              -0.265661706               0.000000000              -0.452161941              -0.281274471               0.000000000              -0.476080971              -0.296887235               0.000000000              -0.500000000              -0.312500000               0.000000000              -0.110585458              -0.073890841               0.000000000              -0.134923867              -0.092710163               0.000000000              -0.159262276              -0.111529486               0.000000000              -0.183600685              -0.130348808               0.000000000              -0.207939094              -0.149168131               0.000000000              -0.232277503              -0.167987453               0.000000000              -0.256615912              -0.186806776               0.000000000              -0.280954320              -0.205626098               0.000000000              -0.305292729              -0.224445420               0.000000000              -0.329631138              -0.243264743               0.000000000              -0.353969547              -0.262084065               0.000000000              -0.378307956              -0.280903388               0.000000000              -0.402646365              -0.299722710               0.000000000              -0.426984773              -0.318542033               0.000000000              -0.451323182              -0.337361355               0.000000000              -0.475661591              -0.356180678               0.000000000              -0.500000000              -0.375000000               0.000000000              -0.102810390              -0.084374307               0.000000000              -0.127634741              -0.106444663               0.000000000              -0.152459092              -0.128515018               0.000000000              -0.177283442              -0.150585374               0.000000000              -0.202107793              -0.172655730               0.000000000              -0.226932143              -0.194726086               0.000000000              -0.251756494              -0.216796442               0.000000000              -0.276580845              -0.238866798               0.000000000              -0.301405195              -0.260937153               0.000000000              -0.326229546              -0.283007509               0.000000000              -0.351053896              -0.305077865               0.000000000              -0.375878247              -0.327148221               0.000000000              -0.400702598              -0.349218577               0.000000000              -0.425526948              -0.371288933               0.000000000              -0.450351299              -0.393359288               0.000000000              -0.475175649              -0.415429644               0.000000000              -0.500000000              -0.437500000               0.000000000              -0.094045202              -0.094045202               0.000000000              -0.119417377              -0.119417377               0.000000000              -0.144789552              -0.144789552               0.000000000              -0.170161727              -0.170161727               0.000000000              -0.195533901              -0.195533901               0.000000000              -0.220906076              -0.220906076               0.000000000              -0.246278251              -0.246278251               0.000000000              -0.271650426              -0.271650426               0.000000000              -0.297022601              -0.297022601               0.000000000              -0.322394776              -0.322394776               0.000000000              -0.347766951              -0.347766951               0.000000000              -0.373139126              -0.373139126               0.000000000              -0.398511300              -0.398511300               0.000000000              -0.423883475              -0.423883475               0.000000000              -0.449255650              -0.449255650               0.000000000              -0.474627825              -0.474627825               0.000000000              -0.500000000              -0.500000000               0.000000000              -0.084374307              -0.102810390               0.000000000              -0.106444663              -0.127634741               0.000000000              -0.128515018              -0.152459092               0.000000000              -0.150585374              -0.177283442               0.000000000              -0.172655730              -0.202107793               0.000000000              -0.194726086              -0.226932143               0.000000000              -0.216796442              -0.251756494               0.000000000              -0.238866798              -0.276580845               0.000000000              -0.260937153              -0.301405195               0.000000000              -0.283007509              -0.326229546               0.000000000              -0.305077865              -0.351053896               0.000000000              -0.327148221              -0.375878247               0.000000000              -0.349218577              -0.400702598               0.000000000              -0.371288933              -0.425526948               0.000000000              -0.393359288              -0.450351299               0.000000000              -0.415429644              -0.475175649               0.000000000              -0.437500000              -0.500000000               0.000000000              -0.073890841              -0.110585458               0.000000000              -0.092710163              -0.134923867               0.000000000              -0.111529486              -0.159262276               0.000000000              -0.130348808              -0.183600685               0.000000000              -0.149168131              -0.207939094               0.000000000              -0.167987453              -0.232277503               0.000000000              -0.186806776              -0.256615912               0.000000000              -0.205626098              -0.280954320               0.000000000              -0.224445420              -0.305292729               0.000000000              -0.243264743              -0.329631138               0.000000000              -0.262084065              -0.353969547               0.000000000              -0.280903388              -0.378307956               0.000000000              -0.299722710              -0.402646365               0.000000000              -0.318542033              -0.426984773               0.000000000              -0.337361355              -0.451323182               0.000000000              -0.356180678              -0.475661591               0.000000000              -0.375000000              -0.500000000               0.000000000              -0.062695766              -0.117295528               0.000000000              -0.078308531              -0.141214558               0.000000000              -0.093921295              -0.165133587               0.000000000              -0.109534060              -0.189052617               0.000000000              -0.125146824              -0.212971646               0.000000000              -0.140759589              -0.236890676               0.000000000              -0.156372354              -0.260809705               0.000000000              -0.171985118              -0.284728735               0.000000000              -0.187597883              -0.308647764               0.000000000              -0.203210648              -0.332566794               0.000000000              -0.218823412              -0.356485823               0.000000000              -0.234436177              -0.380404853               0.000000000              -0.250048941              -0.404323882               0.000000000              -0.265661706              -0.428242912               0.000000000              -0.281274471              -0.452161941               0.000000000              -0.296887235              -0.476080971               0.000000000              -0.312500000              -0.500000000               0.000000000              -0.050896897              -0.122875978               0.000000000              -0.063340840              -0.146446229               0.000000000              -0.075784784              -0.170016481               0.000000000              -0.088228728              -0.193586732               0.000000000              -0.100672672              -0.217156983               0.000000000              -0.113116616              -0.240727235               0.000000000              -0.125560560              -0.264297486               0.000000000              -0.138004504              -0.287867738               0.000000000              -0.150448448              -0.311437989               0.000000000              -0.162892392              -0.335008240               0.000000000              -0.175336336              -0.358578492               0.000000000              -0.187780280              -0.382148743               0.000000000              -0.200224224              -0.405718994               0.000000000              -0.212668168              -0.429289246               0.000000000              -0.225112112              -0.452859497               0.000000000              -0.237556056              -0.476429749               0.000000000              -0.250000000              -0.500000000               0.000000000              -0.038607862              -0.127273065               0.000000000              -0.047913621              -0.150568498               0.000000000              -0.057219379              -0.173863932               0.000000000              -0.066525138              -0.197159365               0.000000000              -0.075830897              -0.220454798               0.000000000              -0.085136655              -0.243750232               0.000000000              -0.094442414              -0.267045665               0.000000000              -0.103748172              -0.290341099               0.000000000              -0.113053931              -0.313636532               0.000000000              -0.122359690              -0.336931966               0.000000000              -0.131665448              -0.360227399               0.000000000              -0.140971207              -0.383522833               0.000000000              -0.150276966              -0.406818266               0.000000000              -0.159582724              -0.430113700               0.000000000              -0.168888483              -0.453409133               0.000000000              -0.178194241              -0.476704567               0.000000000              -0.187500000              -0.500000000               0.000000000              -0.025947013              -0.130444442               0.000000000              -0.032137825              -0.153541665               0.000000000              -0.038328636              -0.176638887               0.000000000              -0.044519448              -0.199736109               0.000000000              -0.050710260              -0.222833332               0.000000000              -0.056901071              -0.245930554               0.000000000              -0.063091883              -0.269027776               0.000000000              -0.069282695              -0.292124999               0.000000000              -0.075473506              -0.315222221               0.000000000              -0.081664318              -0.338319444               0.000000000              -0.087855130              -0.361416666               0.000000000              -0.094045942              -0.384513888               0.000000000              -0.100236753              -0.407611111               0.000000000              -0.106427565              -0.430708333               0.000000000              -0.112618377              -0.453805555               0.000000000              -0.118809188              -0.476902778               0.000000000              -0.125000000              -0.500000000               0.000000000              -0.013036280              -0.132359569               0.000000000              -0.016127762              -0.155337096               0.000000000              -0.019219245              -0.178314623               0.000000000              -0.022310727              -0.201292150               0.000000000              -0.025402210              -0.224269676               0.000000000              -0.028493692              -0.247247203               0.000000000              -0.031585175              -0.270224730               0.000000000              -0.034676657              -0.293202257               0.000000000              -0.037768140              -0.316179784               0.000000000              -0.040859622              -0.339157311               0.000000000              -0.043951105              -0.362134838               0.000000000              -0.047042587              -0.385112365               0.000000000              -0.050134070              -0.408089892               0.000000000              -0.053225552              -0.431067419               0.000000000              -0.056317035              -0.454044946               0.000000000              -0.059408517              -0.477022473               0.000000000              -0.062500000              -0.500000000               0.000000000               0.000000000              -0.133000000               0.000000000               0.000000000              -0.155937500               0.000000000               0.000000000              -0.178875000               0.000000000               0.000000000              -0.201812500               0.000000000               0.000000000              -0.224750000               0.000000000               0.000000000              -0.247687500               0.000000000               0.000000000              -0.270625000               0.000000000               0.000000000              -0.293562500               0.000000000               0.000000000              -0.316500000               0.000000000               0.000000000              -0.339437500               0.000000000               0.000000000              -0.362375000               0.000000000               0.000000000              -0.385312500               0.000000000               0.000000000              -0.408250000               0.000000000               0.000000000              -0.431187500               0.000000000               0.000000000              -0.454125000               0.000000000               0.000000000              -0.477062500               0.000000000               0.000000000              -0.500000000               0.000000000              -0.133000000               0.000000000               0.000000000              -0.155937500               0.000000000               0.000000000              -0.178875000               0.000000000               0.000000000              -0.201812500               0.000000000               0.000000000              -0.224750000               0.000000000               0.000000000              -0.247687500               0.000000000               0.000000000              -0.270625000               0.000000000               0.000000000              -0.293562500               0.000000000               0.000000000              -0.316500000               0.000000000               0.000000000              -0.339437500               0.000000000               0.000000000              -0.362375000               0.000000000               0.000000000              -0.385312500               0.000000000               0.000000000              -0.408250000               0.000000000               0.000000000              -0.431187500               0.000000000               0.000000000              -0.454125000               0.000000000               0.000000000              -0.477062500               0.000000000               0.000000000              -0.500000000               0.000000000               0.000000000              -0.132359569               0.013036280               0.000000000              -0.155337096               0.016127762               0.000000000              -0.178314623               0.019219245               0.000000000              -0.201292150               0.022310727               0.000000000              -0.224269676               0.025402210               0.000000000              -0.247247203               0.028493692               0.000000000              -0.270224730               0.031585175               0.000000000              -0.293202257               0.034676657               0.000000000              -0.316179784               0.037768140               0.000000000              -0.339157311               0.040859622               0.000000000              -0.362134838               0.043951105               0.000000000              -0.385112365               0.047042587               0.000000000              -0.408089892               0.050134070               0.000000000              -0.431067419               0.053225552               0.000000000              -0.454044946               0.056317035               0.000000000              -0.477022473               0.059408517               0.000000000              -0.500000000               0.062500000               0.000000000              -0.130444442               0.025947013               0.000000000              -0.153541665               0.032137825               0.000000000              -0.176638887               0.038328636               0.000000000              -0.199736109               0.044519448               0.000000000              -0.222833332               0.050710260               0.000000000              -0.245930554               0.056901071               0.000000000              -0.269027776               0.063091883               0.000000000              -0.292124999               0.069282695               0.000000000              -0.315222221               0.075473506               0.000000000              -0.338319444               0.081664318               0.000000000              -0.361416666               0.087855130               0.000000000              -0.384513888               0.094045942               0.000000000              -0.407611111               0.100236753               0.000000000              -0.430708333               0.106427565               0.000000000              -0.453805555               0.112618377               0.000000000              -0.476902778               0.118809188               0.000000000              -0.500000000               0.125000000               0.000000000              -0.127273065               0.038607862               0.000000000              -0.150568498               0.047913621               0.000000000              -0.173863932               0.057219379               0.000000000              -0.197159365               0.066525138               0.000000000              -0.220454798               0.075830897               0.000000000              -0.243750232               0.085136655               0.000000000              -0.267045665               0.094442414               0.000000000              -0.290341099               0.103748172               0.000000000              -0.313636532               0.113053931               0.000000000              -0.336931966               0.122359690               0.000000000              -0.360227399               0.131665448               0.000000000              -0.383522833               0.140971207               0.000000000              -0.406818266               0.150276966               0.000000000              -0.430113700               0.159582724               0.000000000              -0.453409133               0.168888483               0.000000000              -0.476704567               0.178194241               0.000000000              -0.500000000               0.187500000               0.000000000              -0.122875978               0.050896897               0.000000000              -0.146446229               0.063340840               0.000000000              -0.170016481               0.075784784               0.000000000              -0.193586732               0.088228728               0.000000000              -0.217156983               0.100672672               0.000000000              -0.240727235               0.113116616               0.000000000              -0.264297486               0.125560560               0.000000000              -0.287867738               0.138004504               0.000000000              -0.311437989               0.150448448               0.000000000              -0.335008240               0.162892392               0.000000000              -0.358578492               0.175336336               0.000000000              -0.382148743               0.187780280               0.000000000              -0.405718994               0.200224224               0.000000000              -0.429289246               0.212668168               0.000000000              -0.452859497               0.225112112               0.000000000              -0.476429749               0.237556056               0.000000000              -0.500000000               0.250000000               0.000000000              -0.117295528               0.062695766               0.000000000              -0.141214558               0.078308531               0.000000000              -0.165133587               0.093921295               0.000000000              -0.189052617               0.109534060               0.000000000              -0.212971646               0.125146824               0.000000000              -0.236890676               0.140759589               0.000000000              -0.260809705               0.156372354               0.000000000              -0.284728735               0.171985118               0.000000000              -0.308647764               0.187597883               0.000000000              -0.332566794               0.203210648               0.000000000              -0.356485823               0.218823412               0.000000000              -0.380404853               0.234436177               0.000000000              -0.404323882               0.250048941               0.000000000              -0.428242912               0.265661706               0.000000000              -0.452161941               0.281274471               0.000000000              -0.476080971               0.296887235               0.000000000              -0.500000000               0.312500000               0.000000000              -0.110585458               0.073890841               0.000000000              -0.134923867               0.092710163               0.000000000              -0.159262276               0.111529486               0.000000000              -0.183600685               0.130348808               0.000000000              -0.207939094               0.149168131               0.000000000              -0.232277503               0.167987453               0.000000000              -0.256615912               0.186806776               0.000000000              -0.280954320               0.205626098               0.000000000              -0.305292729               0.224445420               0.000000000              -0.329631138               0.243264743               0.000000000              -0.353969547               0.262084065               0.000000000              -0.378307956               0.280903388               0.000000000              -0.402646365               0.299722710               0.000000000              -0.426984773               0.318542033               0.000000000              -0.451323182               0.337361355               0.000000000              -0.475661591               0.356180678               0.000000000              -0.500000000               0.375000000               0.000000000              -0.102810390               0.084374307               0.000000000              -0.127634741               0.106444663               0.000000000              -0.152459092               0.128515018               0.000000000              -0.177283442               0.150585374               0.000000000              -0.202107793               0.172655730               0.000000000              -0.226932143               0.194726086               0.000000000              -0.251756494               0.216796442               0.000000000              -0.276580845               0.238866798               0.000000000              -0.301405195               0.260937153               0.000000000              -0.326229546               0.283007509               0.000000000              -0.351053896               0.305077865               0.000000000              -0.375878247               0.327148221               0.000000000              -0.400702598               0.349218577               0.000000000              -0.425526948               0.371288933               0.000000000              -0.450351299               0.393359288               0.000000000              -0.475175649               0.415429644               0.000000000              -0.500000000               0.437500000               0.000000000              -0.094045202               0.094045202               0.000000000              -0.119417377               0.119417377               0.000000000              -0.144789552               0.144789552               0.000000000              -0.170161727               0.170161727               0.000000000              -0.195533901               0.195533901               0.000000000              -0.220906076               0.220906076               0.000000000              -0.246278251               0.246278251               0.000000000              -0.271650426               0.271650426               0.000000000              -0.297022601               0.297022601               0.000000000              -0.322394776               0.322394776               0.000000000              -0.347766951               0.347766951               0.000000000              -0.373139126               0.373139126               0.000000000              -0.398511300               0.398511300               0.000000000              -0.423883475               0.423883475               0.000000000              -0.449255650               0.449255650               0.000000000              -0.474627825               0.474627825               0.000000000              -0.500000000               0.500000000               0.000000000              -0.084374307               0.102810390               0.000000000              -0.106444663               0.127634741               0.000000000              -0.128515018               0.152459092               0.000000000              -0.150585374               0.177283442               0.000000000              -0.172655730               0.202107793               0.000000000              -0.194726086               0.226932143               0.000000000              -0.216796442               0.251756494               0.000000000              -0.238866798               0.276580845               0.000000000              -0.260937153               0.301405195               0.000000000              -0.283007509               0.326229546               0.000000000              -0.305077865               0.351053896               0.000000000              -0.327148221               0.375878247               0.000000000              -0.349218577               0.400702598               0.000000000              -0.371288933               0.425526948               0.000000000              -0.393359288               0.450351299               0.000000000              -0.415429644               0.475175649               0.000000000              -0.437500000               0.500000000               0.000000000              -0.073890841               0.110585458               0.000000000              -0.092710163               0.134923867               0.000000000              -0.111529486               0.159262276               0.000000000              -0.130348808               0.183600685               0.000000000              -0.149168131               0.207939094               0.000000000              -0.167987453               0.232277503               0.000000000              -0.186806776               0.256615912               0.000000000              -0.205626098               0.280954320               0.000000000              -0.224445420               0.305292729               0.000000000              -0.243264743               0.329631138               0.000000000              -0.262084065               0.353969547               0.000000000              -0.280903388               0.378307956               0.000000000              -0.299722710               0.402646365               0.000000000              -0.318542033               0.426984773               0.000000000              -0.337361355               0.451323182               0.000000000              -0.356180678               0.475661591               0.000000000              -0.375000000               0.500000000               0.000000000              -0.062695766               0.117295528               0.000000000              -0.078308531               0.141214558               0.000000000              -0.093921295               0.165133587               0.000000000              -0.109534060               0.189052617               0.000000000              -0.125146824               0.212971646               0.000000000              -0.140759589               0.236890676               0.000000000              -0.156372354               0.260809705               0.000000000              -0.171985118               0.284728735               0.000000000              -0.187597883               0.308647764               0.000000000              -0.203210648               0.332566794               0.000000000              -0.218823412               0.356485823               0.000000000              -0.234436177               0.380404853               0.000000000              -0.250048941               0.404323882               0.000000000              -0.265661706               0.428242912               0.000000000              -0.281274471               0.452161941               0.000000000              -0.296887235               0.476080971               0.000000000              -0.312500000               0.500000000               0.000000000              -0.050896897               0.122875978               0.000000000              -0.063340840               0.146446229               0.000000000              -0.075784784               0.170016481               0.000000000              -0.088228728               0.193586732               0.000000000              -0.100672672               0.217156983               0.000000000              -0.113116616               0.240727235               0.000000000              -0.125560560               0.264297486               0.000000000              -0.138004504               0.287867738               0.000000000              -0.150448448               0.311437989               0.000000000              -0.162892392               0.335008240               0.000000000              -0.175336336               0.358578492               0.000000000              -0.187780280               0.382148743               0.000000000              -0.200224224               0.405718994               0.000000000              -0.212668168               0.429289246               0.000000000              -0.225112112               0.452859497               0.000000000              -0.237556056               0.476429749               0.000000000              -0.250000000               0.500000000               0.000000000              -0.038607862               0.127273065               0.000000000              -0.047913621               0.150568498               0.000000000              -0.057219379               0.173863932               0.000000000              -0.066525138               0.197159365               0.000000000              -0.075830897               0.220454798               0.000000000              -0.085136655               0.243750232               0.000000000              -0.094442414               0.267045665               0.000000000              -0.103748172               0.290341099               0.000000000              -0.113053931               0.313636532               0.000000000              -0.122359690               0.336931966               0.000000000              -0.131665448               0.360227399               0.000000000              -0.140971207               0.383522833               0.000000000              -0.150276966               0.406818266               0.000000000              -0.159582724               0.430113700               0.000000000              -0.168888483               0.453409133               0.000000000              -0.178194241               0.476704567               0.000000000              -0.187500000               0.500000000               0.000000000              -0.025947013               0.130444442               0.000000000              -0.032137825               0.153541665               0.000000000              -0.038328636               0.176638887               0.000000000              -0.044519448               0.199736109               0.000000000              -0.050710260               0.222833332               0.000000000              -0.056901071               0.245930554               0.000000000              -0.063091883               0.269027776               0.000000000              -0.069282695               0.292124999               0.000000000              -0.075473506               0.315222221               0.000000000              -0.081664318               0.338319444               0.000000000              -0.087855130               0.361416666               0.000000000              -0.094045942               0.384513888               0.000000000              -0.100236753               0.407611111               0.000000000              -0.106427565               0.430708333               0.000000000              -0.112618377               0.453805555               0.000000000              -0.118809188               0.476902778               0.000000000              -0.125000000               0.500000000               0.000000000              -0.013036280               0.132359569               0.000000000              -0.016127762               0.155337096               0.000000000              -0.019219245               0.178314623               0.000000000              -0.022310727               0.201292150               0.000000000              -0.025402210               0.224269676               0.000000000              -0.028493692               0.247247203               0.000000000              -0.031585175               0.270224730               0.000000000              -0.034676657               0.293202257               0.000000000              -0.037768140               0.316179784               0.000000000              -0.040859622               0.339157311               0.000000000              -0.043951105               0.362134838               0.000000000              -0.047042587               0.385112365               0.000000000              -0.050134070               0.408089892               0.000000000              -0.053225552               0.431067419               0.000000000              -0.056317035               0.454044946               0.000000000              -0.059408517               0.477022473               0.000000000              -0.062500000               0.500000000               0.000000000               0.000000000               0.133000000               0.000000000               0.000000000               0.155937500               0.000000000               0.000000000               0.178875000               0.000000000               0.000000000               0.201812500               0.000000000               0.000000000               0.224750000               0.000000000               0.000000000               0.247687500               0.000000000               0.000000000               0.270625000               0.000000000               0.000000000               0.293562500               0.000000000               0.000000000               0.316500000               0.000000000               0.000000000               0.339437500               0.000000000               0.000000000               0.362375000               0.000000000               0.000000000               0.385312500               0.000000000               0.000000000               0.408250000               0.000000000               0.000000000               0.431187500               0.000000000               0.000000000               0.454125000               0.000000000               0.000000000               0.477062500               0.000000000               0.000000000               0.500000000               0.000000000 </DataArray>
</Points>
<Cells>
<DataArray type="Int32"                                    Name="connectivity"                                                      NumberOfComponents=" 1" format="ascii">
         0          1         18         17          1          2         19         18          2          3         20         19          3          4         21         20          4          5         22         21          5          6         23         22          6          7         24         23          7          8         25         24          8          9         26         25          9         10         27         26         10         11         28         27         11         12         29         28         12         13         30         29         13         14         31         30         14         15         32         31         15         16         33         32         17         18         35         34         18         19         36         35         19         20         37         36         20         21         38         37         21         22         39         38         22         23         40         39         23         24         41         40         24         25         42         41         25         26         43         42         26         27         44         43         27         28         45         44         28         29         46         45         29         30         47         46         30         31         48         47         31         32         49         48         32         33         50         49         34         35         52         51         35         36         53         52         36         37         54         53         37         38         55         54         38         39         56         55         39         40         57         56         40         41         58         57         41         42         59         58         42         43         60         59         43         44         61         60         44         45         62         61         45         46         63         62         46         47         64         63         47         48         65         64         48         49         66         65         49         50         67         66         51         52         69         68         52         53         70         69         53         54         71         70         54         55         72         71         55         56         73         72         56         57         74         73         57         58         75         74         58         59         76         75         59         60         77         76         60         61         78         77         61         62         79         78         62         63         80         79         63         64         81         80         64         65         82         81         65         66         83         82         66         67         84         83         68         69         86         85         69         70         87         86         70         71         88         87         71         72         89         88         72         73         90         89         73         74         91         90         74         75         92         91         75         76         93         92         76         77         94         93         77         78         95         94         78         79         96         95         79         80         97         96         80         81         98         97         81         82         99         98         82         83        100         99         83         84        101        100         85         86        103        102         86         87        104        103         87         88        105        104         88         89        106        105         89         90        107        106         90         91        108        107         91         92        109        108         92         93        110        109         93         94        111        110         94         95        112        111         95         96        113        112         96         97        114        113         97         98        115        114         98         99        116        115         99        100        117        116        100        101        118        117        102        103        120        119        103        104        121        120        104        105        122        121        105        106        123        122        106        107        124        123        107        108        125        124        108        109        126        125        109        110        127        126        110        111        128        127        111        112        129        128        112        113        130        129        113        114        131        130        114        115        132        131        115        116        133        132        116        117        134        133        117        118        135        134        119        120        137        136        120        121        138        137        121        122        139        138        122        123        140        139        123        124        141        140        124        125        142        141        125        126        143        142        126        127        144        143        127        128        145        144        128        129        146        145        129        130        147        146        130        131        148        147        131        132        149        148        132        133        150        149        133        134        151        150        134        135        152        151        136        137        154        153        137        138        155        154        138        139        156        155        139        140        157        156        140        141        158        157        141        142        159        158        142        143        160        159        143        144        161        160        144        145        162        161        145        146        163        162        146        147        164        163        147        148        165        164        148        149        166        165        149        150        167        166        150        151        168        167        151        152        169        168        153        154        171        170        154        155        172        171        155        156        173        172        156        157        174        173        157        158        175        174        158        159        176        175        159        160        177        176        160        161        178        177        161        162        179        178        162        163        180        179        163        164        181        180        164        165        182        181        165        166        183        182        166        167        184        183        167        168        185        184        168        169        186        185        170        171        188        187        171        172        189        188        172        173        190        189        173        174        191        190        174        175        192        191        175        176        193        192        176        177        194        193        177        178        195        194        178        179        196        195        179        180        197        196        180        181        198        197        181        182        199        198        182        183        200        199        183        184        201        200        184        185        202        201        185        186        203        202        187        188        205        204        188        189        206        205        189        190        207        206        190        191        208        207        191        192        209        208        192        193        210        209        193        194        211        210        194        195        212        211        195        196        213        212        196        197        214        213        197        198        215        214        198        199        216        215        199        200        217        216        200        201        218        217        201        202        219        218        202        203        220        219        204        205        222        221        205        206        223        222        206        207        224        223        207        208        225        224        208        209        226        225        209        210        227        226        210        211        228        227        211        212        229        228        212        213        230        229        213        214        231        230        214        215        232        231        215        216        233        232        216        217        234        233        217        218        235        234        218        219        236        235        219        220        237        236        221        222        239        238        222        223        240        239        223        224        241        240        224        225        242        241        225        226        243        242        226        227        244        243        227        228        245        244        228        229        246        245        229        230        247        246        230        231        248        247        231        232        249        248        232        233        250        249        233        234        251        250        234        235        252        251        235        236        253        252        236        237        254        253        238        239        256        255        239        240        257        256        240        241        258        257        241        242        259        258        242        243        260        259        243        244        261        260        244        245        262        261        245        246        263        262        246        247        264        263        247        248        265        264        248        249        266        265        249        250        267        266        250        251        268        267        251        252        269        268        252        253        270        269        253        254        271        270        255        256        273        272        256        257        274        273        257        258        275        274        258        259        276        275        259        260        277        276        260        261        278        277        261        262        279        278        262        263        280        279        263        264        281        280        264        265        282        281        265        266        283        282        266        267        284        283        267        268        285        284        268        269        286        285        269        270        287        286        270        271        288        287        306        307          1          0        307        308          2          1        308        309          3          2        309        310          4          3        310        311          5          4        311        312          6          5        312        313          7          6        313        314          8          7        314        315          9          8        315        316         10          9        316        317         11         10        317        318         12         11        318        319         13         12        319        320         14         13        320        321         15         14        321        322         16         15        323        324        307        306        324        325        308        307        325        326        309        308        326        327        310        309        327        328        311        310        328        329        312        311        329        330        313        312        330        331        314        313        331        332        315        314        332        333        316        315        333        334        317        316        334        335        318        317        335        336        319        318        336        337        320        319        337        338        321        320        338        339        322        321        340        341        324        323        341        342        325        324        342        343        326        325        343        344        327        326        344        345        328        327        345        346        329        328        346        347        330        329        347        348        331        330        348        349        332        331        349        350        333        332        350        351        334        333        351        352        335        334        352        353        336        335        353        354        337        336        354        355        338        337        355        356        339        338        357        358        341        340        358        359        342        341        359        360        343        342        360        361        344        343        361        362        345        344        362        363        346        345        363        364        347        346        364        365        348        347        365        366        349        348        366        367        350        349        367        368        351        350        368        369        352        351        369        370        353        352        370        371        354        353        371        372        355        354        372        373        356        355        374        375        358        357        375        376        359        358        376        377        360        359        377        378        361        360        378        379        362        361        379        380        363        362        380        381        364        363        381        382        365        364        382        383        366        365        383        384        367        366        384        385        368        367        385        386        369        368        386        387        370        369        387        388        371        370        388        389        372        371        389        390        373        372        391        392        375        374        392        393        376        375        393        394        377        376        394        395        378        377        395        396        379        378        396        397        380        379        397        398        381        380        398        399        382        381        399        400        383        382        400        401        384        383        401        402        385        384        402        403        386        385        403        404        387        386        404        405        388        387        405        406        389        388        406        407        390        389        408        409        392        391        409        410        393        392        410        411        394        393        411        412        395        394        412        413        396        395        413        414        397        396        414        415        398        397        415        416        399        398        416        417        400        399        417        418        401        400        418        419        402        401        419        420        403        402        420        421        404        403        421        422        405        404        422        423        406        405        423        424        407        406        425        426        409        408        426        427        410        409        427        428        411        410        428        429        412        411        429        430        413        412        430        431        414        413        431        432        415        414        432        433        416        415        433        434        417        416        434        435        418        417        435        436        419        418        436        437        420        419        437        438        421        420        438        439        422        421        439        440        423        422        440        441        424        423        442        443        426        425        443        444        427        426        444        445        428        427        445        446        429        428        446        447        430        429        447        448        431        430        448        449        432        431        449        450        433        432        450        451        434        433        451        452        435        434        452        453        436        435        453        454        437        436        454        455        438        437        455        456        439        438        456        457        440        439        457        458        441        440        459        460        443        442        460        461        444        443        461        462        445        444        462        463        446        445        463        464        447        446        464        465        448        447        465        466        449        448        466        467        450        449        467        468        451        450        468        469        452        451        469        470        453        452        470        471        454        453        471        472        455        454        472        473        456        455        473        474        457        456        474        475        458        457        476        477        460        459        477        478        461        460        478        479        462        461        479        480        463        462        480        481        464        463        481        482        465        464        482        483        466        465        483        484        467        466        484        485        468        467        485        486        469        468        486        487        470        469        487        488        471        470        488        489        472        471        489        490        473        472        490        491        474        473        491        492        475        474        493        494        477        476        494        495        478        477        495        496        479        478        496        497        480        479        497        498        481        480        498        499        482        481        499        500        483        482        500        501        484        483        501        502        485        484        502        503        486        485        503        504        487        486        504        505        488        487        505        506        489        488        506        507        490        489        507        508        491        490        508        509        492        491        510        511        494        493        511        512        495        494        512        513        496        495        513        514        497        496        514        515        498        497        515        516        499        498        516        517        500        499        517        518        501        500        518        519        502        501        519        520        503        502        520        521        504        503        521        522        505        504        522        523        506        505        523        524        507        506        524        525        508        507        525        526        509        508        527        528        511        510        528        529        512        511        529        530        513        512        530        531        514        513        531        532        515        514        532        533        516        515        533        534        517        516        534        535        518        517        535        536        519        518        536        537        520        519        537        538        521        520        538        539        522        521        539        540        523        522        540        541        524        523        541        542        525        524        542        543        526        525        544        545        528        527        545        546        529        528        546        547        530        529        547        548        531        530        548        549        532        531        549        550        533        532        550        551        534        533        551        552        535        534        552        553        536        535        553        554        537        536        554        555        538        537        555        556        539        538        556        557        540        539        557        558        541        540        558        559        542        541        559        560        543        542        561        562        545        544        562        563        546        545        563        564        547        546        564        565        548        547        565        566        549        548        566        567        550        549        567        568        551        550        568        569        552        551        569        570        553        552        570        571        554        553        571        572        555        554        572        573        556        555        573        574        557        556        574        575        558        557        575        576        559        558        576        577        560        559        578        579        596        595        579        580        597        596        580        581        598        597        581        582        599        598        582        583        600        599        583        584        601        600        584        585        602        601        585        586        603        602        586        587        604        603        587        588        605        604        588        589        606        605        589        590        607        606        590        591        608        607        591        592        609        608        592        593        610        609        593        594        611        610        595        596        613        612        596        597        614        613        597        598        615        614        598        599        616        615        599        600        617        616        600        601        618        617        601        602        619        618        602        603        620        619        603        604        621        620        604        605        622        621        605        606        623        622        606        607        624        623        607        608        625        624        608        609        626        625        609        610        627        626        610        611        628        627        612        613        630        629        613        614        631        630        614        615        632        631        615        616        633        632        616        617        634        633        617        618        635        634        618        619        636        635        619        620        637        636        620        621        638        637        621        622        639        638        622        623        640        639        623        624        641        640        624        625        642        641        625        626        643        642        626        627        644        643        627        628        645        644        629        630        647        646        630        631        648        647        631        632        649        648        632        633        650        649        633        634        651        650        634        635        652        651        635        636        653        652        636        637        654        653        637        638        655        654        638        639        656        655        639        640        657        656        640        641        658        657        641        642        659        658        642        643        660        659        643        644        661        660        644        645        662        661        646        647        664        663        647        648        665        664        648        649        666        665        649        650        667        666        650        651        668        667        651        652        669        668        652        653        670        669        653        654        671        670        654        655        672        671        655        656        673        672        656        657        674        673        657        658        675        674        658        659        676        675        659        660        677        676        660        661        678        677        661        662        679        678        663        664        681        680        664        665        682        681        665        666        683        682        666        667        684        683        667        668        685        684        668        669        686        685        669        670        687        686        670        671        688        687        671        672        689        688        672        673        690        689        673        674        691        690        674        675        692        691        675        676        693        692        676        677        694        693        677        678        695        694        678        679        696        695        680        681        698        697        681        682        699        698        682        683        700        699        683        684        701        700        684        685        702        701        685        686        703        702        686        687        704        703        687        688        705        704        688        689        706        705        689        690        707        706        690        691        708        707        691        692        709        708        692        693        710        709        693        694        711        710        694        695        712        711        695        696        713        712        697        698        715        714        698        699        716        715        699        700        717        716        700        701        718        717        701        702        719        718        702        703        720        719        703        704        721        720        704        705        722        721        705        706        723        722        706        707        724        723        707        708        725        724        708        709        726        725        709        710        727        726        710        711        728        727        711        712        729        728        712        713        730        729        714        715        732        731        715        716        733        732        716        717        734        733        717        718        735        734        718        719        736        735        719        720        737        736        720        721        738        737        721        722        739        738        722        723        740        739        723        724        741        740        724        725        742        741        725        726        743        742        726        727        744        743        727        728        745        744        728        729        746        745        729        730        747        746        731        732        749        748        732        733        750        749        733        734        751        750        734        735        752        751        735        736        753        752        736        737        754        753        737        738        755        754        738        739        756        755        739        740        757        756        740        741        758        757        741        742        759        758        742        743        760        759        743        744        761        760        744        745        762        761        745        746        763        762        746        747        764        763        748        749        766        765        749        750        767        766        750        751        768        767        751        752        769        768        752        753        770        769        753        754        771        770        754        755        772        771        755        756        773        772        756        757        774        773        757        758        775        774        758        759        776        775        759        760        777        776        760        761        778        777        761        762        779        778        762        763        780        779        763        764        781        780        765        766        783        782        766        767        784        783        767        768        785        784        768        769        786        785        769        770        787        786        770        771        788        787        771        772        789        788        772        773        790        789        773        774        791        790        774        775        792        791        775        776        793        792        776        777        794        793        777        778        795        794        778        779        796        795        779        780        797        796        780        781        798        797        782        783        800        799        783        784        801        800        784        785        802        801        785        786        803        802        786        787        804        803        787        788        805        804        788        789        806        805        789        790        807        806        790        791        808        807        791        792        809        808        792        793        810        809        793        794        811        810        794        795        812        811        795        796        813        812        796        797        814        813        797        798        815        814        799        800        817        816        800        801        818        817        801        802        819        818        802        803        820        819        803        804        821        820        804        805        822        821        805        806        823        822        806        807        824        823        807        808        825        824        808        809        826        825        809        810        827        826        810        811        828        827        811        812        829        828        812        813        830        829        813        814        831        830        814        815        832        831        816        817        834        833        817        818        835        834        818        819        836        835        819        820        837        836        820        821        838        837        821        822        839        838        822        823        840        839        823        824        841        840        824        825        842        841        825        826        843        842        826        827        844        843        827        828        845        844        828        829        846        845        829        830        847        846        830        831        848        847        831        832        849        848        833        834        562        561        834        835        563        562        835        836        564        563        836        837        565        564        837        838        566        565        838        839        567        566        839        840        568        567        840        841        569        568        841        842        570        569        842        843        571        570        843        844        572        571        844        845        573        572        845        846        574        573        846        847        575        574        847        848        576        575        848        849        577        576        884        885        579        578        885        886        580        579        886        887        581        580        887        888        582        581        888        889        583        582        889        890        584        583        890        891        585        584        891        892        586        585        892        893        587        586        893        894        588        587        894        895        589        588        895        896        590        589        896        897        591        590        897        898        592        591        898        899        593        592        899        900        594        593        901        902        885        884        902        903        886        885        903        904        887        886        904        905        888        887        905        906        889        888        906        907        890        889        907        908        891        890        908        909        892        891        909        910        893        892        910        911        894        893        911        912        895        894        912        913        896        895        913        914        897        896        914        915        898        897        915        916        899        898        916        917        900        899        918        919        902        901        919        920        903        902        920        921        904        903        921        922        905        904        922        923        906        905        923        924        907        906        924        925        908        907        925        926        909        908        926        927        910        909        927        928        911        910        928        929        912        911        929        930        913        912        930        931        914        913        931        932        915        914        932        933        916        915        933        934        917        916        935        936        919        918        936        937        920        919        937        938        921        920        938        939        922        921        939        940        923        922        940        941        924        923        941        942        925        924        942        943        926        925        943        944        927        926        944        945        928        927        945        946        929        928        946        947        930        929        947        948        931        930        948        949        932        931        949        950        933        932        950        951        934        933        952        953        936        935        953        954        937        936        954        955        938        937        955        956        939        938        956        957        940        939        957        958        941        940        958        959        942        941        959        960        943        942        960        961        944        943        961        962        945        944        962        963        946        945        963        964        947        946        964        965        948        947        965        966        949        948        966        967        950        949        967        968        951        950        969        970        953        952        970        971        954        953        971        972        955        954        972        973        956        955        973        974        957        956        974        975        958        957        975        976        959        958        976        977        960        959        977        978        961        960        978        979        962        961        979        980        963        962        980        981        964        963        981        982        965        964        982        983        966        965        983        984        967        966        984        985        968        967        986        987        970        969        987        988        971        970        988        989        972        971        989        990        973        972        990        991        974        973        991        992        975        974        992        993        976        975        993        994        977        976        994        995        978        977        995        996        979        978        996        997        980        979        997        998        981        980        998        999        982        981        999       1000        983        982       1000       1001        984        983       1001       1002        985        984       1003       1004        987        986       1004       1005        988        987       1005       1006        989        988       1006       1007        990        989       1007       1008        991        990       1008       1009        992        991       1009       1010        993        992       1010       1011        994        993       1011       1012        995        994       1012       1013        996        995       1013       1014        997        996       1014       1015        998        997       1015       1016        999        998       1016       1017       1000        999       1017       1018       1001       1000       1018       1019       1002       1001       1020       1021       1004       1003       1021       1022       1005       1004       1022       1023       1006       1005       1023       1024       1007       1006       1024       1025       1008       1007       1025       1026       1009       1008       1026       1027       1010       1009       1027       1028       1011       1010       1028       1029       1012       1011       1029       1030       1013       1012       1030       1031       1014       1013       1031       1032       1015       1014       1032       1033       1016       1015       1033       1034       1017       1016       1034       1035       1018       1017       1035       1036       1019       1018       1037       1038       1021       1020       1038       1039       1022       1021       1039       1040       1023       1022       1040       1041       1024       1023       1041       1042       1025       1024       1042       1043       1026       1025       1043       1044       1027       1026       1044       1045       1028       1027       1045       1046       1029       1028       1046       1047       1030       1029       1047       1048       1031       1030       1048       1049       1032       1031       1049       1050       1033       1032       1050       1051       1034       1033       1051       1052       1035       1034       1052       1053       1036       1035       1054       1055       1038       1037       1055       1056       1039       1038       1056       1057       1040       1039       1057       1058       1041       1040       1058       1059       1042       1041       1059       1060       1043       1042       1060       1061       1044       1043       1061       1062       1045       1044       1062       1063       1046       1045       1063       1064       1047       1046       1064       1065       1048       1047       1065       1066       1049       1048       1066       1067       1050       1049       1067       1068       1051       1050       1068       1069       1052       1051       1069       1070       1053       1052       1071       1072       1055       1054       1072       1073       1056       1055       1073       1074       1057       1056       1074       1075       1058       1057       1075       1076       1059       1058       1076       1077       1060       1059       1077       1078       1061       1060       1078       1079       1062       1061       1079       1080       1063       1062       1080       1081       1064       1063       1081       1082       1065       1064       1082       1083       1066       1065       1083       1084       1067       1066       1084       1085       1068       1067       1085       1086       1069       1068       1086       1087       1070       1069       1088       1089       1072       1071       1089       1090       1073       1072       1090       1091       1074       1073       1091       1092       1075       1074       1092       1093       1076       1075       1093       1094       1077       1076       1094       1095       1078       1077       1095       1096       1079       1078       1096       1097       1080       1079       1097       1098       1081       1080       1098       1099       1082       1081       1099       1100       1083       1082       1100       1101       1084       1083       1101       1102       1085       1084       1102       1103       1086       1085       1103       1104       1087       1086       1105       1106       1089       1088       1106       1107       1090       1089       1107       1108       1091       1090       1108       1109       1092       1091       1109       1110       1093       1092       1110       1111       1094       1093       1111       1112       1095       1094       1112       1113       1096       1095       1113       1114       1097       1096       1114       1115       1098       1097       1115       1116       1099       1098       1116       1117       1100       1099       1117       1118       1101       1100       1118       1119       1102       1101       1119       1120       1103       1102       1120       1121       1104       1103       1122       1123       1106       1105       1123       1124       1107       1106       1124       1125       1108       1107       1125       1126       1109       1108       1126       1127       1110       1109       1127       1128       1111       1110       1128       1129       1112       1111       1129       1130       1113       1112       1130       1131       1114       1113       1131       1132       1115       1114       1132       1133       1116       1115       1133       1134       1117       1116       1134       1135       1118       1117       1135       1136       1119       1118       1136       1137       1120       1119       1137       1138       1121       1120        272        273       1123       1122        273        274       1124       1123        274        275       1125       1124        275        276       1126       1125        276        277       1127       1126        277        278       1128       1127        278        279       1129       1128        279        280       1130       1129        280        281       1131       1130        281        282       1132       1131        282        283       1133       1132        283        284       1134       1133        284        285       1135       1134        285        286       1136       1135        286        287       1137       1136        287        288       1138       1137 </DataArray>
<DataArray type="Int32"                                    Name="offsets"                                                      NumberOfComponents=" 1" format="ascii">
         4          8         12         16         20         24         28         32         36         40         44         48         52         56         60         64         68         72         76         80         84         88         92         96        100        104        108        112        116        120        124        128        132        136        140        144        148        152        156        160        164        168        172        176        180        184        188        192        196        200        204        208        212        216        220        224        228        232        236        240        244        248        252        256        260        264        268        272        276        280        284        288        292        296        300        304        308        312        316        320        324        328        332        336        340        344        348        352        356        360        364        368        372        376        380        384        388        392        396        400        404        408        412        416        420        424        428        432        436        440        444        448        452        456        460        464        468        472        476        480        484        488        492        496        500        504        508        512        516        520        524        528        532        536        540        544        548        552        556        560        564        568        572        576        580        584        588        592        596        600        604        608        612        616        620        624        628        632        636        640        644        648        652        656        660        664        668        672        676        680        684        688        692        696        700        704        708        712        716        720        724        728        732        736        740        744        748        752        756        760        764        768        772        776        780        784        788        792        796        800        804        808        812        816        820        824        828        832        836        840        844        848        852        856        860        864        868        872        876        880        884        888        892        896        900        904        908        912        916        920        924        928        932        936        940        944        948        952        956        960        964        968        972        976        980        984        988        992        996       1000       1004       1008       1012       1016       1020       1024       1028       1032       1036       1040       1044       1048       1052       1056       1060       1064       1068       1072       1076       1080       1084       1088       1092       1096       1100       1104       1108       1112       1116       1120       1124       1128       1132       1136       1140       1144       1148       1152       1156       1160       1164       1168       1172       1176       1180       1184       1188       1192       1196       1200       1204       1208       1212       1216       1220       1224       1228       1232       1236       1240       1244       1248       1252       1256       1260       1264       1268       1272       1276       1280       1284       1288       1292       1296       1300       1304       1308       1312       1316       1320       1324       1328       1332       1336       1340       1344       1348       1352       1356       1360       1364       1368       1372       1376       1380       1384       1388       1392       1396       1400       1404       1408       1412       1416       1420       1424       1428       1432       1436       1440       1444       1448       1452       1456       1460       1464       1468       1472       1476       1480       1484       1488       1492       1496       1500       1504       1508       1512       1516       1520       1524       1528       1532       1536       1540       1544       1548       1552       1556       1560       1564       1568       1572       1576       1580       1584       1588       1592       1596       1600       1604       1608       1612       1616       1620       1624       1628       1632       1636       1640       1644       1648       1652       1656       1660       1664       1668       1672       1676       1680       1684       1688       1692       1696       1700       1704       1708       1712       1716       1720       1724       1728       1732       1736       1740       1744       1748       1752       1756       1760       1764       1768       1772       1776       1780       1784       1788       1792       1796       1800       1804       1808       1812       1816       1820       1824       1828       1832       1836       1840       1844       1848       1852       1856       1860       1864       1868       1872       1876       1880       1884       1888       1892       1896       1900       1904       1908       1912       1916       1920       1924       1928       1932       1936       1940       1944       1948       1952       1956       1960       1964       1968       1972       1976       1980       1984       1988       1992       1996       2000       2004       2008       2012       2016       2020       2024       2028       2032       2036       2040       2044       2048       2052       2056       2060       2064       2068       2072       2076       2080       2084       2088       2092       2096       2100       2104       2108       2112       2116       2120       2124       2128       2132       2136       2140       2144       2148       2152       2156       2160       2164       2168       2172       2176       2180       2184       2188       2192       2196       2200       2204       2208       2212       2216       2220       2224       2228       2232       2236       2240       2244       2248       2252       2256       2260       2264       2268       2272       2276       2280       2284       2288       2292       2296       2300       2304       2308       2312       2316       2320       2324       2328       2332       2336       2340       2344       2348       2352       2356       2360       2364       2368       2372       2376       2380       2384       2388       2392       2396       2400       2404       2408       2412       2416       2420       2424       2428       2432       2436       2440       2444       2448       2452       2456       2460       2464       2468       2472       2476       2480       2484       2488       2492       2496       2500       2504       2508       2512       2516       2520       2524       2528       2532       2536       2540       2544       2548       2552       2556       2560       2564       2568       2572       2576       2580       2584       2588       2592       2596       2600       2604       2608       2612       2616       2620       2624       2628       2632       2636       2640       2644       2648       2652       2656       2660       2664       2668       2672       2676       2680       2684       2688       2692       2696       2700       2704       2708       2712       2716       2720       2724       2728       2732       2736       2740       2744       2748       2752       2756       2760       2764       2768       2772       2776       2780       2784       2788       2792       2796       2800       2804       2808       2812       2816       2820       2824       2828       2832       2836       2840       2844       2848       2852       2856       2860       2864       2868       2872       2876       2880       2884       2888       2892       2896       2900       2904       2908       2912       2916       2920       2924       2928       2932       2936       2940       2944       2948       2952       2956       2960       2964       2968       2972       2976       2980       2984       2988       2992       2996       3000       3004       3008       3012       3016       3020       3024       3028       3032       3036       3040       3044       3048       3052       3056       3060       3064       3068       3072       3076       3080       3084       3088       3092       3096       3100       3104       3108       3112       3116       3120       3124       3128       3132       3136       3140       3144       3148       3152       3156       3160       3164       3168       3172       3176       3180       3184       3188       3192       3196       3200       3204       3208       3212       3216       3220       3224       3228       3232       3236       3240       3244       3248       3252       3256       3260       3264       3268       3272       3276       3280       3284       3288       3292       3296       3300       3304       3308       3312       3316       3320       3324       3328       3332       3336       3340       3344       3348       3352       3356       3360       3364       3368       3372       3376       3380       3384       3388       3392       3396       3400       3404       3408       3412       3416       3420       3424       3428       3432       3436       3440       3444       3448       3452       3456       3460       3464       3468       3472       3476       3480       3484       3488       3492       3496       3500       3504       3508       3512       3516       3520       3524       3528       3532       3536       3540       3544       3548       3552       3556       3560       3564       3568       3572       3576       3580       3584       3588       3592       3596       3600       3604       3608       3612       3616       3620       3624       3628       3632       3636       3640       3644       3648       3652       3656       3660       3664       3668       3672       3676       3680       3684       3688       3692       3696       3700       3704       3708       3712       3716       3720       3724       3728       3732       3736       3740       3744       3748       3752       3756       3760       3764       3768       3772       3776       3780       3784       3788       3792       3796       3800       3804       3808       3812       3816       3820       3824       3828       3832       3836       3840       3844       3848       3852       3856       3860       3864       3868       3872       3876       3880       3884       3888       3892       3896       3900       3904       3908       3912       3916       3920       3924       3928       3932       3936       3940       3944       3948       3952       3956       3960       3964       3968       3972       3976       3980       3984       3988       3992       3996       4000       4004       4008       4012       4016       4020       4024       4028       4032       4036       4040       4044       4048       4052       4056       4060       4064       4068       4072       4076       4080       4084       4088       4092       4096 </DataArray>
<DataArray type="UInt8"                                    Name="types"                                                      NumberOfComponents=" 1" format="ascii">
         9          9          9          9          9          9          9          9          9          9          9          9          9          9          9          9          9          9          9          9          9          9          9          9          9          9          9          9          9          9          9          9          9          9          9          9          9          9          9          9          9          9          9          9          9          9          9          9          9          9          9          9          9          9          9          9          9          9          9          9          9          9          9          9          9          9          9          9          9          9          9          9          9          9          9          9          9          9          9          9          9          9          9          9          9          9          9          9          9          9          9          9          9          9          9          9          9          9          9          9          9          9          9          9          9          9          9          9          9          9          9          9          9          9          9          9          9          9          9          9          9          9          9          9          9          9          9          9          9          9          9          9          9          9          9          9          9          9          9          9          9          9          9          9          9          9          9          9          9          9          9          9          9          9          9          9          9          9          9          9          9          9          9          9          9          9          9          9          9          9          9          9          9          9          9          9          9          9          9          9          9          9          9          9          9          9          9          9          9          9          9          9          9          9          9          9          9          9          9          9          9          9          9          9          9          9          9          9          9          9          9          9          9          9          9          9          9          9          9          9          9          9          9          9          9          9          9          9          9          9          9          9          9          9          9          9          9          9          9          9          9          9          9          9          9          9          9          9          9          9          9          9          9          9          9          9          9          9          9          9          9          9          9          9          9          9          9          9          9          9          9          9          9          9          9          9          9          9          9          9          9          9          9          9          9          9          9          9          9          9          9          9          9          9          9          9          9          9          9          9          9          9          9          9          9          9          9          9          9          9          9          9          9          9          9          9          9          9          9          9          9          9          9          9          9          9          9          9          9          9          9          9          9          9          9          9          9          9          9          9          9          9          9          9          9          9          9          9          9          9          9          9          9          9          9          9          9          9          9          9          9          9          9          9          9          9          9          9          9          9          9          9          9          9          9          9          9          9          9          9          9          9          9          9          9          9          9          9          9          9          9          9          9          9          9          9          9          9          9          9          9          9          9          9          9          9          9          9          9          9          9          9          9          9          9          9          9          9          9          9          9          9          9          9          9          9          9          9          9          9          9          9          9          9          9          9          9          9          9          9          9          9          9          9          9          9          9          9          9          9          9          9          9          9          9          9          9          9          9          9          9          9          9          9          9          9          9          9          9          9          9          9          9          9          9          9          9          9          9          9          9          9          9          9          9          9          9          9          9          9          9          9          9          9          9          9          9          9          9          9          9          9          9          9          9          9          9          9          9          9          9          9          9          9          9          9          9          9          9          9          9          9          9          9          9          9          9          9          9          9          9          9          9          9          9          9          9          9          9          9          9          9          9          9          9          9          9          9          9          9          9          9          9          9          9          9          9          9          9          9          9          9          9          9          9          9          9          9          9          9          9          9          9          9          9          9          9          9          9          9          9          9          9          9          9          9          9          9          9          9          9          9          9          9          9          9          9          9          9          9          9          9          9          9          9          9          9          9          9          9          9          9          9          9          9          9          9          9          9          9          9          9          9          9          9          9          9          9          9          9          9          9          9          9          9          9          9          9          9          9          9          9          9          9          9          9          9          9          9          9          9          9          9          9          9          9          9          9          9          9          9          9          9          9          9          9          9          9          9          9          9          9          9          9          9          9          9          9          9          9          9          9          9          9          9          9          9          9          9          9          9          9          9          9          9          9          9          9          9          9          9          9          9          9          9          9          9          9          9          9          9          9          9          9          9          9          9          9          9          9          9          9          9          9          9          9          9          9          9          9          9          9          9          9          9          9          9          9          9          9          9          9          9          9          9          9          9          9          9          9          9          9          9          9          9          9          9          9          9          9          9          9          9          9          9          9          9          9          9          9          9          9          9          9          9          9          9          9          9          9          9          9          9          9          9          9          9          9          9          9          9          9          9          9          9          9          9          9          9          9          9          9          9          9          9          9          9          9          9          9          9          9          9          9          9          9          9          9          9          9          9          9          9          9          9          9          9          9          9          9          9          9          9          9          9          9          9          9          9          9          9          9          9          9          9          9          9          9          9          9          9          9          9          9          9          9          9          9          9          9          9          9          9          9          9          9          9          9          9          9          9          9          9          9          9          9          9          9          9          9          9          9          9          9          9          9          9          9          9          9          9          9          9          9          9          9          9          9          9          9          9          9          9          9          9          9          9          9          9          9          9          9          9          9          9          9          9          9          9          9          9          9          9          9          9          9          9          9          9          9          9          9          9          9          9          9          9          9          9          9          9          9          9          9          9          9          9          9          9          9          9          9          9          9          9          9          9          9          9          9          9          9          9          9          9          9          9          9          9          9          9          9          9          9          9          9          9          9          9          9          9          9          9          9          9          9          9          9          9          9          9          9          9          9          9          9          9          9          9          9          9          9          9          9          9          9          9          9          9          9          9          9          9          9          9          9          9          9          9          9          9          9          9          9 </DataArray>
</Cells>
<CellData>
<DataArray type="Int32"                                    Name="material"                                                      NumberOfComponents=" 1" format="ascii">
         1          1          1          1          1          1          1          1          1          1          1          1          1          1          1          1          1          1          1          1          1          1          1          1          1          1          1          1          1          1          1          1          1          1          1          1          1          1          1          1          1          1          1          1          1          1          1          1          1          1          1          1          1          1          1          1          1          1          1          1          1          1          1          1          1          1          1          1          1          1          1          1          1          1          1          1          1          1          1          1          1          1          1          1          1          1          1          1          1          1          1          1          1          1          1          1          1          1          1          1          1          1          1          1          1          1          1          1          1          1          1          1          1          1          1          1          1          1          1          1          1          1          1          1          1          1          1          1          1          1          1          1          1          1          1          1          1          1          1          1          1          1          1          1          1          1          1          1          1          1          1          1          1          1          1          1          1          1          1          1          1          1          1          1          1          1          1          1          1          1          1          1          1          1          1          1          1          1          1          1          1          1          1          1          1          1          1          1          1          1          1          1          1          1          1          1          1          1          1          1          1          1          1          1          1          1          1          1          1          1          1          1          1          1          1          1          1          1          1          1          1          1          1          1          1          1          1          1          1          1          1          1          1          1          1          1          1          1          1          1          1          1          1          1          1          1          1          1          1          1          1          1          1          1          1          1          1          1          1          1          1          1          1          1          1          1          1          1          1          1          1          1          1          1          1          1          1          1          1          1          1          1          1          1          1          1          1          1          1          1          1          1          1          1          1          1          1          1          1          1          1          1          1          1          1          1          1          1          1          1          1          1          1          1          1          1          1          1          1          1          1          1          1          1          1          1          1          1          1          1          1          1          1          1          1          1          1          1          1          1          1          1          1          1          1          1          1          1          1          1          1          1          1          1          1          1          1          1          1          1          1          1          1          1          1          1          1          1          1          1          1          1          1          1          1          1          1          1          1          1          1          1          1          1          1          1          1          1          1          1          1          1          1          1          1          1          1          1          1          1          1          1          1          1          1          1          1          1          1          1          1          1          1          1          1          1          1          1          1          1          1          1          1          1          1          1          1          1          1          1          1          1          1          1          1          1          1          1          1          1          1          1          1          1          1          1          1          1          1          1          1          1          1          1          1          1          1          1          1          1          1          1          1          1          1          1          1          1          1          1          1          1          1          1          1          1          1          1          1          1          1          1          1          1          1          1          1          1          1          1          1          1          1          1          1          1          1          1          1          1          1          1          1          1          1          1          1          1          1          1          1          1          1          1          1          1          1          1          1          1          1          1          1          1          1          1          1          1          1          1          1          1          1          1          1          1          1          1          1          1          1          1          1          1          1          1          1          1          1          1          1          1          1          1          1          1          1          1          1          1          1          1          1          1          1          1          1          1          1          1          1          1          1          1          1          1          1          1          1          1          1          1          1          1          1          1          1          1          1          1          1          1          1          1          1          1          1          1          1          1          1          1          1          1          1          1          1          1          1          1          1          1          1          1          1          1          1          1          1          1          1          1          1          1          1          1          1          1          1          1          1          1          1          1          1          1          1          1          1          1          1          1          1          1          1          1          1          1          1          1          1          1          1          1          1          1          1          1          1          1          1          1          1          1          1          1          1          1          1          1          1          1          1          1          1          1          1          1          1          1          1          1          1          1          1          1          1          1          1          1          1          1          1          1          1          1          1          1          1          1          1          1          1          1          1          1          1          1          1          1          1          1          1          1          1          1          1          1          1          1          1          1          1          1          1          1          1          1          1          1          1          1          1          1          1          1          1          1          1          1          1          1          1          1          1          1          1          1          1          1          1          1          1          1          1          1          1          1          1          1          1          1          1          1          1          1          1          1          1          1          1          1          1          1          1          1          1          1          1          1          1          1          1          1          1          1          1          1          1          1          1          1          1          1          1          1          1          1          1          1          1          1          1          1          1          1          1          1          1          1          1          1          1          1          1          1          1          1          1          1          1          1          1          1          1          1          1          1          1          1          1          1          1          1          1          1          1          1          1          1          1          1          1          1          1          1          1          1          1          1          1          1          1          1          1          1          1          1          1          1          1          1          1          1          1          1          1          1          1          1          1          1          1          1          1          1          1          1          1          1          1          1          1          1          1          1          1          1          1          1          1          1          1          1          1          1          1          1          1          1          1          1          1          1          1          1          1          1          1          1          1          1          1          1          1          1          1          1          1          1          1          1          1          1          1          1          1          1          1          1          1          1          1          1          1          1          1          1          1          1          1          1          1          1          1          1          1          1          1          1          1          1          1          1          1          1          1          1          1          1          1          1          1          1          1          1          1          1          1          1          1          1          1          1          1          1          1          1          1          1          1          1          1          1          1          1          1          1          1          1          1          1          1          1          1          1          1          1          1          1          1          1          1          1          1          1          1          1          1          1          1          1          1          1          1          1          1          1          1          1          1          1          1          1 </DataArray>
</CellData>
<PointData>
<DataArray type="Float64"                                    Name="u"                                                      NumberOfComponents=" 3" format="ascii">
             -0.000505942               0.000000000               0.999999984              -0.000549936              -0.000000000               0.999999984              -0.000569903               0.000000000               0.999999984              -0.000581544               0.000000000               0.999999984              -0.000590744               0.000000000               0.999999984              -0.000599850               0.000000000               0.999999984              -0.000609901               0.000000000               0.999999984              -0.000621049               0.000000000               0.999999984              -0.000633213               0.000000000               0.999999984              -0.000646391               0.000000000               0.999999984              -0.000660329              -0.000000000               0.999999984              -0.000674869              -0.000000000               0.999999984              -0.000689751              -0.000000000               0.999999984              -0.000704714               0.000000000               0.999999984              -0.000719508              -0.000000000               0.999999984              -0.000733676               0.000000000               0.999999984              -0.000746732               0.000000000               0.999999984              -0.000503039               0.000112315               0.999999984              -0.000544047               0.000093213               0.999999984              -0.000562177               0.000085494               0.999999984              -0.000572653               0.000083596               0.999999984              -0.000581164               0.000084788               0.999999984              -0.000589887               0.000087769               0.999999984              -0.000599519               0.000091505               0.999999984              -0.000610253               0.000095657               0.999999984              -0.000622010               0.000099905               0.999999984              -0.000634654               0.000103872               0.999999984              -0.000647929               0.000107286               0.999999984              -0.000661547               0.000109958               0.999999984              -0.000675283               0.000111670               0.999999984              -0.000689015               0.000112199               0.999999984              -0.000702444               0.000111065               0.999999984              -0.000715229               0.000107575               0.999999984              -0.000727028               0.000100819               0.999999984              -0.000494547               0.000223475               0.999999984              -0.000526826               0.000185758               0.999999984              -0.000539742               0.000171343               0.999999984              -0.000547217               0.000168329               0.999999984              -0.000553926               0.000171303               0.999999984              -0.000561458               0.000177528               0.999999984              -0.000570124               0.000185299               0.999999984              -0.000579902               0.000193769               0.999999984              -0.000590507               0.000202173               0.999999984              -0.000601661               0.000209986               0.999999984              -0.000613039               0.000216687               0.999999984              -0.000624460               0.000222073               0.999999984              -0.000635730               0.000225872               0.999999984              -0.000646608               0.000227472               0.999999984              -0.000656879               0.000226142               0.999999984              -0.000666306               0.000220986               0.999999984              -0.000674866               0.000211194               0.999999984              -0.000480569               0.000332399               0.999999984              -0.000499112               0.000277095               0.999999984              -0.000504547               0.000257673               0.999999984              -0.000508024               0.000254936               0.999999984              -0.000512567               0.000260599               0.999999984              -0.000518737               0.000270593               0.999999984              -0.000526266               0.000282595               0.999999984              -0.000534766               0.000295397               0.999999984              -0.000543730               0.000308022               0.999999984              -0.000552868               0.000319581               0.999999984              -0.000561905               0.000329649               0.999999984              -0.000570481               0.000337858               0.999999984              -0.000578309               0.000343869               0.999999984              -0.000585262               0.000347193               0.999999984              -0.000591307               0.000347296               0.999999984              -0.000596568               0.000343449               0.999999984              -0.000601328               0.000335477               0.999999984              -0.000461344               0.000437952               0.999999984              -0.000462365               0.000366929               0.999999984              -0.000459537               0.000344507               0.999999984              -0.000459155               0.000343528               0.999999984              -0.000461966               0.000352763               0.999999984              -0.000467190               0.000366970               0.999999984              -0.000473818               0.000383377               0.999999984              -0.000481112               0.000400369               0.999999984              -0.000488551               0.000416942               0.999999984              -0.000495553               0.000432097               0.999999984              -0.000501822               0.000445382               0.999999984              -0.000507068               0.000456553               0.999999984              -0.000511205               0.000465370               0.999999984              -0.000514209               0.000471474               0.999999984              -0.000516255               0.000474752               0.999999984              -0.000517662               0.000475249               0.999999984              -0.000518828               0.000472989               0.999999984              -0.000437391               0.000538963               0.999999984              -0.000418667               0.000455013               0.999999984              -0.000408228               0.000431624               0.999999984              -0.000405247               0.000433536               0.999999984              -0.000407284               0.000446956               0.999999984              -0.000412198               0.000465595               0.999999984              -0.000418398               0.000486234               0.999999984              -0.000424790               0.000507296               0.999999984              -0.000430602               0.000527588               0.999999984              -0.000435421               0.000546200               0.999999984              -0.000439053               0.000562722               0.999999984              -0.000441208               0.000577055               0.999999984              -0.000441935               0.000588924               0.999999984              -0.000441378               0.000598417               0.999999984              -0.000439815               0.000605962               0.999999984              -0.000437561               0.000611582               0.999999984              -0.000434739               0.000615410               0.999999984              -0.000409121               0.000634414               0.999999984              -0.000370313               0.000541183               0.999999984              -0.000354296               0.000518449               0.999999984              -0.000350534               0.000523870               0.999999984              -0.000352976               0.000541500               0.999999984              -0.000358263               0.000564602               0.999999984              -0.000364296               0.000589477               0.999999984              -0.000369754               0.000614471               0.999999984              -0.000374085               0.000638311               0.999999984              -0.000376841               0.000660299               0.999999984              -0.000377582               0.000679977               0.999999984              -0.000376418               0.000697226               0.999999984              -0.000373507               0.000712075               0.999999984              -0.000369156               0.000725047               0.999999984              -0.000363523               0.000736532               0.999999984              -0.000356691               0.000746438               0.999999984              -0.000348505               0.000754261               0.999999984              -0.000377232               0.000723276               0.999999984              -0.000319874               0.000625113               0.999999984              -0.000300929               0.000604255               0.999999984              -0.000298342               0.000613136               0.999999984              -0.000302220               0.000634780               0.999999984              -0.000308310               0.000662087               0.999999984              -0.000314226               0.000691024               0.999999984              -0.000318861               0.000719843               0.999999984              -0.000321381               0.000747390               0.999999984              -0.000321351               0.000772425               0.999999984              -0.000318773               0.000794580               0.999999984              -0.000313673               0.000814141               0.999999984              -0.000306361               0.000831583               0.999999984              -0.000297130               0.000847541               0.999999984              -0.000286084               0.000862186               0.999999984              -0.000273343               0.000875176               0.999999984              -0.000258968               0.000885833               0.999999984              -0.000342976               0.000804065               0.999999984              -0.000269102               0.000706762               0.999999984              -0.000250924               0.000687963               0.999999984              -0.000250810               0.000699910               0.999999984              -0.000256690               0.000725310               0.999999984              -0.000263714               0.000756488               0.999999984              -0.000269510               0.000789475               0.999999984              -0.000272744               0.000822140               0.999999984              -0.000272841               0.000852613               0.999999984              -0.000269336               0.000879910               0.999999984              -0.000262195               0.000904062               0.999999984              -0.000251801               0.000925684               0.999999984              -0.000238752               0.000945533               0.999999984              -0.000223582               0.000963966               0.999999984              -0.000206660               0.000980934               0.999999984              -0.000188216               0.000996155               0.999999984              -0.000168994               0.001009726               0.999999984              -0.000308098               0.000879867               0.999999984              -0.000227383               0.000795661               0.999999984              -0.000206192               0.000772055               0.999999984              -0.000204701               0.000778125               0.999999984              -0.000209896               0.000798708               0.999999984              -0.000216743               0.000826550               0.999999984              -0.000222875               0.000857946               0.999999984              -0.000226793               0.000890221               0.999999984              -0.000227936               0.000921616               0.999999984              -0.000225691               0.000950853               0.999999984              -0.000219672               0.000977224               0.999999984              -0.000209863               0.001000979               0.999999984              -0.000196770               0.001022665               0.999999984              -0.000181255               0.001042974               0.999999984              -0.000163956               0.001062143               0.999999984              -0.000145424               0.001080238               0.999999984              -0.000126381               0.001097022               0.999999984              -0.000269838               0.000948427               0.999999984              -0.000188492               0.000880975               0.999999984              -0.000164306               0.000857704               0.999999984              -0.000160750               0.000859799               0.999999984              -0.000164661               0.000876428               0.999999984              -0.000170781               0.000901248               0.999999984              -0.000176699               0.000930852               0.999999984              -0.000180967               0.000962591               0.999999984              -0.000182875               0.000994406               0.999999984              -0.000181734               0.001025218               0.999999984              -0.000176934               0.001054005               0.999999984              -0.000168100               0.001080344               0.999999984              -0.000155384               0.001104259               0.999999984              -0.000139449               0.001126319               0.999999984              -0.000121029               0.001147118               0.999999984              -0.000100864               0.001167178               0.999999984              -0.000079681               0.001186594               0.999999984              -0.000228979               0.001008294               0.999999984              -0.000152272               0.000960344               0.999999984              -0.000126485               0.000941115               0.999999984              -0.000120712               0.000941994               0.999999984              -0.000122807               0.000956108               0.999999984              -0.000127707               0.000978719               0.999999984              -0.000132872               0.001006791               0.999999984              -0.000136981               0.001037874               0.999999984              -0.000139281               0.001070191               0.999999984              -0.000138857               0.001102279               0.999999984              -0.000135167               0.001133268               0.999999984              -0.000127596               0.001162571               0.999999984              -0.000115846               0.001189617               0.999999984              -0.000100086               0.001214426               0.999999984              -0.000080694               0.001237445               0.999999984              -0.000058102               0.001259431               0.999999984              -0.000032978               0.001280824               0.999999984              -0.000185922               0.001058510               0.999999984              -0.000118600               0.001030662               0.999999984              -0.000093370               0.001018177               0.999999984              -0.000085961               0.001020344               0.999999984              -0.000086197               0.001033711               0.999999984              -0.000089466               0.001055212               0.999999984              -0.000093432               0.001082548               0.999999984              -0.000096874               0.001113360               0.999999984              -0.000099103               0.001146148               0.999999984              -0.000099182               0.001179692               0.999999984              -0.000096244               0.001212894               0.999999984              -0.000089832               0.001245160               0.999999984              -0.000079716               0.001275837               0.999999984              -0.000065347               0.001304491               0.999999984              -0.000046174               0.001331122               0.999999984              -0.000022091               0.001356134               0.999999984               0.000006720               0.001380038               0.999999984              -0.000141060               0.001098359               0.999999984              -0.000087086               0.001088918               0.999999984              -0.000064971               0.001084475               0.999999984              -0.000057171               0.001089699               0.999999984              -0.000056000               0.001103831               0.999999984              -0.000057651               0.001125370               0.999999984              -0.000060272               0.001152602               0.999999984              -0.000062825               0.001183685               0.999999984              -0.000064619               0.001217192               0.999999984              -0.000064841               0.001252073               0.999999984              -0.000062549               0.001287556               0.999999984              -0.000057486               0.001322700               0.999999984              -0.000049433               0.001356921               0.999999984              -0.000037472               0.001389846               0.999999984              -0.000020541               0.001421038               0.999999984               0.000002200               0.001450407               0.999999984               0.000031393               0.001478039               0.999999984              -0.000094821               0.001127220               0.999999984              -0.000057204               0.001132516               0.999999984              -0.000040758               0.001135621               0.999999984              -0.000034234               0.001144458               0.999999984              -0.000032531               0.001160222               0.999999984              -0.000033005               0.001182510               0.999999984              -0.000034519               0.001210120               0.999999984              -0.000036164               0.001241608               0.999999984              -0.000037321               0.001275948               0.999999984              -0.000037351               0.001312128               0.999999984              -0.000035814               0.001349427               0.999999984              -0.000032431               0.001387110               0.999999984              -0.000026730               0.001424559               0.999999984              -0.000018049               0.001461335               0.999999984              -0.000005400               0.001496897               0.999999984               0.000012474               0.001530850               0.999999984               0.000036773               0.001562810               0.999999984              -0.000047653               0.001144659               0.999999984              -0.000028356               0.001159458               0.999999984              -0.000019588               0.001168015               0.999999984              -0.000015858               0.001179785               0.999999984              -0.000014671               0.001197050               0.999999984              -0.000014633               0.001220073               0.999999984              -0.000015297               0.001248152               0.999999984              -0.000016094               0.001280126               0.999999984              -0.000016645               0.001315062               0.999999984              -0.000016589               0.001352130               0.999999984              -0.000015836               0.001390706               0.999999984              -0.000014104               0.001430146               0.999999984              -0.000011193               0.001469931               0.999999984              -0.000006640               0.001509511               0.999999984               0.000000260               0.001548297               0.999999984               0.000010197               0.001585690               0.999999984               0.000023966               0.001621009               0.999999984              -0.000000000               0.001150520               0.999999984               0.000000000               0.001168556               0.999999984              -0.000000000               0.001179030               0.999999984              -0.000000000               0.001191952               0.999999984              -0.000000000               0.001209862               0.999999984              -0.000000000               0.001233197               0.999999984              -0.000000000               0.001261492               0.999999984               0.000000000               0.001293671               0.999999984              -0.000000000               0.001328845               0.999999984              -0.000000000               0.001366198               0.999999984               0.000000000               0.001405207               0.999999984               0.000000000               0.001445266               0.999999984               0.000000000               0.001485893               0.999999984               0.000000000               0.001526523               0.999999984              -0.000000000               0.001566522               0.999999984              -0.000000000               0.001605192               0.999999984               0.000000000               0.001641752               0.999999984              -0.000505942               0.000000000               0.999999984              -0.000549936              -0.000000000               0.999999984              -0.000569903               0.000000000               0.999999984              -0.000581544               0.000000000               0.999999984              -0.000590744               0.000000000               0.999999984              -0.000599850               0.000000000               0.999999984              -0.000609901               0.000000000               0.999999984              -0.000621049               0.000000000               0.999999984              -0.000633213               0.000000000               0.999999984              -0.000646391               0.000000000               0.999999984              -0.000660329              -0.000000000               0.999999984              -0.000674869              -0.000000000               0.999999984              -0.000689751              -0.000000000               0.999999984              -0.000704714               0.000000000               0.999999984              -0.000719508              -0.000000000               0.999999984              -0.000733676               0.000000000               0.999999984              -0.000746732               0.000000000               0.999999984              -0.000503039              -0.000112315               0.999999984              -0.000544047              -0.000093213               0.999999984              -0.000562177              -0.000085494               0.999999984              -0.000572653              -0.000083596               0.999999984              -0.000581164              -0.000084788               0.999999984              -0.000589887              -0.000087769               0.999999984              -0.000599519              -0.000091505               0.999999984              -0.000610253              -0.000095657               0.999999984              -0.000622010              -0.000099905               0.999999984              -0.000634654              -0.000103872               0.999999984              -0.000647929              -0.000107286               0.999999984              -0.000661547              -0.000109958               0.999999984              -0.000675283              -0.000111670               0.999999984              -0.000689015              -0.000112199               0.999999984              -0.000702444              -0.000111065               0.999999984              -0.000715229              -0.000107575               0.999999984              -0.000727028              -0.000100819               0.999999984              -0.000494547              -0.000223475               0.999999984              -0.000526826              -0.000185758               0.999999984              -0.000539742              -0.000171343               0.999999984              -0.000547217              -0.000168329               0.999999984              -0.000553926              -0.000171303               0.999999984              -0.000561458              -0.000177528               0.999999984              -0.000570124              -0.000185299               0.999999984              -0.000579902              -0.000193769               0.999999984              -0.000590507              -0.000202173               0.999999984              -0.000601661              -0.000209986               0.999999984              -0.000613039              -0.000216687               0.999999984              -0.000624460              -0.000222073               0.999999984              -0.000635730              -0.000225872               0.999999984              -0.000646608              -0.000227472               0.999999984              -0.000656879              -0.000226142               0.999999984              -0.000666306              -0.000220986               0.999999984              -0.000674866              -0.000211194               0.999999984              -0.000480569              -0.000332399               0.999999984              -0.000499112              -0.000277095               0.999999984              -0.000504547              -0.000257673               0.999999984              -0.000508024              -0.000254936               0.999999984              -0.000512567              -0.000260599               0.999999984              -0.000518737              -0.000270593               0.999999984              -0.000526266              -0.000282595               0.999999984              -0.000534766              -0.000295397               0.999999984              -0.000543730              -0.000308022               0.999999984              -0.000552868              -0.000319581               0.999999984              -0.000561905              -0.000329649               0.999999984              -0.000570481              -0.000337858               0.999999984              -0.000578309              -0.000343869               0.999999984              -0.000585262              -0.000347193               0.999999984              -0.000591307              -0.000347296               0.999999984              -0.000596568              -0.000343449               0.999999984              -0.000601328              -0.000335477               0.999999984              -0.000461344              -0.000437952               0.999999984              -0.000462365              -0.000366929               0.999999984              -0.000459537              -0.000344507               0.999999984              -0.000459155              -0.000343528               0.999999984              -0.000461966              -0.000352763               0.999999984              -0.000467190              -0.000366970               0.999999984              -0.000473818              -0.000383377               0.999999984              -0.000481112              -0.000400369               0.999999984              -0.000488551              -0.000416942               0.999999984              -0.000495553              -0.000432097               0.999999984              -0.000501822              -0.000445382               0.999999984              -0.000507068              -0.000456553               0.999999984              -0.000511205              -0.000465370               0.999999984              -0.000514209              -0.000471474               0.999999984              -0.000516255              -0.000474752               0.999999984              -0.000517662              -0.000475249               0.999999984              -0.000518828              -0.000472989               0.999999984              -0.000437391              -0.000538963               0.999999984              -0.000418667              -0.000455013               0.999999984              -0.000408228              -0.000431624               0.999999984              -0.000405247              -0.000433536               0.999999984              -0.000407284              -0.000446956               0.999999984              -0.000412198              -0.000465595               0.999999984              -0.000418398              -0.000486234               0.999999984              -0.000424790              -0.000507296               0.999999984              -0.000430602              -0.000527588               0.999999984              -0.000435421              -0.000546200               0.999999984              -0.000439053              -0.000562722               0.999999984              -0.000441208              -0.000577055               0.999999984              -0.000441935              -0.000588924               0.999999984              -0.000441378              -0.000598417               0.999999984              -0.000439815              -0.000605962               0.999999984              -0.000437561              -0.000611582               0.999999984              -0.000434739              -0.000615410               0.999999984              -0.000409121              -0.000634414               0.999999984              -0.000370313              -0.000541183               0.999999984              -0.000354296              -0.000518449               0.999999984              -0.000350534              -0.000523870               0.999999984              -0.000352976              -0.000541500               0.999999984              -0.000358263              -0.000564602               0.999999984              -0.000364296              -0.000589477               0.999999984              -0.000369754              -0.000614471               0.999999984              -0.000374085              -0.000638311               0.999999984              -0.000376841              -0.000660299               0.999999984              -0.000377582              -0.000679977               0.999999984              -0.000376418              -0.000697226               0.999999984              -0.000373507              -0.000712075               0.999999984              -0.000369156              -0.000725047               0.999999984              -0.000363523              -0.000736532               0.999999984              -0.000356691              -0.000746438               0.999999984              -0.000348505              -0.000754261               0.999999984              -0.000377232              -0.000723276               0.999999984              -0.000319874              -0.000625113               0.999999984              -0.000300929              -0.000604255               0.999999984              -0.000298342              -0.000613136               0.999999984              -0.000302220              -0.000634780               0.999999984              -0.000308310              -0.000662087               0.999999984              -0.000314226              -0.000691024               0.999999984              -0.000318861              -0.000719843               0.999999984              -0.000321381              -0.000747390               0.999999984              -0.000321351              -0.000772425               0.999999984              -0.000318773              -0.000794580               0.999999984              -0.000313673              -0.000814141               0.999999984              -0.000306361              -0.000831583               0.999999984              -0.000297130              -0.000847541               0.999999984              -0.000286084              -0.000862186               0.999999984              -0.000273343              -0.000875176               0.999999984              -0.000258968              -0.000885833               0.999999984              -0.000342976              -0.000804065               0.999999984              -0.000269102              -0.000706762               0.999999984              -0.000250924              -0.000687963               0.999999984              -0.000250810              -0.000699910               0.999999984              -0.000256690              -0.000725310               0.999999984              -0.000263714              -0.000756488               0.999999984              -0.000269510              -0.000789475               0.999999984              -0.000272744              -0.000822140               0.999999984              -0.000272841              -0.000852613               0.999999984              -0.000269336              -0.000879910               0.999999984              -0.000262195              -0.000904062               0.999999984              -0.000251801              -0.000925684               0.999999984              -0.000238752              -0.000945533               0.999999984              -0.000223582              -0.000963966               0.999999984              -0.000206660              -0.000980934               0.999999984              -0.000188216              -0.000996155               0.999999984              -0.000168994              -0.001009726               0.999999984              -0.000308098              -0.000879867               0.999999984              -0.000227383              -0.000795661               0.999999984              -0.000206192              -0.000772055               0.999999984              -0.000204701              -0.000778125               0.999999984              -0.000209896              -0.000798708               0.999999984              -0.000216743              -0.000826550               0.999999984              -0.000222875              -0.000857946               0.999999984              -0.000226793              -0.000890221               0.999999984              -0.000227936              -0.000921616               0.999999984              -0.000225691              -0.000950853               0.999999984              -0.000219672              -0.000977224               0.999999984              -0.000209863              -0.001000979               0.999999984              -0.000196770              -0.001022665               0.999999984              -0.000181255              -0.001042974               0.999999984              -0.000163956              -0.001062143               0.999999984              -0.000145424              -0.001080238               0.999999984              -0.000126381              -0.001097022               0.999999984              -0.000269838              -0.000948427               0.999999984              -0.000188492              -0.000880975               0.999999984              -0.000164306              -0.000857704               0.999999984              -0.000160750              -0.000859799               0.999999984              -0.000164661              -0.000876428               0.999999984              -0.000170781              -0.000901248               0.999999984              -0.000176699              -0.000930852               0.999999984              -0.000180967              -0.000962591               0.999999984              -0.000182875              -0.000994406               0.999999984              -0.000181734              -0.001025218               0.999999984              -0.000176934              -0.001054005               0.999999984              -0.000168100              -0.001080344               0.999999984              -0.000155384              -0.001104259               0.999999984              -0.000139449              -0.001126319               0.999999984              -0.000121029              -0.001147118               0.999999984              -0.000100864              -0.001167178               0.999999984              -0.000079681              -0.001186594               0.999999984              -0.000228979              -0.001008294               0.999999984              -0.000152272              -0.000960344               0.999999984              -0.000126485              -0.000941115               0.999999984              -0.000120712              -0.000941994               0.999999984              -0.000122807              -0.000956108               0.999999984              -0.000127707              -0.000978719               0.999999984              -0.000132872              -0.001006791               0.999999984              -0.000136981              -0.001037874               0.999999984              -0.000139281              -0.001070191               0.999999984              -0.000138857              -0.001102279               0.999999984              -0.000135167              -0.001133268               0.999999984              -0.000127596              -0.001162571               0.999999984              -0.000115846              -0.001189617               0.999999984              -0.000100086              -0.001214426               0.999999984              -0.000080694              -0.001237445               0.999999984              -0.000058102              -0.001259431               0.999999984              -0.000032978              -0.001280824               0.999999984              -0.000185922              -0.001058510               0.999999984              -0.000118600              -0.001030662               0.999999984              -0.000093370              -0.001018177               0.999999984              -0.000085961              -0.001020344               0.999999984              -0.000086197              -0.001033711               0.999999984              -0.000089466              -0.001055212               0.999999984              -0.000093432              -0.001082548               0.999999984              -0.000096874              -0.001113360               0.999999984              -0.000099103              -0.001146148               0.999999984              -0.000099182              -0.001179692               0.999999984              -0.000096244              -0.001212894               0.999999984              -0.000089832              -0.001245160               0.999999984              -0.000079716              -0.001275837               0.999999984              -0.000065347              -0.001304491               0.999999984              -0.000046174              -0.001331122               0.999999984              -0.000022091              -0.001356134               0.999999984               0.000006720              -0.001380038               0.999999984              -0.000141060              -0.001098359               0.999999984              -0.000087086              -0.001088918               0.999999984              -0.000064971              -0.001084475               0.999999984              -0.000057171              -0.001089699               0.999999984              -0.000056000              -0.001103831               0.999999984              -0.000057651              -0.001125370               0.999999984              -0.000060272              -0.001152602               0.999999984              -0.000062825              -0.001183685               0.999999984              -0.000064619              -0.001217192               0.999999984              -0.000064841              -0.001252073               0.999999984              -0.000062549              -0.001287556               0.999999984              -0.000057486              -0.001322700               0.999999984              -0.000049433              -0.001356921               0.999999984              -0.000037472              -0.001389846               0.999999984              -0.000020541              -0.001421038               0.999999984               0.000002200              -0.001450407               0.999999984               0.000031393              -0.001478039               0.999999984              -0.000094821              -0.001127220               0.999999984              -0.000057204              -0.001132516               0.999999984              -0.000040758              -0.001135621               0.999999984              -0.000034234              -0.001144458               0.999999984              -0.000032531              -0.001160222               0.999999984              -0.000033005              -0.001182510               0.999999984              -0.000034519              -0.001210120               0.999999984              -0.000036164              -0.001241608               0.999999984              -0.000037321              -0.001275948               0.999999984              -0.000037351              -0.001312128               0.999999984              -0.000035814              -0.001349427               0.999999984              -0.000032431              -0.001387110               0.999999984              -0.000026730              -0.001424559               0.999999984              -0.000018049              -0.001461335               0.999999984              -0.000005400              -0.001496897               0.999999984               0.000012474              -0.001530850               0.999999984               0.000036773              -0.001562810               0.999999984              -0.000047653              -0.001144659               0.999999984              -0.000028356              -0.001159458               0.999999984              -0.000019588              -0.001168015               0.999999984              -0.000015858              -0.001179785               0.999999984              -0.000014671              -0.001197050               0.999999984              -0.000014633              -0.001220073               0.999999984              -0.000015297              -0.001248152               0.999999984              -0.000016094              -0.001280126               0.999999984              -0.000016645              -0.001315062               0.999999984              -0.000016589              -0.001352130               0.999999984              -0.000015836              -0.001390706               0.999999984              -0.000014104              -0.001430146               0.999999984              -0.000011193              -0.001469931               0.999999984              -0.000006640              -0.001509511               0.999999984               0.000000260              -0.001548297               0.999999984               0.000010197              -0.001585690               0.999999984               0.000023966              -0.001621009               0.999999984              -0.000000000              -0.001150520               0.999999984               0.000000000              -0.001168556               0.999999984              -0.000000000              -0.001179030               0.999999984               0.000000000              -0.001191952               0.999999984               0.000000000              -0.001209862               0.999999984              -0.000000000              -0.001233197               0.999999984              -0.000000000              -0.001261492               0.999999984              -0.000000000              -0.001293671               0.999999984              -0.000000000              -0.001328845               0.999999984               0.000000000              -0.001366198               0.999999984               0.000000000              -0.001405207               0.999999984               0.000000000              -0.001445266               0.999999984               0.000000000              -0.001485893               0.999999984              -0.000000000              -0.001526523               0.999999984               0.000000000              -0.001566522               0.999999984               0.000000000              -0.001605192               0.999999984               0.000000000              -0.001641752               0.999999984               0.000505942               0.000000000               0.999999984               0.000549936               0.000000000               0.999999984               0.000569903               0.000000000               0.999999984               0.000581544               0.000000000               0.999999984               0.000590744               0.000000000               0.999999984               0.000599850               0.000000000               0.999999984               0.000609901               0.000000000               0.999999984               0.000621049               0.000000000               0.999999984               0.000633213               0.000000000               0.999999984               0.000646391               0.000000000               0.999999984               0.000660329              -0.000000000               0.999999984               0.000674869               0.000000000               0.999999984               0.000689751               0.000000000               0.999999984               0.000704714               0.000000000               0.999999984               0.000719508               0.000000000               0.999999984               0.000733676              -0.000000000               0.999999984               0.000746732              -0.000000000               0.999999984               0.000503039              -0.000112315               0.999999984               0.000544047              -0.000093213               0.999999984               0.000562177              -0.000085494               0.999999984               0.000572653              -0.000083596               0.999999984               0.000581164              -0.000084788               0.999999984               0.000589887              -0.000087769               0.999999984               0.000599519              -0.000091505               0.999999984               0.000610253              -0.000095657               0.999999984               0.000622010              -0.000099905               0.999999984               0.000634654              -0.000103872               0.999999984               0.000647929              -0.000107286               0.999999984               0.000661547              -0.000109958               0.999999984               0.000675283              -0.000111670               0.999999984               0.000689015              -0.000112199               0.999999984               0.000702444              -0.000111065               0.999999984               0.000715229              -0.000107575               0.999999984               0.000727028              -0.000100819               0.999999984               0.000494547              -0.000223475               0.999999984               0.000526826              -0.000185758               0.999999984               0.000539742              -0.000171343               0.999999984               0.000547217              -0.000168329               0.999999984               0.000553926              -0.000171303               0.999999984               0.000561458              -0.000177528               0.999999984               0.000570124              -0.000185299               0.999999984               0.000579902              -0.000193769               0.999999984               0.000590507              -0.000202173               0.999999984               0.000601661              -0.000209986               0.999999984               0.000613039              -0.000216687               0.999999984               0.000624460              -0.000222073               0.999999984               0.000635730              -0.000225872               0.999999984               0.000646608              -0.000227472               0.999999984               0.000656879              -0.000226142               0.999999984               0.000666306              -0.000220986               0.999999984               0.000674866              -0.000211194               0.999999984               0.000480569              -0.000332399               0.999999984               0.000499112              -0.000277095               0.999999984               0.000504547              -0.000257673               0.999999984               0.000508024              -0.000254936               0.999999984               0.000512567              -0.000260599               0.999999984               0.000518737              -0.000270593               0.999999984               0.000526266              -0.000282595               0.999999984               0.000534766              -0.000295397               0.999999984               0.000543730              -0.000308022               0.999999984               0.000552868              -0.000319581               0.999999984               0.000561905              -0.000329649               0.999999984               0.000570481              -0.000337858               0.999999984               0.000578309              -0.000343869               0.999999984               0.000585262              -0.000347193               0.999999984               0.000591307              -0.000347296               0.999999984               0.000596568              -0.000343449               0.999999984               0.000601328              -0.000335477               0.999999984               0.000461344              -0.000437952               0.999999984               0.000462365              -0.000366929               0.999999984               0.000459537              -0.000344507               0.999999984               0.000459155              -0.000343528               0.999999984               0.000461966              -0.000352763               0.999999984               0.000467190              -0.000366970               0.999999984               0.000473818              -0.000383377               0.999999984               0.000481112              -0.000400369               0.999999984               0.000488551              -0.000416942               0.999999984               0.000495553              -0.000432097               0.999999984               0.000501822              -0.000445382               0.999999984               0.000507068              -0.000456553               0.999999984               0.000511205              -0.000465370               0.999999984               0.000514209              -0.000471474               0.999999984               0.000516255              -0.000474752               0.999999984               0.000517662              -0.000475249               0.999999984               0.000518828              -0.000472989               0.999999984               0.000437391              -0.000538963               0.999999984               0.000418667              -0.000455013               0.999999984               0.000408228              -0.000431624               0.999999984               0.000405247              -0.000433536               0.999999984               0.000407284              -0.000446956               0.999999984               0.000412198              -0.000465595               0.999999984               0.000418398              -0.000486234               0.999999984               0.000424790              -0.000507296               0.999999984               0.000430602              -0.000527588               0.999999984               0.000435421              -0.000546200               0.999999984               0.000439053              -0.000562722               0.999999984               0.000441208              -0.000577055               0.999999984               0.000441935              -0.000588924               0.999999984               0.000441378              -0.000598417               0.999999984               0.000439815              -0.000605962               0.999999984               0.000437561              -0.000611582               0.999999984               0.000434739              -0.000615410               0.999999984               0.000409121              -0.000634414               0.999999984               0.000370313              -0.000541183               0.999999984               0.000354296              -0.000518449               0.999999984               0.000350534              -0.000523870               0.999999984               0.000352976              -0.000541500               0.999999984               0.000358263              -0.000564602               0.999999984               0.000364296              -0.000589477               0.999999984               0.000369754              -0.000614471               0.999999984               0.000374085              -0.000638311               0.999999984               0.000376841              -0.000660299               0.999999984               0.000377582              -0.000679977               0.999999984               0.000376418              -0.000697226               0.999999984               0.000373507              -0.000712075               0.999999984               0.000369156              -0.000725047               0.999999984               0.000363523              -0.000736532               0.999999984               0.000356691              -0.000746438               0.999999984               0.000348505              -0.000754261               0.999999984               0.000377232              -0.000723276               0.999999984               0.000319874              -0.000625113               0.999999984               0.000300929              -0.000604255               0.999999984               0.000298342              -0.000613136               0.999999984               0.000302220              -0.000634780               0.999999984               0.000308310              -0.000662087               0.999999984               0.000314226              -0.000691024               0.999999984               0.000318861              -0.000719843               0.999999984               0.000321381              -0.000747390               0.999999984               0.000321351              -0.000772425               0.999999984               0.000318773              -0.000794580               0.999999984               0.000313673              -0.000814141               0.999999984               0.000306361              -0.000831583               0.999999984               0.000297130              -0.000847541               0.999999984               0.000286084              -0.000862186               0.999999984               0.000273343              -0.000875176               0.999999984               0.000258968              -0.000885833               0.999999984               0.000342976              -0.000804065               0.999999984               0.000269102              -0.000706762               0.999999984               0.000250924              -0.000687963               0.999999984               0.000250810              -0.000699910               0.999999984               0.000256690              -0.000725310               0.999999984               0.000263714              -0.000756488               0.999999984               0.000269510              -0.000789475               0.999999984               0.000272744              -0.000822140               0.999999984               0.000272841              -0.000852613               0.999999984               0.000269336              -0.000879910               0.999999984               0.000262195              -0.000904062               0.999999984               0.000251801              -0.000925684               0.999999984               0.000238752              -0.000945533               0.999999984               0.000223582              -0.000963966               0.999999984               0.000206660              -0.000980934               0.999999984               0.000188216              -0.000996155               0.999999984               0.000168994              -0.001009726               0.999999984               0.000308098              -0.000879867               0.999999984               0.000227383              -0.000795661               0.999999984               0.000206192              -0.000772055               0.999999984               0.000204701              -0.000778125               0.999999984               0.000209896              -0.000798708               0.999999984               0.000216743              -0.000826550               0.999999984               0.000222875              -0.000857946               0.999999984               0.000226793              -0.000890221               0.999999984               0.000227936              -0.000921616               0.999999984               0.000225691              -0.000950853               0.999999984               0.000219672              -0.000977224               0.999999984               0.000209863              -0.001000979               0.999999984               0.000196770              -0.001022665               0.999999984               0.000181255              -0.001042974               0.999999984               0.000163956              -0.001062143               0.999999984               0.000145424              -0.001080238               0.999999984               0.000126381              -0.001097022               0.999999984               0.000269838              -0.000948427               0.999999984               0.000188492              -0.000880975               0.999999984               0.000164306              -0.000857704               0.999999984               0.000160750              -0.000859799               0.999999984               0.000164661              -0.000876428               0.999999984               0.000170781              -0.000901248               0.999999984               0.000176699              -0.000930852               0.999999984               0.000180967              -0.000962591               0.999999984               0.000182875              -0.000994406               0.999999984               0.000181734              -0.001025218               0.999999984               0.000176934              -0.001054005               0.999999984               0.000168100              -0.001080344               0.999999984               0.000155384              -0.001104259               0.999999984               0.000139449              -0.001126319               0.999999984               0.000121029              -0.001147118               0.999999984               0.000100864              -0.001167178               0.999999984               0.000079681              -0.001186594               0.999999984               0.000228979              -0.001008294               0.999999984               0.000152272              -0.000960344               0.999999984               0.000126485              -0.000941115               0.999999984               0.000120712              -0.000941994               0.999999984               0.000122807              -0.000956108               0.999999984               0.000127707              -0.000978719               0.999999984               0.000132872              -0.001006791               0.999999984               0.000136981              -0.001037874               0.999999984               0.000139281              -0.001070191               0.999999984               0.000138857              -0.001102279               0.999999984               0.000135167              -0.001133268               0.999999984               0.000127596              -0.001162571               0.999999984               0.000115846              -0.001189617               0.999999984               0.000100086              -0.001214426               0.999999984               0.000080694              -0.001237445               0.999999984               0.000058102              -0.001259431               0.999999984               0.000032978              -0.001280824               0.999999984               0.000185922              -0.001058510               0.999999984               0.000118600              -0.001030662               0.999999984               0.000093370              -0.001018177               0.999999984               0.000085961              -0.001020344               0.999999984               0.000086197              -0.001033711               0.999999984               0.000089466              -0.001055212               0.999999984               0.000093432              -0.001082548               0.999999984               0.000096874              -0.001113360               0.999999984               0.000099103              -0.001146148               0.999999984               0.000099182              -0.001179692               0.999999984               0.000096244              -0.001212894               0.999999984               0.000089832              -0.001245160               0.999999984               0.000079716              -0.001275837               0.999999984               0.000065347              -0.001304491               0.999999984               0.000046174              -0.001331122               0.999999984               0.000022091              -0.001356134               0.999999984              -0.000006720              -0.001380038               0.999999984               0.000141060              -0.001098359               0.999999984               0.000087086              -0.001088918               0.999999984               0.000064971              -0.001084475               0.999999984               0.000057171              -0.001089699               0.999999984               0.000056000              -0.001103831               0.999999984               0.000057651              -0.001125370               0.999999984               0.000060272              -0.001152602               0.999999984               0.000062825              -0.001183685               0.999999984               0.000064619              -0.001217192               0.999999984               0.000064841              -0.001252073               0.999999984               0.000062549              -0.001287556               0.999999984               0.000057486              -0.001322700               0.999999984               0.000049433              -0.001356921               0.999999984               0.000037472              -0.001389846               0.999999984               0.000020541              -0.001421038               0.999999984              -0.000002200              -0.001450407               0.999999984              -0.000031393              -0.001478039               0.999999984               0.000094821              -0.001127220               0.999999984               0.000057204              -0.001132516               0.999999984               0.000040758              -0.001135621               0.999999984               0.000034234              -0.001144458               0.999999984               0.000032531              -0.001160222               0.999999984               0.000033005              -0.001182510               0.999999984               0.000034519              -0.001210120               0.999999984               0.000036164              -0.001241608               0.999999984               0.000037321              -0.001275948               0.999999984               0.000037351              -0.001312128               0.999999984               0.000035814              -0.001349427               0.999999984               0.000032431              -0.001387110               0.999999984               0.000026730              -0.001424559               0.999999984               0.000018049              -0.001461335               0.999999984               0.000005400              -0.001496897               0.999999984              -0.000012474              -0.001530850               0.999999984              -0.000036773              -0.001562810               0.999999984               0.000047653              -0.001144659               0.999999984               0.000028356              -0.001159458               0.999999984               0.000019588              -0.001168015               0.999999984               0.000015858              -0.001179785               0.999999984               0.000014671              -0.001197050               0.999999984               0.000014633              -0.001220073               0.999999984               0.000015297              -0.001248152               0.999999984               0.000016094              -0.001280126               0.999999984               0.000016645              -0.001315062               0.999999984               0.000016589              -0.001352130               0.999999984               0.000015836              -0.001390706               0.999999984               0.000014104              -0.001430146               0.999999984               0.000011193              -0.001469931               0.999999984               0.000006640              -0.001509511               0.999999984              -0.000000260              -0.001548297               0.999999984              -0.000010197              -0.001585690               0.999999984              -0.000023966              -0.001621009               0.999999984              -0.000000000              -0.001150520               0.999999984               0.000000000              -0.001168556               0.999999984              -0.000000000              -0.001179030               0.999999984               0.000000000              -0.001191952               0.999999984               0.000000000              -0.001209862               0.999999984              -0.000000000              -0.001233197               0.999999984              -0.000000000              -0.001261492               0.999999984              -0.000000000              -0.001293671               0.999999984              -0.000000000              -0.001328845               0.999999984               0.000000000              -0.001366198               0.999999984               0.000000000              -0.001405207               0.999999984               0.000000000              -0.001445266               0.999999984               0.000000000              -0.001485893               0.999999984              -0.000000000              -0.001526523               0.999999984               0.000000000              -0.001566522               0.999999984               0.000000000              -0.001605192               0.999999984               0.000000000              -0.001641752               0.999999984               0.000505942               0.000000000               0.999999984               0.000549936               0.000000000               0.999999984               0.000569903               0.000000000               0.999999984               0.000581544               0.000000000               0.999999984               0.000590744               0.000000000               0.999999984               0.000599850               0.000000000               0.999999984               0.000609901               0.000000000               0.999999984               0.000621049               0.000000000               0.999999984               0.000633213               0.000000000               0.999999984               0.000646391               0.000000000               0.999999984               0.000660329              -0.000000000               0.999999984               0.000674869               0.000000000               0.999999984               0.000689751               0.000000000               0.999999984               0.000704714               0.000000000               0.999999984               0.000719508               0.000000000               0.999999984               0.000733676              -0.000000000               0.999999984               0.000746732              -0.000000000               0.999999984               0.000503039               0.000112315               0.999999984               0.000544047               0.000093213               0.999999984               0.000562177               0.000085494               0.999999984               0.000572653               0.000083596               0.999999984               0.000581164               0.000084788               0.999999984               0.000589887               0.000087769               0.999999984               0.000599519               0.000091505               0.999999984               0.000610253               0.000095657               0.999999984               0.000622010               0.000099905               0.999999984               0.000634654               0.000103872               0.999999984               0.000647929               0.000107286               0.999999984               0.000661547               0.000109958               0.999999984               0.000675283               0.000111670               0.999999984               0.000689015               0.000112199               0.999999984               0.000702444               0.000111065               0.999999984               0.000715229               0.000107575               0.999999984               0.000727028               0.000100819               0.999999984               0.000494547               0.000223475               0.999999984               0.000526826               0.000185758               0.999999984               0.000539742               0.000171343               0.999999984               0.000547217               0.000168329               0.999999984               0.000553926               0.000171303               0.999999984               0.000561458               0.000177528               0.999999984               0.000570124               0.000185299               0.999999984               0.000579902               0.000193769               0.999999984               0.000590507               0.000202173               0.999999984               0.000601661               0.000209986               0.999999984               0.000613039               0.000216687               0.999999984               0.000624460               0.000222073               0.999999984               0.000635730               0.000225872               0.999999984               0.000646608               0.000227472               0.999999984               0.000656879               0.000226142               0.999999984               0.000666306               0.000220986               0.999999984               0.000674866               0.000211194               0.999999984               0.000480569               0.000332399               0.999999984               0.000499112               0.000277095               0.999999984               0.000504547               0.000257673               0.999999984               0.000508024               0.000254936               0.999999984               0.000512567               0.000260599               0.999999984               0.000518737               0.000270593               0.999999984               0.000526266               0.000282595               0.999999984               0.000534766               0.000295397               0.999999984               0.000543730               0.000308022               0.999999984               0.000552868               0.000319581               0.999999984               0.000561905               0.000329649               0.999999984               0.000570481               0.000337858               0.999999984               0.000578309               0.000343869               0.999999984               0.000585262               0.000347193               0.999999984               0.000591307               0.000347296               0.999999984               0.000596568               0.000343449               0.999999984               0.000601328               0.000335477               0.999999984               0.000461344               0.000437952               0.999999984               0.000462365               0.000366929               0.999999984               0.000459537               0.000344507               0.999999984               0.000459155               0.000343528               0.999999984               0.000461966               0.000352763               0.999999984               0.000467190               0.000366970               0.999999984               0.000473818               0.000383377               0.999999984               0.000481112               0.000400369               0.999999984               0.000488551               0.000416942               0.999999984               0.000495553               0.000432097               0.999999984               0.000501822               0.000445382               0.999999984               0.000507068               0.000456553               0.999999984               0.000511205               0.000465370               0.999999984               0.000514209               0.000471474               0.999999984               0.000516255               0.000474752               0.999999984               0.000517662               0.000475249               0.999999984               0.000518828               0.000472989               0.999999984               0.000437391               0.000538963               0.999999984               0.000418667               0.000455013               0.999999984               0.000408228               0.000431624               0.999999984               0.000405247               0.000433536               0.999999984               0.000407284               0.000446956               0.999999984               0.000412198               0.000465595               0.999999984               0.000418398               0.000486234               0.999999984               0.000424790               0.000507296               0.999999984               0.000430602               0.000527588               0.999999984               0.000435421               0.000546200               0.999999984               0.000439053               0.000562722               0.999999984               0.000441208               0.000577055               0.999999984               0.000441935               0.000588924               0.999999984               0.000441378               0.000598417               0.999999984               0.000439815               0.000605962               0.999999984               0.000437561               0.000611582               0.999999984               0.000434739               0.000615410               0.999999984               0.000409121               0.000634414               0.999999984               0.000370313               0.000541183               0.999999984               0.000354296               0.000518449               0.999999984               0.000350534               0.000523870               0.999999984               0.000352976               0.000541500               0.999999984               0.000358263               0.000564602               0.999999984               0.000364296               0.000589477               0.999999984               0.000369754               0.000614471               0.999999984               0.000374085               0.000638311               0.999999984               0.000376841               0.000660299               0.999999984               0.000377582               0.000679977               0.999999984               0.000376418               0.000697226               0.999999984               0.000373507               0.000712075               0.999999984               0.000369156               0.000725047               0.999999984               0.000363523               0.000736532               0.999999984               0.000356691               0.000746438               0.999999984               0.000348505               0.000754261               0.999999984               0.000377232               0.000723276               0.999999984               0.000319874               0.000625113               0.999999984               0.000300929               0.000604255               0.999999984               0.000298342               0.000613136               0.999999984               0.000302220               0.000634780               0.999999984               0.000308310               0.000662087               0.999999984               0.000314226               0.000691024               0.999999984               0.000318861               0.000719843               0.999999984               0.000321381               0.000747390               0.999999984               0.000321351               0.000772425               0.999999984               0.000318773               0.000794580               0.999999984               0.000313673               0.000814141               0.999999984               0.000306361               0.000831583               0.999999984               0.000297130               0.000847541               0.999999984               0.000286084               0.000862186               0.999999984               0.000273343               0.000875176               0.999999984               0.000258968               0.000885833               0.999999984               0.000342976               0.000804065               0.999999984               0.000269102               0.000706762               0.999999984               0.000250924               0.000687963               0.999999984               0.000250810               0.000699910               0.999999984               0.000256690               0.000725310               0.999999984               0.000263714               0.000756488               0.999999984               0.000269510               0.000789475               0.999999984               0.000272744               0.000822140               0.999999984               0.000272841               0.000852613               0.999999984               0.000269336               0.000879910               0.999999984               0.000262195               0.000904062               0.999999984               0.000251801               0.000925684               0.999999984               0.000238752               0.000945533               0.999999984               0.000223582               0.000963966               0.999999984               0.000206660               0.000980934               0.999999984               0.000188216               0.000996155               0.999999984               0.000168994               0.001009726               0.999999984               0.000308098               0.000879867               0.999999984               0.000227383               0.000795661               0.999999984               0.000206192               0.000772055               0.999999984               0.000204701               0.000778125               0.999999984               0.000209896               0.000798708               0.999999984               0.000216743               0.000826550               0.999999984               0.000222875               0.000857946               0.999999984               0.000226793               0.000890221               0.999999984               0.000227936               0.000921616               0.999999984               0.000225691               0.000950853               0.999999984               0.000219672               0.000977224               0.999999984               0.000209863               0.001000979               0.999999984               0.000196770               0.001022665               0.999999984               0.000181255               0.001042974               0.999999984               0.000163956               0.001062143               0.999999984               0.000145424               0.001080238               0.999999984               0.000126381               0.001097022               0.999999984               0.000269838               0.000948427               0.999999984               0.000188492               0.000880975               0.999999984               0.000164306               0.000857704               0.999999984               0.000160750               0.000859799               0.999999984               0.000164661               0.000876428               0.999999984               0.000170781               0.000901248               0.999999984               0.000176699               0.000930852               0.999999984               0.000180967               0.000962591               0.999999984               0.000182875               0.000994406               0.999999984               0.000181734               0.001025218               0.999999984               0.000176934               0.001054005               0.999999984               0.000168100               0.001080344               0.999999984               0.000155384               0.001104259               0.999999984               0.000139449               0.001126319               0.999999984               0.000121029               0.001147118               0.999999984               0.000100864               0.001167178               0.999999984               0.000079681               0.001186594               0.999999984               0.000228979               0.001008294               0.999999984               0.000152272               0.000960344               0.999999984               0.000126485               0.000941115               0.999999984               0.000120712               0.000941994               0.999999984               0.000122807               0.000956108               0.999999984               0.000127707               0.000978719               0.999999984               0.000132872               0.001006791               0.999999984               0.000136981               0.001037874               0.999999984               0.000139281               0.001070191               0.999999984               0.000138857               0.001102279               0.999999984               0.000135167               0.001133268               0.999999984               0.000127596               0.001162571               0.999999984               0.000115846               0.001189617               0.999999984               0.000100086               0.001214426               0.999999984               0.000080694               0.001237445               0.999999984               0.000058102               0.001259431               0.999999984               0.000032978               0.001280824               0.999999984               0.000185922               0.001058510               0.999999984               0.000118600               0.001030662               0.999999984               0.000093370               0.001018177               0.999999984               0.000085961               0.001020344               0.999999984               0.000086197               0.001033711               0.999999984               0.000089466               0.001055212               0.999999984               0.000093432               0.001082548               0.999999984               0.000096874               0.001113360               0.999999984               0.000099103               0.001146148               0.999999984               0.000099182               0.001179692               0.999999984               0.000096244               0.001212894               0.999999984               0.000089832               0.001245160               0.999999984               0.000079716               0.001275837               0.999999984               0.000065347               0.001304491               0.999999984               0.000046174               0.001331122               0.999999984               0.000022091               0.001356134               0.999999984              -0.000006720               0.001380038               0.999999984               0.000141060               0.001098359               0.999999984               0.000087086               0.001088918               0.999999984               0.000064971               0.001084475               0.999999984               0.000057171               0.001089699               0.999999984               0.000056000               0.001103831               0.999999984               0.000057651               0.001125370               0.999999984               0.000060272               0.001152602               0.999999984               0.000062825               0.001183685               0.999999984               0.000064619               0.001217192               0.999999984               0.000064841               0.001252073               0.999999984               0.000062549               0.001287556               0.999999984               0.000057486               0.001322700               0.999999984               0.000049433               0.001356921               0.999999984               0.000037472               0.001389846               0.999999984               0.000020541               0.001421038               0.999999984              -0.000002200               0.001450407               0.999999984              -0.000031393               0.001478039               0.999999984               0.000094821               0.001127220               0.999999984               0.000057204               0.001132516               0.999999984               0.000040758               0.001135621               0.999999984               0.000034234               0.001144458               0.999999984               0.000032531               0.001160222               0.999999984               0.000033005               0.001182510               0.999999984               0.000034519               0.001210120               0.999999984               0.000036164               0.001241608               0.999999984               0.000037321               0.001275948               0.999999984               0.000037351               0.001312128               0.999999984               0.000035814               0.001349427               0.999999984               0.000032431               0.001387110               0.999999984               0.000026730               0.001424559               0.999999984               0.000018049               0.001461335               0.999999984               0.000005400               0.001496897               0.999999984              -0.000012474               0.001530850               0.999999984              -0.000036773               0.001562810               0.999999984               0.000047653               0.001144659               0.999999984               0.000028356               0.001159458               0.999999984               0.000019588               0.001168015               0.999999984               0.000015858               0.001179785               0.999999984               0.000014671               0.001197050               0.999999984               0.000014633               0.001220073               0.999999984               0.000015297               0.001248152               0.999999984               0.000016094               0.001280126               0.999999984               0.000016645               0.001315062               0.999999984               0.000016589               0.001352130               0.999999984               0.000015836               0.001390706               0.999999984               0.000014104               0.001430146               0.999999984               0.000011193               0.001469931               0.999999984               0.000006640               0.001509511               0.999999984              -0.000000260               0.001548297               0.999999984              -0.000010197               0.001585690               0.999999984              -0.000023966               0.001621009               0.999999984              -0.000000000               0.001150520               0.999999984               0.000000000               0.001168556               0.999999984              -0.000000000               0.001179030               0.999999984              -0.000000000               0.001191952               0.999999984              -0.000000000               0.001209862               0.999999984              -0.000000000               0.001233197               0.999999984              -0.000000000               0.001261492               0.999999984               0.000000000               0.001293671               0.999999984              -0.000000000               0.001328845               0.999999984              -0.000000000               0.001366198               0.999999984               0.000000000               0.001405207               0.999999984               0.000000000               0.001445266               0.999999984               0.000000000               0.001485893               0.999999984               0.000000000               0.001526523               0.999999984              -0.000000000               0.001566522               0.999999984              -0.000000000               0.001605192               0.999999984               0.000000000               0.001641752               0.999999984 </DataArray>
<DataArray type="Float64"                                    Name="defo"                                                      NumberOfComponents=" 3" format="ascii">
             -0.000505942               0.000000000               0.999999984              -0.000549936              -0.000000000               0.999999984              -0.000569903               0.000000000               0.999999984              -0.000581544               0.000000000               0.999999984              -0.000590744               0.000000000               0.999999984              -0.000599850               0.000000000               0.999999984              -0.000609901               0.000000000               0.999999984              -0.000621049               0.000000000               0.999999984              -0.000633213               0.000000000               0.999999984              -0.000646391               0.000000000               0.999999984              -0.000660329              -0.000000000               0.999999984              -0.000674869              -0.000000000               0.999999984              -0.000689751              -0.000000000               0.999999984              -0.000704714               0.000000000               0.999999984              -0.000719508              -0.000000000               0.999999984              -0.000733676               0.000000000               0.999999984              -0.000746732               0.000000000               0.999999984              -0.000503039               0.000112315               0.999999984              -0.000544047               0.000093213               0.999999984              -0.000562177               0.000085494               0.999999984              -0.000572653               0.000083596               0.999999984              -0.000581164               0.000084788               0.999999984              -0.000589887               0.000087769               0.999999984              -0.000599519               0.000091505               0.999999984              -0.000610253               0.000095657               0.999999984              -0.000622010               0.000099905               0.999999984              -0.000634654               0.000103872               0.999999984              -0.000647929               0.000107286               0.999999984              -0.000661547               0.000109958               0.999999984              -0.000675283               0.000111670               0.999999984              -0.000689015               0.000112199               0.999999984              -0.000702444               0.000111065               0.999999984              -0.000715229               0.000107575               0.999999984              -0.000727028               0.000100819               0.999999984              -0.000494547               0.000223475               0.999999984              -0.000526826               0.000185758               0.999999984              -0.000539742               0.000171343               0.999999984              -0.000547217               0.000168329               0.999999984              -0.000553926               0.000171303               0.999999984              -0.000561458               0.000177528               0.999999984              -0.000570124               0.000185299               0.999999984              -0.000579902               0.000193769               0.999999984              -0.000590507               0.000202173               0.999999984              -0.000601661               0.000209986               0.999999984              -0.000613039               0.000216687               0.999999984              -0.000624460               0.000222073               0.999999984              -0.000635730               0.000225872               0.999999984              -0.000646608               0.000227472               0.999999984              -0.000656879               0.000226142               0.999999984              -0.000666306               0.000220986               0.999999984              -0.000674866               0.000211194               0.999999984              -0.000480569               0.000332399               0.999999984              -0.000499112               0.000277095               0.999999984              -0.000504547               0.000257673               0.999999984              -0.000508024               0.000254936               0.999999984              -0.000512567               0.000260599               0.999999984              -0.000518737               0.000270593               0.999999984              -0.000526266               0.000282595               0.999999984              -0.000534766               0.000295397               0.999999984              -0.000543730               0.000308022               0.999999984              -0.000552868               0.000319581               0.999999984              -0.000561905               0.000329649               0.999999984              -0.000570481               0.000337858               0.999999984              -0.000578309               0.000343869               0.999999984              -0.000585262               0.000347193               0.999999984              -0.000591307               0.000347296               0.999999984              -0.000596568               0.000343449               0.999999984              -0.000601328               0.000335477               0.999999984              -0.000461344               0.000437952               0.999999984              -0.000462365               0.000366929               0.999999984              -0.000459537               0.000344507               0.999999984              -0.000459155               0.000343528               0.999999984              -0.000461966               0.000352763               0.999999984              -0.000467190               0.000366970               0.999999984              -0.000473818               0.000383377               0.999999984              -0.000481112               0.000400369               0.999999984              -0.000488551               0.000416942               0.999999984              -0.000495553               0.000432097               0.999999984              -0.000501822               0.000445382               0.999999984              -0.000507068               0.000456553               0.999999984              -0.000511205               0.000465370               0.999999984              -0.000514209               0.000471474               0.999999984              -0.000516255               0.000474752               0.999999984              -0.000517662               0.000475249               0.999999984              -0.000518828               0.000472989               0.999999984              -0.000437391               0.000538963               0.999999984              -0.000418667               0.000455013               0.999999984              -0.000408228               0.000431624               0.999999984              -0.000405247               0.000433536               0.999999984              -0.000407284               0.000446956               0.999999984              -0.000412198               0.000465595               0.999999984              -0.000418398               0.000486234               0.999999984              -0.000424790               0.000507296               0.999999984              -0.000430602               0.000527588               0.999999984              -0.000435421               0.000546200               0.999999984              -0.000439053               0.000562722               0.999999984              -0.000441208               0.000577055               0.999999984              -0.000441935               0.000588924               0.999999984              -0.000441378               0.000598417               0.999999984              -0.000439815               0.000605962               0.999999984              -0.000437561               0.000611582               0.999999984              -0.000434739               0.000615410               0.999999984              -0.000409121               0.000634414               0.999999984              -0.000370313               0.000541183               0.999999984              -0.000354296               0.000518449               0.999999984              -0.000350534               0.000523870               0.999999984              -0.000352976               0.000541500               0.999999984              -0.000358263               0.000564602               0.999999984              -0.000364296               0.000589477               0.999999984              -0.000369754               0.000614471               0.999999984              -0.000374085               0.000638311               0.999999984              -0.000376841               0.000660299               0.999999984              -0.000377582               0.000679977               0.999999984              -0.000376418               0.000697226               0.999999984              -0.000373507               0.000712075               0.999999984              -0.000369156               0.000725047               0.999999984              -0.000363523               0.000736532               0.999999984              -0.000356691               0.000746438               0.999999984              -0.000348505               0.000754261               0.999999984              -0.000377232               0.000723276               0.999999984              -0.000319874               0.000625113               0.999999984              -0.000300929               0.000604255               0.999999984              -0.000298342               0.000613136               0.999999984              -0.000302220               0.000634780               0.999999984              -0.000308310               0.000662087               0.999999984              -0.000314226               0.000691024               0.999999984              -0.000318861               0.000719843               0.999999984              -0.000321381               0.000747390               0.999999984              -0.000321351               0.000772425               0.999999984              -0.000318773               0.000794580               0.999999984              -0.000313673               0.000814141               0.999999984              -0.000306361               0.000831583               0.999999984              -0.000297130               0.000847541               0.999999984              -0.000286084               0.000862186               0.999999984              -0.000273343               0.000875176               0.999999984              -0.000258968               0.000885833               0.999999984              -0.000342976               0.000804065               0.999999984              -0.000269102               0.000706762               0.999999984              -0.000250924               0.000687963               0.999999984              -0.000250810               0.000699910               0.999999984              -0.000256690               0.000725310               0.999999984              -0.000263714               0.000756488               0.999999984              -0.000269510               0.000789475               0.999999984              -0.000272744               0.000822140               0.999999984              -0.000272841               0.000852613               0.999999984              -0.000269336               0.000879910               0.999999984              -0.000262195               0.000904062               0.999999984              -0.000251801               0.000925684               0.999999984              -0.000238752               0.000945533               0.999999984              -0.000223582               0.000963966               0.999999984              -0.000206660               0.000980934               0.999999984              -0.000188216               0.000996155               0.999999984              -0.000168994               0.001009726               0.999999984              -0.000308098               0.000879867               0.999999984              -0.000227383               0.000795661               0.999999984              -0.000206192               0.000772055               0.999999984              -0.000204701               0.000778125               0.999999984              -0.000209896               0.000798708               0.999999984              -0.000216743               0.000826550               0.999999984              -0.000222875               0.000857946               0.999999984              -0.000226793               0.000890221               0.999999984              -0.000227936               0.000921616               0.999999984              -0.000225691               0.000950853               0.999999984              -0.000219672               0.000977224               0.999999984              -0.000209863               0.001000979               0.999999984              -0.000196770               0.001022665               0.999999984              -0.000181255               0.001042974               0.999999984              -0.000163956               0.001062143               0.999999984              -0.000145424               0.001080238               0.999999984              -0.000126381               0.001097022               0.999999984              -0.000269838               0.000948427               0.999999984              -0.000188492               0.000880975               0.999999984              -0.000164306               0.000857704               0.999999984              -0.000160750               0.000859799               0.999999984              -0.000164661               0.000876428               0.999999984              -0.000170781               0.000901248               0.999999984              -0.000176699               0.000930852               0.999999984              -0.000180967               0.000962591               0.999999984              -0.000182875               0.000994406               0.999999984              -0.000181734               0.001025218               0.999999984              -0.000176934               0.001054005               0.999999984              -0.000168100               0.001080344               0.999999984              -0.000155384               0.001104259               0.999999984              -0.000139449               0.001126319               0.999999984              -0.000121029               0.001147118               0.999999984              -0.000100864               0.001167178               0.999999984              -0.000079681               0.001186594               0.999999984              -0.000228979               0.001008294               0.999999984              -0.000152272               0.000960344               0.999999984              -0.000126485               0.000941115               0.999999984              -0.000120712               0.000941994               0.999999984              -0.000122807               0.000956108               0.999999984              -0.000127707               0.000978719               0.999999984              -0.000132872               0.001006791               0.999999984              -0.000136981               0.001037874               0.999999984              -0.000139281               0.001070191               0.999999984              -0.000138857               0.001102279               0.999999984              -0.000135167               0.001133268               0.999999984              -0.000127596               0.001162571               0.999999984              -0.000115846               0.001189617               0.999999984              -0.000100086               0.001214426               0.999999984              -0.000080694               0.001237445               0.999999984              -0.000058102               0.001259431               0.999999984              -0.000032978               0.001280824               0.999999984              -0.000185922               0.001058510               0.999999984              -0.000118600               0.001030662               0.999999984              -0.000093370               0.001018177               0.999999984              -0.000085961               0.001020344               0.999999984              -0.000086197               0.001033711               0.999999984              -0.000089466               0.001055212               0.999999984              -0.000093432               0.001082548               0.999999984              -0.000096874               0.001113360               0.999999984              -0.000099103               0.001146148               0.999999984              -0.000099182               0.001179692               0.999999984              -0.000096244               0.001212894               0.999999984              -0.000089832               0.001245160               0.999999984              -0.000079716               0.001275837               0.999999984              -0.000065347               0.001304491               0.999999984              -0.000046174               0.001331122               0.999999984              -0.000022091               0.001356134               0.999999984               0.000006720               0.001380038               0.999999984              -0.000141060               0.001098359               0.999999984              -0.000087086               0.001088918               0.999999984              -0.000064971               0.001084475               0.999999984              -0.000057171               0.001089699               0.999999984              -0.000056000               0.001103831               0.999999984              -0.000057651               0.001125370               0.999999984              -0.000060272               0.001152602               0.999999984              -0.000062825               0.001183685               0.999999984              -0.000064619               0.001217192               0.999999984              -0.000064841               0.001252073               0.999999984              -0.000062549               0.001287556               0.999999984              -0.000057486               0.001322700               0.999999984              -0.000049433               0.001356921               0.999999984              -0.000037472               0.001389846               0.999999984              -0.000020541               0.001421038               0.999999984               0.000002200               0.001450407               0.999999984               0.000031393               0.001478039               0.999999984              -0.000094821               0.001127220               0.999999984              -0.000057204               0.001132516               0.999999984              -0.000040758               0.001135621               0.999999984              -0.000034234               0.001144458               0.999999984              -0.000032531               0.001160222               0.999999984              -0.000033005               0.001182510               0.999999984              -0.000034519               0.001210120               0.999999984              -0.000036164               0.001241608               0.999999984              -0.000037321               0.001275948               0.999999984              -0.000037351               0.001312128               0.999999984              -0.000035814               0.001349427               0.999999984              -0.000032431               0.001387110               0.999999984              -0.000026730               0.001424559               0.999999984              -0.000018049               0.001461335               0.999999984              -0.000005400               0.001496897               0.999999984               0.000012474               0.001530850               0.999999984               0.000036773               0.001562810               0.999999984              -0.000047653               0.001144659               0.999999984              -0.000028356               0.001159458               0.999999984              -0.000019588               0.001168015               0.999999984              -0.000015858               0.001179785               0.999999984              -0.000014671               0.001197050               0.999999984              -0.000014633               0.001220073               0.999999984              -0.000015297               0.001248152               0.999999984              -0.000016094               0.001280126               0.999999984              -0.000016645               0.001315062               0.999999984              -0.000016589               0.001352130               0.999999984              -0.000015836               0.001390706               0.999999984              -0.000014104               0.001430146               0.999999984              -0.000011193               0.001469931               0.999999984              -0.000006640               0.001509511               0.999999984               0.000000260               0.001548297               0.999999984               0.000010197               0.001585690               0.999999984               0.000023966               0.001621009               0.999999984              -0.000000000               0.001150520               0.999999984               0.000000000               0.001168556               0.999999984              -0.000000000               0.001179030               0.999999984              -0.000000000               0.001191952               0.999999984              -0.000000000               0.001209862               0.999999984              -0.000000000               0.001233197               0.999999984              -0.000000000               0.001261492               0.999999984               0.000000000               0.001293671               0.999999984              -0.000000000               0.001328845               0.999999984              -0.000000000               0.001366198               0.999999984               0.000000000               0.001405207               0.999999984               0.000000000               0.001445266               0.999999984               0.000000000               0.001485893               0.999999984               0.000000000               0.001526523               0.999999984              -0.000000000               0.001566522               0.999999984              -0.000000000               0.001605192               0.999999984               0.000000000               0.001641752               0.999999984              -0.000505942               0.000000000               0.999999984              -0.000549936              -0.000000000               0.999999984              -0.000569903               0.000000000               0.999999984              -0.000581544               0.000000000               0.999999984              -0.000590744               0.000000000               0.999999984              -0.000599850               0.000000000               0.999999984              -0.000609901               0.000000000               0.999999984              -0.000621049               0.000000000               0.999999984              -0.000633213               0.000000000               0.999999984              -0.000646391               0.000000000               0.999999984              -0.000660329              -0.000000000               0.999999984              -0.000674869              -0.000000000               0.999999984              -0.000689751              -0.000000000               0.999999984              -0.000704714               0.000000000               0.999999984              -0.000719508              -0.000000000               0.999999984              -0.000733676               0.000000000               0.999999984              -0.000746732               0.000000000               0.999999984              -0.000503039              -0.000112315               0.999999984              -0.000544047              -0.000093213               0.999999984              -0.000562177              -0.000085494               0.999999984              -0.000572653              -0.000083596               0.999999984              -0.000581164              -0.000084788               0.999999984              -0.000589887              -0.000087769               0.999999984              -0.000599519              -0.000091505               0.999999984              -0.000610253              -0.000095657               0.999999984              -0.000622010              -0.000099905               0.999999984              -0.000634654              -0.000103872               0.999999984              -0.000647929              -0.000107286               0.999999984              -0.000661547              -0.000109958               0.999999984              -0.000675283              -0.000111670               0.999999984              -0.000689015              -0.000112199               0.999999984              -0.000702444              -0.000111065               0.999999984              -0.000715229              -0.000107575               0.999999984              -0.000727028              -0.000100819               0.999999984              -0.000494547              -0.000223475               0.999999984              -0.000526826              -0.000185758               0.999999984              -0.000539742              -0.000171343               0.999999984              -0.000547217              -0.000168329               0.999999984              -0.000553926              -0.000171303               0.999999984              -0.000561458              -0.000177528               0.999999984              -0.000570124              -0.000185299               0.999999984              -0.000579902              -0.000193769               0.999999984              -0.000590507              -0.000202173               0.999999984              -0.000601661              -0.000209986               0.999999984              -0.000613039              -0.000216687               0.999999984              -0.000624460              -0.000222073               0.999999984              -0.000635730              -0.000225872               0.999999984              -0.000646608              -0.000227472               0.999999984              -0.000656879              -0.000226142               0.999999984              -0.000666306              -0.000220986               0.999999984              -0.000674866              -0.000211194               0.999999984              -0.000480569              -0.000332399               0.999999984              -0.000499112              -0.000277095               0.999999984              -0.000504547              -0.000257673               0.999999984              -0.000508024              -0.000254936               0.999999984              -0.000512567              -0.000260599               0.999999984              -0.000518737              -0.000270593               0.999999984              -0.000526266              -0.000282595               0.999999984              -0.000534766              -0.000295397               0.999999984              -0.000543730              -0.000308022               0.999999984              -0.000552868              -0.000319581               0.999999984              -0.000561905              -0.000329649               0.999999984              -0.000570481              -0.000337858               0.999999984              -0.000578309              -0.000343869               0.999999984              -0.000585262              -0.000347193               0.999999984              -0.000591307              -0.000347296               0.999999984              -0.000596568              -0.000343449               0.999999984              -0.000601328              -0.000335477               0.999999984              -0.000461344              -0.000437952               0.999999984              -0.000462365              -0.000366929               0.999999984              -0.000459537              -0.000344507               0.999999984              -0.000459155              -0.000343528               0.999999984              -0.000461966              -0.000352763               0.999999984              -0.000467190              -0.000366970               0.999999984              -0.000473818              -0.000383377               0.999999984              -0.000481112              -0.000400369               0.999999984              -0.000488551              -0.000416942               0.999999984              -0.000495553              -0.000432097               0.999999984              -0.000501822              -0.000445382               0.999999984              -0.000507068              -0.000456553               0.999999984              -0.000511205              -0.000465370               0.999999984              -0.000514209              -0.000471474               0.999999984              -0.000516255              -0.000474752               0.999999984              -0.000517662              -0.000475249               0.999999984              -0.000518828              -0.000472989               0.999999984              -0.000437391              -0.000538963               0.999999984              -0.000418667              -0.000455013               0.999999984              -0.000408228              -0.000431624               0.999999984              -0.000405247              -0.000433536               0.999999984              -0.000407284              -0.000446956               0.999999984              -0.000412198              -0.000465595               0.999999984              -0.000418398              -0.000486234               0.999999984              -0.000424790              -0.000507296               0.999999984              -0.000430602              -0.000527588               0.999999984              -0.000435421              -0.000546200               0.999999984              -0.000439053              -0.000562722               0.999999984              -0.000441208              -0.000577055               0.999999984              -0.000441935              -0.000588924               0.999999984              -0.000441378              -0.000598417               0.999999984              -0.000439815              -0.000605962               0.999999984              -0.000437561              -0.000611582               0.999999984              -0.000434739              -0.000615410               0.999999984              -0.000409121              -0.000634414               0.999999984              -0.000370313              -0.000541183               0.999999984              -0.000354296              -0.000518449               0.999999984              -0.000350534              -0.000523870               0.999999984              -0.000352976              -0.000541500               0.999999984              -0.000358263              -0.000564602               0.999999984              -0.000364296              -0.000589477               0.999999984              -0.000369754              -0.000614471               0.999999984              -0.000374085              -0.000638311               0.999999984              -0.000376841              -0.000660299               0.999999984              -0.000377582              -0.000679977               0.999999984              -0.000376418              -0.000697226               0.999999984              -0.000373507              -0.000712075               0.999999984              -0.000369156              -0.000725047               0.999999984              -0.000363523              -0.000736532               0.999999984              -0.000356691              -0.000746438               0.999999984              -0.000348505              -0.000754261               0.999999984              -0.000377232              -0.000723276               0.999999984              -0.000319874              -0.000625113               0.999999984              -0.000300929              -0.000604255               0.999999984              -0.000298342              -0.000613136               0.999999984              -0.000302220              -0.000634780               0.999999984              -0.000308310              -0.000662087               0.999999984              -0.000314226              -0.000691024               0.999999984              -0.000318861              -0.000719843               0.999999984              -0.000321381              -0.000747390               0.999999984              -0.000321351              -0.000772425               0.999999984              -0.000318773              -0.000794580               0.999999984              -0.000313673              -0.000814141               0.999999984              -0.000306361              -0.000831583               0.999999984              -0.000297130              -0.000847541               0.999999984              -0.000286084              -0.000862186               0.999999984              -0.000273343              -0.000875176               0.999999984              -0.000258968              -0.000885833               0.999999984              -0.000342976              -0.000804065               0.999999984              -0.000269102              -0.000706762               0.999999984              -0.000250924              -0.000687963               0.999999984              -0.000250810              -0.000699910               0.999999984              -0.000256690              -0.000725310               0.999999984              -0.000263714              -0.000756488               0.999999984              -0.000269510              -0.000789475               0.999999984              -0.000272744              -0.000822140               0.999999984              -0.000272841              -0.000852613               0.999999984              -0.000269336              -0.000879910               0.999999984              -0.000262195              -0.000904062               0.999999984              -0.000251801              -0.000925684               0.999999984              -0.000238752              -0.000945533               0.999999984              -0.000223582              -0.000963966               0.999999984              -0.000206660              -0.000980934               0.999999984              -0.000188216              -0.000996155               0.999999984              -0.000168994              -0.001009726               0.999999984              -0.000308098              -0.000879867               0.999999984              -0.000227383              -0.000795661               0.999999984              -0.000206192              -0.000772055               0.999999984              -0.000204701              -0.000778125               0.999999984              -0.000209896              -0.000798708               0.999999984              -0.000216743              -0.000826550               0.999999984              -0.000222875              -0.000857946               0.999999984              -0.000226793              -0.000890221               0.999999984              -0.000227936              -0.000921616               0.999999984              -0.000225691              -0.000950853               0.999999984              -0.000219672              -0.000977224               0.999999984              -0.000209863              -0.001000979               0.999999984              -0.000196770              -0.001022665               0.999999984              -0.000181255              -0.001042974               0.999999984              -0.000163956              -0.001062143               0.999999984              -0.000145424              -0.001080238               0.999999984              -0.000126381              -0.001097022               0.999999984              -0.000269838              -0.000948427               0.999999984              -0.000188492              -0.000880975               0.999999984              -0.000164306              -0.000857704               0.999999984              -0.000160750              -0.000859799               0.999999984              -0.000164661              -0.000876428               0.999999984              -0.000170781              -0.000901248               0.999999984              -0.000176699              -0.000930852               0.999999984              -0.000180967              -0.000962591               0.999999984              -0.000182875              -0.000994406               0.999999984              -0.000181734              -0.001025218               0.999999984              -0.000176934              -0.001054005               0.999999984              -0.000168100              -0.001080344               0.999999984              -0.000155384              -0.001104259               0.999999984              -0.000139449              -0.001126319               0.999999984              -0.000121029              -0.001147118               0.999999984              -0.000100864              -0.001167178               0.999999984              -0.000079681              -0.001186594               0.999999984              -0.000228979              -0.001008294               0.999999984              -0.000152272              -0.000960344               0.999999984              -0.000126485              -0.000941115               0.999999984              -0.000120712              -0.000941994               0.999999984              -0.000122807              -0.000956108               0.999999984              -0.000127707              -0.000978719               0.999999984              -0.000132872              -0.001006791               0.999999984              -0.000136981              -0.001037874               0.999999984              -0.000139281              -0.001070191               0.999999984              -0.000138857              -0.001102279               0.999999984              -0.000135167              -0.001133268               0.999999984              -0.000127596              -0.001162571               0.999999984              -0.000115846              -0.001189617               0.999999984              -0.000100086              -0.001214426               0.999999984              -0.000080694              -0.001237445               0.999999984              -0.000058102              -0.001259431               0.999999984              -0.000032978              -0.001280824               0.999999984              -0.000185922              -0.001058510               0.999999984              -0.000118600              -0.001030662               0.999999984              -0.000093370              -0.001018177               0.999999984              -0.000085961              -0.001020344               0.999999984              -0.000086197              -0.001033711               0.999999984              -0.000089466              -0.001055212               0.999999984              -0.000093432              -0.001082548               0.999999984              -0.000096874              -0.001113360               0.999999984              -0.000099103              -0.001146148               0.999999984              -0.000099182              -0.001179692               0.999999984              -0.000096244              -0.001212894               0.999999984              -0.000089832              -0.001245160               0.999999984              -0.000079716              -0.001275837               0.999999984              -0.000065347              -0.001304491               0.999999984              -0.000046174              -0.001331122               0.999999984              -0.000022091              -0.001356134               0.999999984               0.000006720              -0.001380038               0.999999984              -0.000141060              -0.001098359               0.999999984              -0.000087086              -0.001088918               0.999999984              -0.000064971              -0.001084475               0.999999984              -0.000057171              -0.001089699               0.999999984              -0.000056000              -0.001103831               0.999999984              -0.000057651              -0.001125370               0.999999984              -0.000060272              -0.001152602               0.999999984              -0.000062825              -0.001183685               0.999999984              -0.000064619              -0.001217192               0.999999984              -0.000064841              -0.001252073               0.999999984              -0.000062549              -0.001287556               0.999999984              -0.000057486              -0.001322700               0.999999984              -0.000049433              -0.001356921               0.999999984              -0.000037472              -0.001389846               0.999999984              -0.000020541              -0.001421038               0.999999984               0.000002200              -0.001450407               0.999999984               0.000031393              -0.001478039               0.999999984              -0.000094821              -0.001127220               0.999999984              -0.000057204              -0.001132516               0.999999984              -0.000040758              -0.001135621               0.999999984              -0.000034234              -0.001144458               0.999999984              -0.000032531              -0.001160222               0.999999984              -0.000033005              -0.001182510               0.999999984              -0.000034519              -0.001210120               0.999999984              -0.000036164              -0.001241608               0.999999984              -0.000037321              -0.001275948               0.999999984              -0.000037351              -0.001312128               0.999999984              -0.000035814              -0.001349427               0.999999984              -0.000032431              -0.001387110               0.999999984              -0.000026730              -0.001424559               0.999999984              -0.000018049              -0.001461335               0.999999984              -0.000005400              -0.001496897               0.999999984               0.000012474              -0.001530850               0.999999984               0.000036773              -0.001562810               0.999999984              -0.000047653              -0.001144659               0.999999984              -0.000028356              -0.001159458               0.999999984              -0.000019588              -0.001168015               0.999999984              -0.000015858              -0.001179785               0.999999984              -0.000014671              -0.001197050               0.999999984              -0.000014633              -0.001220073               0.999999984              -0.000015297              -0.001248152               0.999999984              -0.000016094              -0.001280126               0.999999984              -0.000016645              -0.001315062               0.999999984              -0.000016589              -0.001352130               0.999999984              -0.000015836              -0.001390706               0.999999984              -0.000014104              -0.001430146               0.999999984              -0.000011193              -0.001469931               0.999999984              -0.000006640              -0.001509511               0.999999984               0.000000260              -0.001548297               0.999999984               0.000010197              -0.001585690               0.999999984               0.000023966              -0.001621009               0.999999984              -0.000000000              -0.001150520               0.999999984               0.000000000              -0.001168556               0.999999984              -0.000000000              -0.001179030               0.999999984               0.000000000              -0.001191952               0.999999984               0.000000000              -0.001209862               0.999999984              -0.000000000              -0.001233197               0.999999984              -0.000000000              -0.001261492               0.999999984              -0.000000000              -0.001293671               0.999999984              -0.000000000              -0.001328845               0.999999984               0.000000000              -0.001366198               0.999999984               0.000000000              -0.001405207               0.999999984               0.000000000              -0.001445266               0.999999984               0.000000000              -0.001485893               0.999999984              -0.000000000              -0.001526523               0.999999984               0.000000000              -0.001566522               0.999999984               0.000000000              -0.001605192               0.999999984               0.000000000              -0.001641752               0.999999984               0.000505942               0.000000000               0.999999984               0.000549936               0.000000000               0.999999984               0.000569903               0.000000000               0.999999984               0.000581544               0.000000000               0.999999984               0.000590744               0.000000000               0.999999984               0.000599850               0.000000000               0.999999984               0.000609901               0.000000000               0.999999984               0.000621049               0.000000000               0.999999984               0.000633213               0.000000000               0.999999984               0.000646391               0.000000000               0.999999984               0.000660329              -0.000000000               0.999999984               0.000674869               0.000000000               0.999999984               0.000689751               0.000000000               0.999999984               0.000704714               0.000000000               0.999999984               0.000719508               0.000000000               0.999999984               0.000733676              -0.000000000               0.999999984               0.000746732              -0.000000000               0.999999984               0.000503039              -0.000112315               0.999999984               0.000544047              -0.000093213               0.999999984               0.000562177              -0.000085494               0.999999984               0.000572653              -0.000083596               0.999999984               0.000581164              -0.000084788               0.999999984               0.000589887              -0.000087769               0.999999984               0.000599519              -0.000091505               0.999999984               0.000610253              -0.000095657               0.999999984               0.000622010              -0.000099905               0.999999984               0.000634654              -0.000103872               0.999999984               0.000647929              -0.000107286               0.999999984               0.000661547              -0.000109958               0.999999984               0.000675283              -0.000111670               0.999999984               0.000689015              -0.000112199               0.999999984               0.000702444              -0.000111065               0.999999984               0.000715229              -0.000107575               0.999999984               0.000727028              -0.000100819               0.999999984               0.000494547              -0.000223475               0.999999984               0.000526826              -0.000185758               0.999999984               0.000539742              -0.000171343               0.999999984               0.000547217              -0.000168329               0.999999984               0.000553926              -0.000171303               0.999999984               0.000561458              -0.000177528               0.999999984               0.000570124              -0.000185299               0.999999984               0.000579902              -0.000193769               0.999999984               0.000590507              -0.000202173               0.999999984               0.000601661              -0.000209986               0.999999984               0.000613039              -0.000216687               0.999999984               0.000624460              -0.000222073               0.999999984               0.000635730              -0.000225872               0.999999984               0.000646608              -0.000227472               0.999999984               0.000656879              -0.000226142               0.999999984               0.000666306              -0.000220986               0.999999984               0.000674866              -0.000211194               0.999999984               0.000480569              -0.000332399               0.999999984               0.000499112              -0.000277095               0.999999984               0.000504547              -0.000257673               0.999999984               0.000508024              -0.000254936               0.999999984               0.000512567              -0.000260599               0.999999984               0.000518737              -0.000270593               0.999999984               0.000526266              -0.000282595               0.999999984               0.000534766              -0.000295397               0.999999984               0.000543730              -0.000308022               0.999999984               0.000552868              -0.000319581               0.999999984               0.000561905              -0.000329649               0.999999984               0.000570481              -0.000337858               0.999999984               0.000578309              -0.000343869               0.999999984               0.000585262              -0.000347193               0.999999984               0.000591307              -0.000347296               0.999999984               0.000596568              -0.000343449               0.999999984               0.000601328              -0.000335477               0.999999984               0.000461344              -0.000437952               0.999999984               0.000462365              -0.000366929               0.999999984               0.000459537              -0.000344507               0.999999984               0.000459155              -0.000343528               0.999999984               0.000461966              -0.000352763               0.999999984               0.000467190              -0.000366970               0.999999984               0.000473818              -0.000383377               0.999999984               0.000481112              -0.000400369               0.999999984               0.000488551              -0.000416942               0.999999984               0.000495553              -0.000432097               0.999999984               0.000501822              -0.000445382               0.999999984               0.000507068              -0.000456553               0.999999984               0.000511205              -0.000465370               0.999999984               0.000514209              -0.000471474               0.999999984               0.000516255              -0.000474752               0.999999984               0.000517662              -0.000475249               0.999999984               0.000518828              -0.000472989               0.999999984               0.000437391              -0.000538963               0.999999984               0.000418667              -0.000455013               0.999999984               0.000408228              -0.000431624               0.999999984               0.000405247              -0.000433536               0.999999984               0.000407284              -0.000446956               0.999999984               0.000412198              -0.000465595               0.999999984               0.000418398              -0.000486234               0.999999984               0.000424790              -0.000507296               0.999999984               0.000430602              -0.000527588               0.999999984               0.000435421              -0.000546200               0.999999984               0.000439053              -0.000562722               0.999999984               0.000441208              -0.000577055               0.999999984               0.000441935              -0.000588924               0.999999984               0.000441378              -0.000598417               0.999999984               0.000439815              -0.000605962               0.999999984               0.000437561              -0.000611582               0.999999984               0.000434739              -0.000615410               0.999999984               0.000409121              -0.000634414               0.999999984               0.000370313              -0.000541183               0.999999984               0.000354296              -0.000518449               0.999999984               0.000350534              -0.000523870               0.999999984               0.000352976              -0.000541500               0.999999984               0.000358263              -0.000564602               0.999999984               0.000364296              -0.000589477               0.999999984               0.000369754              -0.000614471               0.999999984               0.000374085              -0.000638311               0.999999984               0.000376841              -0.000660299               0.999999984               0.000377582              -0.000679977               0.999999984               0.000376418              -0.000697226               0.999999984               0.000373507              -0.000712075               0.999999984               0.000369156              -0.000725047               0.999999984               0.000363523              -0.000736532               0.999999984               0.000356691              -0.000746438               0.999999984               0.000348505              -0.000754261               0.999999984               0.000377232              -0.000723276               0.999999984               0.000319874              -0.000625113               0.999999984               0.000300929              -0.000604255               0.999999984               0.000298342              -0.000613136               0.999999984               0.000302220              -0.000634780               0.999999984               0.000308310              -0.000662087               0.999999984               0.000314226              -0.000691024               0.999999984               0.000318861              -0.000719843               0.999999984               0.000321381              -0.000747390               0.999999984               0.000321351              -0.000772425               0.999999984               0.000318773              -0.000794580               0.999999984               0.000313673              -0.000814141               0.999999984               0.000306361              -0.000831583               0.999999984               0.000297130              -0.000847541               0.999999984               0.000286084              -0.000862186               0.999999984               0.000273343              -0.000875176               0.999999984               0.000258968              -0.000885833               0.999999984               0.000342976              -0.000804065               0.999999984               0.000269102              -0.000706762               0.999999984               0.000250924              -0.000687963               0.999999984               0.000250810              -0.000699910               0.999999984               0.000256690              -0.000725310               0.999999984               0.000263714              -0.000756488               0.999999984               0.000269510              -0.000789475               0.999999984               0.000272744              -0.000822140               0.999999984               0.000272841              -0.000852613               0.999999984               0.000269336              -0.000879910               0.999999984               0.000262195              -0.000904062               0.999999984               0.000251801              -0.000925684               0.999999984               0.000238752              -0.000945533               0.999999984               0.000223582              -0.000963966               0.999999984               0.000206660              -0.000980934               0.999999984               0.000188216              -0.000996155               0.999999984               0.000168994              -0.001009726               0.999999984               0.000308098              -0.000879867               0.999999984               0.000227383              -0.000795661               0.999999984               0.000206192              -0.000772055               0.999999984               0.000204701              -0.000778125               0.999999984               0.000209896              -0.000798708               0.999999984               0.000216743              -0.000826550               0.999999984               0.000222875              -0.000857946               0.999999984               0.000226793              -0.000890221               0.999999984               0.000227936              -0.000921616               0.999999984               0.000225691              -0.000950853               0.999999984               0.000219672              -0.000977224               0.999999984               0.000209863              -0.001000979               0.999999984               0.000196770              -0.001022665               0.999999984               0.000181255              -0.001042974               0.999999984               0.000163956              -0.001062143               0.999999984               0.000145424              -0.001080238               0.999999984               0.000126381              -0.001097022               0.999999984               0.000269838              -0.000948427               0.999999984               0.000188492              -0.000880975               0.999999984               0.000164306              -0.000857704               0.999999984               0.000160750              -0.000859799               0.999999984               0.000164661              -0.000876428               0.999999984               0.000170781              -0.000901248               0.999999984               0.000176699              -0.000930852               0.999999984               0.000180967              -0.000962591               0.999999984               0.000182875              -0.000994406               0.999999984               0.000181734              -0.001025218               0.999999984               0.000176934              -0.001054005               0.999999984               0.000168100              -0.001080344               0.999999984               0.000155384              -0.001104259               0.999999984               0.000139449              -0.001126319               0.999999984               0.000121029              -0.001147118               0.999999984               0.000100864              -0.001167178               0.999999984               0.000079681              -0.001186594               0.999999984               0.000228979              -0.001008294               0.999999984               0.000152272              -0.000960344               0.999999984               0.000126485              -0.000941115               0.999999984               0.000120712              -0.000941994               0.999999984               0.000122807              -0.000956108               0.999999984               0.000127707              -0.000978719               0.999999984               0.000132872              -0.001006791               0.999999984               0.000136981              -0.001037874               0.999999984               0.000139281              -0.001070191               0.999999984               0.000138857              -0.001102279               0.999999984               0.000135167              -0.001133268               0.999999984               0.000127596              -0.001162571               0.999999984               0.000115846              -0.001189617               0.999999984               0.000100086              -0.001214426               0.999999984               0.000080694              -0.001237445               0.999999984               0.000058102              -0.001259431               0.999999984               0.000032978              -0.001280824               0.999999984               0.000185922              -0.001058510               0.999999984               0.000118600              -0.001030662               0.999999984               0.000093370              -0.001018177               0.999999984               0.000085961              -0.001020344               0.999999984               0.000086197              -0.001033711               0.999999984               0.000089466              -0.001055212               0.999999984               0.000093432              -0.001082548               0.999999984               0.000096874              -0.001113360               0.999999984               0.000099103              -0.001146148               0.999999984               0.000099182              -0.001179692               0.999999984               0.000096244              -0.001212894               0.999999984               0.000089832              -0.001245160               0.999999984               0.000079716              -0.001275837               0.999999984               0.000065347              -0.001304491               0.999999984               0.000046174              -0.001331122               0.999999984               0.000022091              -0.001356134               0.999999984              -0.000006720              -0.001380038               0.999999984               0.000141060              -0.001098359               0.999999984               0.000087086              -0.001088918               0.999999984               0.000064971              -0.001084475               0.999999984               0.000057171              -0.001089699               0.999999984               0.000056000              -0.001103831               0.999999984               0.000057651              -0.001125370               0.999999984               0.000060272              -0.001152602               0.999999984               0.000062825              -0.001183685               0.999999984               0.000064619              -0.001217192               0.999999984               0.000064841              -0.001252073               0.999999984               0.000062549              -0.001287556               0.999999984               0.000057486              -0.001322700               0.999999984               0.000049433              -0.001356921               0.999999984               0.000037472              -0.001389846               0.999999984               0.000020541              -0.001421038               0.999999984              -0.000002200              -0.001450407               0.999999984              -0.000031393              -0.001478039               0.999999984               0.000094821              -0.001127220               0.999999984               0.000057204              -0.001132516               0.999999984               0.000040758              -0.001135621               0.999999984               0.000034234              -0.001144458               0.999999984               0.000032531              -0.001160222               0.999999984               0.000033005              -0.001182510               0.999999984               0.000034519              -0.001210120               0.999999984               0.000036164              -0.001241608               0.999999984               0.000037321              -0.001275948               0.999999984               0.000037351              -0.001312128               0.999999984               0.000035814              -0.001349427               0.999999984               0.000032431              -0.001387110               0.999999984               0.000026730              -0.001424559               0.999999984               0.000018049              -0.001461335               0.999999984               0.000005400              -0.001496897               0.999999984              -0.000012474              -0.001530850               0.999999984              -0.000036773              -0.001562810               0.999999984               0.000047653              -0.001144659               0.999999984               0.000028356              -0.001159458               0.999999984               0.000019588              -0.001168015               0.999999984               0.000015858              -0.001179785               0.999999984               0.000014671              -0.001197050               0.999999984               0.000014633              -0.001220073               0.999999984               0.000015297              -0.001248152               0.999999984               0.000016094              -0.001280126               0.999999984               0.000016645              -0.001315062               0.999999984               0.000016589              -0.001352130               0.999999984               0.000015836              -0.001390706               0.999999984               0.000014104              -0.001430146               0.999999984               0.000011193              -0.001469931               0.999999984               0.000006640              -0.001509511               0.999999984              -0.000000260              -0.001548297               0.999999984              -0.000010197              -0.001585690               0.999999984              -0.000023966              -0.001621009               0.999999984              -0.000000000              -0.001150520               0.999999984               0.000000000              -0.001168556               0.999999984              -0.000000000              -0.001179030               0.999999984               0.000000000              -0.001191952               0.999999984               0.000000000              -0.001209862               0.999999984              -0.000000000              -0.001233197               0.999999984              -0.000000000              -0.001261492               0.999999984              -0.000000000              -0.001293671               0.999999984              -0.000000000              -0.001328845               0.999999984               0.000000000              -0.001366198               0.999999984               0.000000000              -0.001405207               0.999999984               0.000000000              -0.001445266               0.999999984               0.000000000              -0.001485893               0.999999984              -0.000000000              -0.001526523               0.999999984               0.000000000              -0.001566522               0.999999984               0.000000000              -0.001605192               0.999999984               0.000000000              -0.001641752               0.999999984               0.000505942               0.000000000               0.999999984               0.000549936               0.000000000               0.999999984               0.000569903               0.000000000               0.999999984               0.000581544               0.000000000               0.999999984               0.000590744               0.000000000               0.999999984               0.000599850               0.000000000               0.999999984               0.000609901               0.000000000               0.999999984               0.000621049               0.000000000               0.999999984               0.000633213               0.000000000               0.999999984               0.000646391               0.000000000               0.999999984               0.000660329              -0.000000000               0.999999984               0.000674869               0.000000000               0.999999984               0.000689751               0.000000000               0.999999984               0.000704714               0.000000000               0.999999984               0.000719508               0.000000000               0.999999984               0.000733676              -0.000000000               0.999999984               0.000746732              -0.000000000               0.999999984               0.000503039               0.000112315               0.999999984               0.000544047               0.000093213               0.999999984               0.000562177               0.000085494               0.999999984               0.000572653               0.000083596               0.999999984               0.000581164               0.000084788               0.999999984               0.000589887               0.000087769               0.999999984               0.000599519               0.000091505               0.999999984               0.000610253               0.000095657               0.999999984               0.000622010               0.000099905               0.999999984               0.000634654               0.000103872               0.999999984               0.000647929               0.000107286               0.999999984               0.000661547               0.000109958               0.999999984               0.000675283               0.000111670               0.999999984               0.000689015               0.000112199               0.999999984               0.000702444               0.000111065               0.999999984               0.000715229               0.000107575               0.999999984               0.000727028               0.000100819               0.999999984               0.000494547               0.000223475               0.999999984               0.000526826               0.000185758               0.999999984               0.000539742               0.000171343               0.999999984               0.000547217               0.000168329               0.999999984               0.000553926               0.000171303               0.999999984               0.000561458               0.000177528               0.999999984               0.000570124               0.000185299               0.999999984               0.000579902               0.000193769               0.999999984               0.000590507               0.000202173               0.999999984               0.000601661               0.000209986               0.999999984               0.000613039               0.000216687               0.999999984               0.000624460               0.000222073               0.999999984               0.000635730               0.000225872               0.999999984               0.000646608               0.000227472               0.999999984               0.000656879               0.000226142               0.999999984               0.000666306               0.000220986               0.999999984               0.000674866               0.000211194               0.999999984               0.000480569               0.000332399               0.999999984               0.000499112               0.000277095               0.999999984               0.000504547               0.000257673               0.999999984               0.000508024               0.000254936               0.999999984               0.000512567               0.000260599               0.999999984               0.000518737               0.000270593               0.999999984               0.000526266               0.000282595               0.999999984               0.000534766               0.000295397               0.999999984               0.000543730               0.000308022               0.999999984               0.000552868               0.000319581               0.999999984               0.000561905               0.000329649               0.999999984               0.000570481               0.000337858               0.999999984               0.000578309               0.000343869               0.999999984               0.000585262               0.000347193               0.999999984               0.000591307               0.000347296               0.999999984               0.000596568               0.000343449               0.999999984               0.000601328               0.000335477               0.999999984               0.000461344               0.000437952               0.999999984               0.000462365               0.000366929               0.999999984               0.000459537               0.000344507               0.999999984               0.000459155               0.000343528               0.999999984               0.000461966               0.000352763               0.999999984               0.000467190               0.000366970               0.999999984               0.000473818               0.000383377               0.999999984               0.000481112               0.000400369               0.999999984               0.000488551               0.000416942               0.999999984               0.000495553               0.000432097               0.999999984               0.000501822               0.000445382               0.999999984               0.000507068               0.000456553               0.999999984               0.000511205               0.000465370               0.999999984               0.000514209               0.000471474               0.999999984               0.000516255               0.000474752               0.999999984               0.000517662               0.000475249               0.999999984               0.000518828               0.000472989               0.999999984               0.000437391               0.000538963               0.999999984               0.000418667               0.000455013               0.999999984               0.000408228               0.000431624               0.999999984               0.000405247               0.000433536               0.999999984               0.000407284               0.000446956               0.999999984               0.000412198               0.000465595               0.999999984               0.000418398               0.000486234               0.999999984               0.000424790               0.000507296               0.999999984               0.000430602               0.000527588               0.999999984               0.000435421               0.000546200               0.999999984               0.000439053               0.000562722               0.999999984               0.000441208               0.000577055               0.999999984               0.000441935               0.000588924               0.999999984               0.000441378               0.000598417               0.999999984               0.000439815               0.000605962               0.999999984               0.000437561               0.000611582               0.999999984               0.000434739               0.000615410               0.999999984               0.000409121               0.000634414               0.999999984               0.000370313               0.000541183               0.999999984               0.000354296               0.000518449               0.999999984               0.000350534               0.000523870               0.999999984               0.000352976               0.000541500               0.999999984               0.000358263               0.000564602               0.999999984               0.000364296               0.000589477               0.999999984               0.000369754               0.000614471               0.999999984               0.000374085               0.000638311               0.999999984               0.000376841               0.000660299               0.999999984               0.000377582               0.000679977               0.999999984               0.000376418               0.000697226               0.999999984               0.000373507               0.000712075               0.999999984               0.000369156               0.000725047               0.999999984               0.000363523               0.000736532               0.999999984               0.000356691               0.000746438               0.999999984               0.000348505               0.000754261               0.999999984               0.000377232               0.000723276               0.999999984               0.000319874               0.000625113               0.999999984               0.000300929               0.000604255               0.999999984               0.000298342               0.000613136               0.999999984               0.000302220               0.000634780               0.999999984               0.000308310               0.000662087               0.999999984               0.000314226               0.000691024               0.999999984               0.000318861               0.000719843               0.999999984               0.000321381               0.000747390               0.999999984               0.000321351               0.000772425               0.999999984               0.000318773               0.000794580               0.999999984               0.000313673               0.000814141               0.999999984               0.000306361               0.000831583               0.999999984               0.000297130               0.000847541               0.999999984               0.000286084               0.000862186               0.999999984               0.000273343               0.000875176               0.999999984               0.000258968               0.000885833               0.999999984               0.000342976               0.000804065               0.999999984               0.000269102               0.000706762               0.999999984               0.000250924               0.000687963               0.999999984               0.000250810               0.000699910               0.999999984               0.000256690               0.000725310               0.999999984               0.000263714               0.000756488               0.999999984               0.000269510               0.000789475               0.999999984               0.000272744               0.000822140               0.999999984               0.000272841               0.000852613               0.999999984               0.000269336               0.000879910               0.999999984               0.000262195               0.000904062               0.999999984               0.000251801               0.000925684               0.999999984               0.000238752               0.000945533               0.999999984               0.000223582               0.000963966               0.999999984               0.000206660               0.000980934               0.999999984               0.000188216               0.000996155               0.999999984               0.000168994               0.001009726               0.999999984               0.000308098               0.000879867               0.999999984               0.000227383               0.000795661               0.999999984               0.000206192               0.000772055               0.999999984               0.000204701               0.000778125               0.999999984               0.000209896               0.000798708               0.999999984               0.000216743               0.000826550               0.999999984               0.000222875               0.000857946               0.999999984               0.000226793               0.000890221               0.999999984               0.000227936               0.000921616               0.999999984               0.000225691               0.000950853               0.999999984               0.000219672               0.000977224               0.999999984               0.000209863               0.001000979               0.999999984               0.000196770               0.001022665               0.999999984               0.000181255               0.001042974               0.999999984               0.000163956               0.001062143               0.999999984               0.000145424               0.001080238               0.999999984               0.000126381               0.001097022               0.999999984               0.000269838               0.000948427               0.999999984               0.000188492               0.000880975               0.999999984               0.000164306               0.000857704               0.999999984               0.000160750               0.000859799               0.999999984               0.000164661               0.000876428               0.999999984               0.000170781               0.000901248               0.999999984               0.000176699               0.000930852               0.999999984               0.000180967               0.000962591               0.999999984               0.000182875               0.000994406               0.999999984               0.000181734               0.001025218               0.999999984               0.000176934               0.001054005               0.999999984               0.000168100               0.001080344               0.999999984               0.000155384               0.001104259               0.999999984               0.000139449               0.001126319               0.999999984               0.000121029               0.001147118               0.999999984               0.000100864               0.001167178               0.999999984               0.000079681               0.001186594               0.999999984               0.000228979               0.001008294               0.999999984               0.000152272               0.000960344               0.999999984               0.000126485               0.000941115               0.999999984               0.000120712               0.000941994               0.999999984               0.000122807               0.000956108               0.999999984               0.000127707               0.000978719               0.999999984               0.000132872               0.001006791               0.999999984               0.000136981               0.001037874               0.999999984               0.000139281               0.001070191               0.999999984               0.000138857               0.001102279               0.999999984               0.000135167               0.001133268               0.999999984               0.000127596               0.001162571               0.999999984               0.000115846               0.001189617               0.999999984               0.000100086               0.001214426               0.999999984               0.000080694               0.001237445               0.999999984               0.000058102               0.001259431               0.999999984               0.000032978               0.001280824               0.999999984               0.000185922               0.001058510               0.999999984               0.000118600               0.001030662               0.999999984               0.000093370               0.001018177               0.999999984               0.000085961               0.001020344               0.999999984               0.000086197               0.001033711               0.999999984               0.000089466               0.001055212               0.999999984               0.000093432               0.001082548               0.999999984               0.000096874               0.001113360               0.999999984               0.000099103               0.001146148               0.999999984               0.000099182               0.001179692               0.999999984               0.000096244               0.001212894               0.999999984               0.000089832               0.001245160               0.999999984               0.000079716               0.001275837               0.999999984               0.000065347               0.001304491               0.999999984               0.000046174               0.001331122               0.999999984               0.000022091               0.001356134               0.999999984              -0.000006720               0.001380038               0.999999984               0.000141060               0.001098359               0.999999984               0.000087086               0.001088918               0.999999984               0.000064971               0.001084475               0.999999984               0.000057171               0.001089699               0.999999984               0.000056000               0.001103831               0.999999984               0.000057651               0.001125370               0.999999984               0.000060272               0.001152602               0.999999984               0.000062825               0.001183685               0.999999984               0.000064619               0.001217192               0.999999984               0.000064841               0.001252073               0.999999984               0.000062549               0.001287556               0.999999984               0.000057486               0.001322700               0.999999984               0.000049433               0.001356921               0.999999984               0.000037472               0.001389846               0.999999984               0.000020541               0.001421038               0.999999984              -0.000002200               0.001450407               0.999999984              -0.000031393               0.001478039               0.999999984               0.000094821               0.001127220               0.999999984               0.000057204               0.001132516               0.999999984               0.000040758               0.001135621               0.999999984               0.000034234               0.001144458               0.999999984               0.000032531               0.001160222               0.999999984               0.000033005               0.001182510               0.999999984               0.000034519               0.001210120               0.999999984               0.000036164               0.001241608               0.999999984               0.000037321               0.001275948               0.999999984               0.000037351               0.001312128               0.999999984               0.000035814               0.001349427               0.999999984               0.000032431               0.001387110               0.999999984               0.000026730               0.001424559               0.999999984               0.000018049               0.001461335               0.999999984               0.000005400               0.001496897               0.999999984              -0.000012474               0.001530850               0.999999984              -0.000036773               0.001562810               0.999999984               0.000047653               0.001144659               0.999999984               0.000028356               0.001159458               0.999999984               0.000019588               0.001168015               0.999999984               0.000015858               0.001179785               0.999999984               0.000014671               0.001197050               0.999999984               0.000014633               0.001220073               0.999999984               0.000015297               0.001248152               0.999999984               0.000016094               0.001280126               0.999999984               0.000016645               0.001315062               0.999999984               0.000016589               0.001352130               0.999999984               0.000015836               0.001390706               0.999999984               0.000014104               0.001430146               0.999999984               0.000011193               0.001469931               0.999999984               0.000006640               0.001509511               0.999999984              -0.000000260               0.001548297               0.999999984              -0.000010197               0.001585690               0.999999984              -0.000023966               0.001621009               0.999999984              -0.000000000               0.001150520               0.999999984               0.000000000               0.001168556               0.999999984              -0.000000000               0.001179030               0.999999984              -0.000000000               0.001191952               0.999999984              -0.000000000               0.001209862               0.999999984              -0.000000000               0.001233197               0.999999984              -0.000000000               0.001261492               0.999999984               0.000000000               0.001293671               0.999999984              -0.000000000               0.001328845               0.999999984              -0.000000000               0.001366198               0.999999984               0.000000000               0.001405207               0.999999984               0.000000000               0.001445266               0.999999984               0.000000000               0.001485893               0.999999984               0.000000000               0.001526523               0.999999984              -0.000000000               0.001566522               0.999999984              -0.000000000               0.001605192               0.999999984               0.000000000               0.001641752               0.999999984 </DataArray>
<DataArray type="Float64"                                    Name="stress"                                                      NumberOfComponents="10" format="ascii">
              0.001857857               0.020631155               0.000000000              -0.001882193               0.007504381               0.005622187               0.000000000               0.000000000               0.000000000               0.000000000               0.001862835               0.016301467               0.000000000              -0.001339117               0.005880140               0.004541023               0.000000000               0.000000000               0.000000000               0.000000000               0.002468227               0.012798558               0.000000000              -0.000674233               0.004490888               0.003816655               0.000000000               0.000000000               0.000000000               0.000000000               0.002399367               0.010842288              -0.000000000              -0.000455522               0.003765901               0.003310378               0.000000000               0.000000000               0.000000000               0.000000000               0.002124721               0.009634407               0.000000000              -0.000407529               0.003347280               0.002939751               0.000000000               0.000000000               0.000000000               0.000000000               0.001800317               0.008822366               0.000000000              -0.000427676               0.003083318               0.002655642               0.000000000               0.000000000               0.000000000               0.000000000               0.001485196               0.008224090               0.000000000              -0.000471062               0.002898356               0.002427295               0.000000000               0.000000000               0.000000000               0.000000000               0.001209481               0.007758841              -0.000000000              -0.000516298               0.002758354               0.002242056               0.000000000               0.000000000               0.000000000               0.000000000               0.000966610               0.007371548              -0.000000000              -0.000558963               0.002643479               0.002084516               0.000000000               0.000000000               0.000000000               0.000000000               0.000753979               0.007023370              -0.000000000              -0.000595178               0.002539493               0.001944315               0.000000000               0.000000000               0.000000000               0.000000000               0.000572684               0.006691926              -0.000000000              -0.000621733               0.002437864               0.001816131               0.000000000               0.000000000               0.000000000               0.000000000               0.000417525               0.006362431              -0.000000000              -0.000638730               0.002333699               0.001694969               0.000000000               0.000000000               0.000000000               0.000000000               0.000285761               0.006023905               0.000000000              -0.000645826               0.002223224               0.001577398               0.000000000               0.000000000               0.000000000               0.000000000               0.000175005               0.005665226              -0.000000000              -0.000642525               0.002102565               0.001460040               0.000000000               0.000000000               0.000000000               0.000000000               0.000092037               0.005270706              -0.000000000              -0.000624323               0.001964992               0.001340669               0.000000000               0.000000000               0.000000000               0.000000000               0.000039198               0.004817114               0.000000000              -0.000587439               0.001801502               0.001214063               0.000000000               0.000000000               0.000000000               0.000000000              -0.000017362               0.004465564              -0.000000000              -0.000564705               0.001676742               0.001112037               0.000000000               0.000000000               0.000000000               0.000000000               0.001932476               0.020218719              -0.001422785              -0.001802657               0.007340391               0.005537734               0.000000000               0.000000000               0.000000000               0.000000000               0.001836827               0.016032868              -0.000741803              -0.001315295               0.005782668               0.004467372               0.000000000               0.000000000               0.000000000               0.000000000               0.002337433               0.012686517              -0.000062910              -0.000709276               0.004465222               0.003755946               0.000000000               0.000000000               0.000000000               0.000000000               0.002227034               0.010809807               0.000225263              -0.000516087               0.003775262               0.003259175               0.000000000               0.000000000               0.000000000               0.000000000               0.001938624               0.009640782               0.000345738              -0.000478113               0.003372933               0.002894820               0.000000000               0.000000000               0.000000000               0.000000000               0.001621223               0.008846521               0.000387420              -0.000497856               0.003114763               0.002616907               0.000000000               0.000000000               0.000000000               0.000000000               0.001324454               0.008261130               0.000394732              -0.000535970               0.002932339               0.002396369               0.000000000               0.000000000               0.000000000               0.000000000               0.001064396               0.007800234               0.000388640              -0.000575879               0.002792012               0.002216132               0.000000000               0.000000000               0.000000000               0.000000000               0.000838667               0.007409937               0.000373510              -0.000611741               0.002673868               0.002062127               0.000000000               0.000000000               0.000000000               0.000000000               0.000645449               0.007058230               0.000353338              -0.000640234               0.002566131               0.001925897               0.000000000               0.000000000               0.000000000               0.000000000               0.000484803               0.006725450               0.000332013              -0.000658878               0.002461420               0.001802542               0.000000000               0.000000000               0.000000000               0.000000000               0.000351714               0.006400969               0.000309960              -0.000668227               0.002356377               0.001688150               0.000000000               0.000000000               0.000000000               0.000000000               0.000238340               0.006073952               0.000283837              -0.000669865               0.002247919               0.001578054               0.000000000               0.000000000               0.000000000               0.000000000               0.000143694               0.005731328               0.000247537              -0.000662529               0.002131267               0.001468737               0.000000000               0.000000000               0.000000000               0.000000000               0.000074923               0.005361721               0.000192655              -0.000642117               0.002001262               0.001359144               0.000000000               0.000000000               0.000000000               0.000000000               0.000030242               0.004951191               0.000110790              -0.000607557               0.001852899               0.001245343               0.000000000               0.000000000               0.000000000               0.000000000              -0.000017946               0.004645512               0.000067880              -0.000587417               0.001744294               0.001156877               0.000000000               0.000000000               0.000000000               0.000000000               0.002121802               0.019040967              -0.002656023              -0.001584442               0.006875072               0.005290630               0.000000000               0.000000000               0.000000000               0.000000000               0.001748926               0.015268535              -0.001385273              -0.001252717               0.005507033               0.004254316               0.000000000               0.000000000               0.000000000               0.000000000               0.001955391               0.012359532              -0.000131770              -0.000811668               0.004390359               0.003578691               0.000000000               0.000000000               0.000000000               0.000000000               0.001738751               0.010705003               0.000381367              -0.000686092               0.003796996               0.003110904               0.000000000               0.000000000               0.000000000               0.000000000               0.001432210               0.009646483               0.000589014              -0.000668730               0.003438372               0.002769642               0.000000000               0.000000000               0.000000000               0.000000000               0.001138280               0.008902345               0.000660609              -0.000685936               0.003196064               0.002510128               0.000000000               0.000000000               0.000000000               0.000000000               0.000884830               0.008340846               0.000671932              -0.000710793               0.003017185               0.002306392               0.000000000               0.000000000               0.000000000               0.000000000               0.000674788               0.007888459               0.000657293              -0.000733010               0.002873797               0.002140787               0.000000000               0.000000000               0.000000000               0.000000000               0.000503474               0.007499008               0.000628102              -0.000748571               0.002749168               0.002000597               0.000000000               0.000000000               0.000000000               0.000000000               0.000364580               0.007145066               0.000590490              -0.000756414               0.002633803               0.001877389               0.000000000               0.000000000               0.000000000               0.000000000               0.000254715               0.006814873               0.000549736              -0.000756339               0.002523715               0.001767376               0.000000000               0.000000000               0.000000000               0.000000000               0.000166993               0.006499370               0.000508410              -0.000749797               0.002416367               0.001666570               0.000000000               0.000000000               0.000000000               0.000000000               0.000098936               0.006192321               0.000458921              -0.000736938               0.002309732               0.001572795               0.000000000               0.000000000               0.000000000               0.000000000               0.000049401               0.005888114               0.000391436              -0.000717487               0.002201847               0.001484360               0.000000000               0.000000000               0.000000000               0.000000000               0.000020589               0.005586523               0.000295686              -0.000690593               0.002092353               0.001401760               0.000000000               0.000000000               0.000000000               0.000000000               0.000006131               0.005288753               0.000165381              -0.000658794               0.001982498               0.001323704               0.000000000               0.000000000               0.000000000               0.000000000              -0.000016949               0.005092070               0.000097893              -0.000642863               0.001911627               0.001268764               0.000000000               0.000000000               0.000000000               0.000000000               0.002325869               0.017247150              -0.003547417              -0.001283692               0.006176889               0.004893197               0.000000000               0.000000000               0.000000000               0.000000000               0.001567223               0.014120037              -0.001859540              -0.001177294               0.005099063               0.003921769               0.000000000               0.000000000               0.000000000               0.000000000               0.001365007               0.011859145              -0.000216246              -0.000970513               0.004276513               0.003306000               0.000000000               0.000000000               0.000000000               0.000000000               0.001023873               0.010518279               0.000422941              -0.000930830               0.003816335               0.002885505               0.000000000               0.000000000               0.000000000               0.000000000               0.000716913               0.009612054               0.000667834              -0.000932662               0.003514873               0.002582211               0.000000000               0.000000000               0.000000000               0.000000000               0.000477278               0.008940000               0.000747394              -0.000938519               0.003292810               0.002354291               0.000000000               0.000000000               0.000000000               0.000000000               0.000298261               0.008408340               0.000757836              -0.000939193               0.003115816               0.002176624               0.000000000               0.000000000               0.000000000               0.000000000               0.000167611               0.007963319               0.000739044              -0.000932559               0.002965266               0.002032707               0.000000000               0.000000000               0.000000000               0.000000000               0.000075433               0.007575520               0.000699961              -0.000918651               0.002831365               0.001912714               0.000000000               0.000000000               0.000000000               0.000000000               0.000006669               0.007221973               0.000651022              -0.000900244               0.002707381               0.001807138               0.000000000               0.000000000               0.000000000               0.000000000              -0.000036361               0.006899024               0.000599893              -0.000876011               0.002591656               0.001715644               0.000000000               0.000000000               0.000000000               0.000000000              -0.000054289               0.006602799               0.000546759              -0.000845706               0.002482813               0.001637107               0.000000000               0.000000000               0.000000000               0.000000000              -0.000055014               0.006329265               0.000484378              -0.000811787               0.002380329               0.001568543               0.000000000               0.000000000               0.000000000               0.000000000              -0.000045247               0.006080662               0.000404077              -0.000777048               0.002285883               0.001508835               0.000000000               0.000000000               0.000000000               0.000000000              -0.000029845               0.005866996               0.000296390              -0.000744565               0.002203834               0.001459269               0.000000000               0.000000000               0.000000000               0.000000000              -0.000015778               0.005701165               0.000159914              -0.000718561               0.002139890               0.001421329               0.000000000               0.000000000               0.000000000               0.000000000              -0.000014639               0.005617262               0.000088274              -0.000707646               0.002108284               0.001400638               0.000000000               0.000000000               0.000000000               0.000000000               0.002427193               0.015038529              -0.004027289              -0.000969620               0.005335999               0.004366379               0.000000000               0.000000000               0.000000000               0.000000000               0.001268541               0.012731699              -0.002147618              -0.001115758               0.004615776               0.003500018               0.000000000               0.000000000               0.000000000               0.000000000               0.000640528               0.011244107              -0.000339424              -0.001165313               0.004136436               0.002971123               0.000000000               0.000000000               0.000000000               0.000000000               0.000212823               0.010245945               0.000323660              -0.001200932               0.003815591               0.002614660               0.000000000               0.000000000               0.000000000               0.000000000              -0.000057043               0.009500510               0.000564875              -0.001208952               0.003569789               0.002360837               0.000000000               0.000000000               0.000000000               0.000000000              -0.000210536               0.008904636               0.000640704              -0.001192028               0.003365525               0.002173497               0.000000000               0.000000000               0.000000000               0.000000000              -0.000288793               0.008405507               0.000649848              -0.001158983               0.003188135               0.002029152               0.000000000               0.000000000               0.000000000               0.000000000              -0.000324145               0.007972557               0.000631289              -0.001118121               0.003030200               0.001912078               0.000000000               0.000000000               0.000000000               0.000000000              -0.000327610               0.007588610               0.000594108              -0.001071427               0.002886654               0.001815227               0.000000000               0.000000000               0.000000000               0.000000000              -0.000309156               0.007244823               0.000545853              -0.001021534               0.002755428               0.001733894               0.000000000               0.000000000               0.000000000               0.000000000              -0.000271999               0.006938492               0.000495870              -0.000969309               0.002635911               0.001666602               0.000000000               0.000000000               0.000000000               0.000000000              -0.000219585               0.006669100               0.000442585              -0.000915980               0.002528338               0.001612358               0.000000000               0.000000000               0.000000000               0.000000000              -0.000161481               0.006433107               0.000379197              -0.000864692               0.002432578               0.001567886               0.000000000               0.000000000               0.000000000               0.000000000              -0.000103740               0.006237773               0.000303239              -0.000818622               0.002352111               0.001533489               0.000000000               0.000000000               0.000000000               0.000000000              -0.000055079               0.006094562               0.000213272              -0.000782473               0.002292325               0.001509852               0.000000000               0.000000000               0.000000000               0.000000000              -0.000021846               0.006009167               0.000108907              -0.000759336               0.002256148               0.001496811               0.000000000               0.000000000               0.000000000               0.000000000              -0.000009869               0.005980179               0.000054432              -0.000751222               0.002243780               0.001492559               0.000000000               0.000000000               0.000000000               0.000000000               0.002324782               0.012643058              -0.004098097              -0.000708591               0.004450507               0.003741915               0.000000000               0.000000000               0.000000000               0.000000000               0.000851142               0.011247988              -0.002268700              -0.001086819               0.004111564               0.003024745               0.000000000               0.000000000               0.000000000               0.000000000              -0.000127657               0.010560884              -0.000521106              -0.001367978               0.003976252               0.002608274               0.000000000               0.000000000               0.000000000               0.000000000              -0.000563634               0.009886100               0.000090215              -0.001447122               0.003777708               0.002330586               0.000000000               0.000000000               0.000000000               0.000000000              -0.000745209               0.009285810               0.000311246              -0.001440176               0.003575298               0.002135121               0.000000000               0.000000000               0.000000000               0.000000000              -0.000790488               0.008764139               0.000383818              -0.001391947               0.003385333               0.001993386               0.000000000               0.000000000               0.000000000               0.000000000              -0.000760980               0.008304992               0.000400513              -0.001323488               0.003209466               0.001885977               0.000000000               0.000000000               0.000000000               0.000000000              -0.000693547               0.007898393               0.000394075              -0.001247376               0.003048563               0.001801187               0.000000000               0.000000000               0.000000000               0.000000000              -0.000607286               0.007532098               0.000369607              -0.001169242               0.002900421               0.001731180               0.000000000               0.000000000               0.000000000               0.000000000              -0.000511017               0.007206770               0.000332967              -0.001092475               0.002766391               0.001673916               0.000000000               0.000000000               0.000000000               0.000000000              -0.000408811               0.006919724               0.000294989              -0.001018267               0.002645974               0.001627707               0.000000000               0.000000000               0.000000000               0.000000000              -0.000306399               0.006667163               0.000253359              -0.000948292               0.002538463               0.001590170               0.000000000               0.000000000               0.000000000               0.000000000              -0.000214726               0.006449362               0.000206455              -0.000886690               0.002445329               0.001558639               0.000000000               0.000000000               0.000000000               0.000000000              -0.000134626               0.006278340               0.000159185              -0.000835275               0.002371184               0.001535909               0.000000000               0.000000000               0.000000000               0.000000000              -0.000072840               0.006154286               0.000108860              -0.000796599               0.002316941               0.001520342               0.000000000               0.000000000               0.000000000               0.000000000              -0.000029768               0.006066496               0.000053461              -0.000769473               0.002278636               0.001509163               0.000000000               0.000000000               0.000000000               0.000000000              -0.000021855               0.006016344               0.000031318              -0.000760237               0.002258840               0.001498603               0.000000000               0.000000000               0.000000000               0.000000000               0.001962598               0.010264775              -0.003826124              -0.000547125               0.003603932               0.003056806               0.000000000               0.000000000               0.000000000               0.000000000               0.000336214               0.009787135              -0.002267947              -0.001097311               0.003628115               0.002530805               0.000000000               0.000000000               0.000000000               0.000000000              -0.000850102               0.009845700              -0.000766944              -0.001549497               0.003798366               0.002248869               0.000000000               0.000000000               0.000000000               0.000000000              -0.001205013               0.009446250              -0.000242986              -0.001632657               0.003692937               0.002060280               0.000000000               0.000000000               0.000000000               0.000000000              -0.001255035               0.008971322              -0.000035166              -0.001592049               0.003521094               0.001929044               0.000000000               0.000000000               0.000000000               0.000000000              -0.001179237               0.008521686               0.000050306              -0.001507421               0.003343007               0.001835586               0.000000000               0.000000000               0.000000000               0.000000000              -0.001044983               0.008111743               0.000086797              -0.001405833               0.003172499               0.001766665               0.000000000               0.000000000               0.000000000               0.000000000              -0.000889861               0.007741523               0.000100313              -0.001301385               0.003014277               0.001712892               0.000000000               0.000000000               0.000000000               0.000000000              -0.000734367               0.007404721               0.000095484              -0.001200975               0.002868540               0.001667566               0.000000000               0.000000000               0.000000000               0.000000000              -0.000580839               0.007094084               0.000082748              -0.001104572               0.002732862               0.001628289               0.000000000               0.000000000               0.000000000               0.000000000              -0.000439444               0.006806863               0.000069837              -0.001015647               0.002607480               0.001591834               0.000000000               0.000000000               0.000000000               0.000000000              -0.000321674               0.006547192               0.000057417              -0.000939025               0.002495384               0.001556359               0.000000000               0.000000000               0.000000000               0.000000000              -0.000228211               0.006326938               0.000048353              -0.000876444               0.002401106               0.001524662               0.000000000               0.000000000               0.000000000               0.000000000              -0.000153711               0.006151046               0.000046056              -0.000826520               0.002325835               0.001499315               0.000000000               0.000000000               0.000000000               0.000000000              -0.000095199               0.006007922               0.000042823              -0.000786688               0.002264850               0.001478162               0.000000000               0.000000000               0.000000000               0.000000000              -0.000045171               0.005884417               0.000027918              -0.000752489               0.002212282               0.001459793               0.000000000               0.000000000               0.000000000               0.000000000              -0.000040704               0.005797233               0.000028539              -0.000739916               0.002179030               0.001439114               0.000000000               0.000000000               0.000000000               0.000000000               0.001368621               0.008058580              -0.003303864              -0.000494092               0.002850863               0.002356771               0.000000000               0.000000000               0.000000000               0.000000000              -0.000238272               0.008442291              -0.002188969              -0.001144637               0.003195614               0.002050977               0.000000000               0.000000000               0.000000000               0.000000000              -0.001451227               0.009120906              -0.001066601              -0.001684319               0.003601711               0.001917392               0.000000000               0.000000000               0.000000000               0.000000000              -0.001654734               0.008943517              -0.000624632              -0.001738461               0.003560629               0.001822169               0.000000000               0.000000000               0.000000000               0.000000000              -0.001555596               0.008585636              -0.000409257              -0.001656549               0.003414033               0.001757484               0.000000000               0.000000000               0.000000000               0.000000000              -0.001363771               0.008205100              -0.000293034              -0.001537048               0.003247355               0.001710307               0.000000000               0.000000000               0.000000000               0.000000000              -0.001141642               0.007848604              -0.000226827              -0.001409188               0.003085904               0.001676717               0.000000000               0.000000000               0.000000000               0.000000000              -0.000920969               0.007517020              -0.000183666              -0.001284988               0.002933978               0.001648990               0.000000000               0.000000000               0.000000000               0.000000000              -0.000716045               0.007192957              -0.000158305              -0.001167634               0.002786840               0.001619206               0.000000000               0.000000000               0.000000000               0.000000000              -0.000541946               0.006871482              -0.000140526              -0.001062162               0.002644525               0.001582363               0.000000000               0.000000000               0.000000000               0.000000000              -0.000400569               0.006569074              -0.000117697              -0.000971345               0.002513451               0.001542106               0.000000000               0.000000000               0.000000000               0.000000000              -0.000292938               0.006301584              -0.000086541              -0.000897548               0.002399690               0.001502142               0.000000000               0.000000000               0.000000000               0.000000000              -0.000216453               0.006076730              -0.000048438              -0.000840759               0.002305809               0.001465051               0.000000000               0.000000000               0.000000000               0.000000000              -0.000157634               0.005887221              -0.000007700              -0.000795013               0.002227392               0.001432378               0.000000000               0.000000000               0.000000000               0.000000000              -0.000105874               0.005720269               0.000022086              -0.000754735               0.002158315               0.001403581               0.000000000               0.000000000               0.000000000               0.000000000              -0.000056322               0.005571648               0.000026750              -0.000717575               0.002096389               0.001378814               0.000000000               0.000000000               0.000000000               0.000000000              -0.000044544               0.005478777               0.000030295              -0.000701550               0.002060090               0.001358541               0.000000000               0.000000000               0.000000000               0.000000000               0.000642500               0.006189279              -0.002632709              -0.000532724               0.002240646               0.001707922               0.000000000               0.000000000               0.000000000               0.000000000              -0.000789174               0.007246166              -0.002078733              -0.001201709               0.002815934               0.001614224               0.000000000               0.000000000               0.000000000               0.000000000              -0.001893815               0.008418509              -0.001415251              -0.001762490               0.003393638               0.001631148               0.000000000               0.000000000               0.000000000               0.000000000              -0.001934993               0.008471200              -0.001025679              -0.001784518               0.003418544               0.001634026               0.000000000               0.000000000               0.000000000               0.000000000              -0.001718258               0.008242568              -0.000784222              -0.001674664               0.003305716               0.001631053               0.000000000               0.000000000               0.000000000               0.000000000              -0.001439636               0.007945224              -0.000626579              -0.001533013               0.003159386               0.001626373               0.000000000               0.000000000               0.000000000               0.000000000              -0.001148098               0.007652349              -0.000521092              -0.001387077               0.003013116               0.001626039               0.000000000               0.000000000               0.000000000               0.000000000              -0.000884214               0.007345722              -0.000444585              -0.001249792               0.002865147               0.001615355               0.000000000               0.000000000               0.000000000               0.000000000              -0.000655128               0.007014303              -0.000387377              -0.001122458               0.002712230               0.001589772               0.000000000               0.000000000               0.000000000               0.000000000              -0.000462753               0.006682427              -0.000334067              -0.001008833               0.002563731               0.001554898               0.000000000               0.000000000               0.000000000               0.000000000              -0.000318293               0.006373399              -0.000270902              -0.000916033               0.002429789               0.001513757               0.000000000               0.000000000               0.000000000               0.000000000              -0.000224356               0.006102797              -0.000197069              -0.000846981               0.002316573               0.001469591               0.000000000               0.000000000               0.000000000               0.000000000              -0.000173959               0.005869602              -0.000120720              -0.000798933               0.002222825               0.001423892               0.000000000               0.000000000               0.000000000               0.000000000              -0.000148556               0.005660961              -0.000052852              -0.000763327               0.002141410               0.001378084               0.000000000               0.000000000               0.000000000               0.000000000              -0.000130587               0.005465740              -0.000003288              -0.000732186               0.002065957               0.001333771               0.000000000               0.000000000               0.000000000               0.000000000              -0.000113692               0.005289823               0.000017391              -0.000703860               0.001997877               0.001294016               0.000000000               0.000000000               0.000000000               0.000000000              -0.000101362               0.005201820               0.000019990              -0.000688237               0.001963335               0.001275098               0.000000000               0.000000000               0.000000000               0.000000000              -0.000236514               0.004447477              -0.001908270              -0.000644627               0.001697353               0.001052725               0.000000000               0.000000000               0.000000000               0.000000000              -0.001235402               0.005872102              -0.001949090              -0.001197287               0.002356443               0.001159156               0.000000000               0.000000000               0.000000000               0.000000000              -0.002123538               0.007400497              -0.001789338              -0.001721385               0.003040602               0.001319217               0.000000000               0.000000000               0.000000000               0.000000000              -0.002080244               0.007775758              -0.001465424              -0.001752057               0.003175912               0.001423855               0.000000000               0.000000000               0.000000000               0.000000000              -0.001815671               0.007762800              -0.001197456              -0.001651223               0.003137982               0.001486759               0.000000000               0.000000000               0.000000000               0.000000000              -0.001505245               0.007626946              -0.000995124              -0.001517832               0.003048234               0.001530402               0.000000000               0.000000000               0.000000000               0.000000000              -0.001196062               0.007446043              -0.000842623              -0.001379275               0.002941748               0.001562472               0.000000000               0.000000000               0.000000000               0.000000000              -0.000919120               0.007209815              -0.000724960              -0.001245894               0.002818546               0.001572652               0.000000000               0.000000000               0.000000000               0.000000000              -0.000682568               0.006927491              -0.000629118              -0.001121897               0.002683106               0.001561210               0.000000000               0.000000000               0.000000000               0.000000000              -0.000486370               0.006619218              -0.000539308              -0.001009789               0.002542980               0.001533191               0.000000000               0.000000000               0.000000000               0.000000000              -0.000335738               0.006311584              -0.000443140              -0.000914848               0.002408790               0.001493942               0.000000000               0.000000000               0.000000000               0.000000000              -0.000236363               0.006028311              -0.000338197              -0.000842173               0.002290141               0.001447968               0.000000000               0.000000000               0.000000000               0.000000000              -0.000187116               0.005777425              -0.000233457              -0.000792345               0.002189904               0.001397559               0.000000000               0.000000000               0.000000000               0.000000000              -0.000176052               0.005555907              -0.000138790              -0.000760506               0.002105452               0.001344946               0.000000000               0.000000000               0.000000000               0.000000000              -0.000188420               0.005355015              -0.000061499              -0.000740033               0.002031665               0.001291632               0.000000000               0.000000000               0.000000000               0.000000000              -0.000210831               0.005170619              -0.000013929              -0.000725387               0.001965318               0.001239931               0.000000000               0.000000000               0.000000000               0.000000000              -0.000220718               0.005079587               0.000000720              -0.000717716               0.001932417               0.001214701               0.000000000               0.000000000               0.000000000               0.000000000              -0.001407637               0.002867431              -0.001176933              -0.000886291               0.001251231               0.000364940               0.000000000               0.000000000               0.000000000               0.000000000              -0.001746135               0.004502214              -0.001750810              -0.001217575               0.001906581               0.000689005               0.000000000               0.000000000               0.000000000               0.000000000              -0.002269090               0.006231240              -0.002080349              -0.001629810               0.002620329               0.000990518               0.000000000               0.000000000               0.000000000               0.000000000              -0.002152883               0.006907804              -0.001884457              -0.001670803               0.002859512               0.001188709               0.000000000               0.000000000               0.000000000               0.000000000              -0.001866924               0.007143841              -0.001620522              -0.001593073               0.002912281               0.001319207               0.000000000               0.000000000               0.000000000               0.000000000              -0.001547811               0.007198735              -0.001387537              -0.001480268               0.002892977               0.001412709               0.000000000               0.000000000               0.000000000               0.000000000              -0.001239995               0.007155904              -0.001194650              -0.001359483               0.002838438               0.001478955               0.000000000               0.000000000               0.000000000               0.000000000              -0.000962516               0.007022378              -0.001040006              -0.001238738               0.002753682               0.001514944               0.000000000               0.000000000               0.000000000               0.000000000              -0.000718967               0.006825983              -0.000910301              -0.001122858               0.002649591               0.001526733               0.000000000               0.000000000               0.000000000               0.000000000              -0.000511569               0.006585468              -0.000788654              -0.001015019               0.002533474               0.001518454               0.000000000               0.000000000               0.000000000               0.000000000              -0.000340796               0.006319480              -0.000667276              -0.000917731               0.002412383               0.001494651               0.000000000               0.000000000               0.000000000               0.000000000              -0.000213981               0.006046901              -0.000542006              -0.000836103               0.002294314               0.001458211               0.000000000               0.000000000               0.000000000               0.000000000              -0.000140316               0.005784469              -0.000415781              -0.000775675               0.002186695               0.001411020               0.000000000               0.000000000               0.000000000               0.000000000              -0.000121090               0.005547527              -0.000291870              -0.000738848               0.002095440               0.001356592               0.000000000               0.000000000               0.000000000               0.000000000              -0.000149867               0.005343390              -0.000175118              -0.000724122               0.002022486               0.001298364               0.000000000               0.000000000               0.000000000               0.000000000              -0.000222341               0.005163119              -0.000074978              -0.000728766               0.001963944               0.001235178               0.000000000               0.000000000               0.000000000               0.000000000              -0.000286184               0.005063647              -0.000023813              -0.000740273               0.001934623               0.001194350               0.000000000               0.000000000               0.000000000               0.000000000              -0.002787342               0.001560046              -0.000496162              -0.001240257               0.000933428              -0.000306829               0.000000000               0.000000000               0.000000000               0.000000000              -0.002372883               0.003212959              -0.001463307              -0.001291449               0.001501458               0.000210009               0.000000000               0.000000000               0.000000000               0.000000000              -0.002367504               0.004924296              -0.002187457              -0.001503348               0.002142531               0.000639182               0.000000000               0.000000000               0.000000000               0.000000000              -0.002117442               0.005813314              -0.002155988              -0.001520702               0.002444652               0.000923950               0.000000000               0.000000000               0.000000000               0.000000000              -0.001801617               0.006283020              -0.001941746              -0.001460981               0.002581312               0.001120331               0.000000000               0.000000000               0.000000000               0.000000000              -0.001481588               0.006539359              -0.001710518              -0.001373013               0.002637435               0.001264422               0.000000000               0.000000000               0.000000000               0.000000000              -0.001184082               0.006654950              -0.001502499              -0.001275897               0.002643593               0.001367696               0.000000000               0.000000000               0.000000000               0.000000000              -0.000917265               0.006653425              -0.001326755              -0.001175650               0.002609669               0.001434019               0.000000000               0.000000000               0.000000000               0.000000000              -0.000676696               0.006569335              -0.001174462              -0.001074926               0.002548065               0.001473139               0.000000000               0.000000000               0.000000000               0.000000000              -0.000465774               0.006421432              -0.001031034              -0.000977342               0.002466236               0.001488894               0.000000000               0.000000000               0.000000000               0.000000000              -0.000284458               0.006234195              -0.000889921              -0.000885944               0.002373359               0.001487415               0.000000000               0.000000000               0.000000000               0.000000000              -0.000134070               0.006015392              -0.000749143              -0.000802199               0.002272510               0.001470312               0.000000000               0.000000000               0.000000000               0.000000000              -0.000021674               0.005776874              -0.000609140              -0.000730235               0.002169017               0.001438782               0.000000000               0.000000000               0.000000000               0.000000000               0.000038975               0.005544720              -0.000464277              -0.000678473               0.002074379               0.001395906               0.000000000               0.000000000               0.000000000               0.000000000               0.000035703               0.005340939              -0.000310317              -0.000654227               0.001998371               0.001344144               0.000000000               0.000000000               0.000000000               0.000000000              -0.000040287               0.005162916              -0.000152365              -0.000660471               0.001941112               0.001280641               0.000000000               0.000000000               0.000000000               0.000000000              -0.000126102               0.005059045              -0.000063969              -0.000679667               0.001912887               0.001233220               0.000000000               0.000000000               0.000000000               0.000000000              -0.004265139               0.000591031               0.000045431              -0.001673304               0.000754773              -0.000918531               0.000000000               0.000000000               0.000000000               0.000000000              -0.003074154               0.002070190              -0.001123701              -0.001411579               0.001160581              -0.000250998               0.000000000               0.000000000               0.000000000               0.000000000              -0.002445539               0.003588473              -0.002087449              -0.001365634               0.001651356               0.000285722               0.000000000               0.000000000               0.000000000               0.000000000              -0.001997855               0.004583053              -0.002207035              -0.001322075               0.001968360               0.000646285               0.000000000               0.000000000               0.000000000               0.000000000              -0.001626896               0.005235997              -0.002069764              -0.001264584               0.002166842               0.000902258               0.000000000               0.000000000               0.000000000               0.000000000              -0.001301755               0.005680578              -0.001871109              -0.001198228               0.002292916               0.001094688               0.000000000               0.000000000               0.000000000               0.000000000              -0.001015726               0.005957446              -0.001676198              -0.001125576               0.002360987               0.001235411               0.000000000               0.000000000               0.000000000               0.000000000              -0.000764331               0.006094865              -0.001504239              -0.001048480               0.002381094               0.001332614               0.000000000               0.000000000               0.000000000               0.000000000              -0.000535453               0.006138062              -0.001348105              -0.000968051               0.002368684               0.001400633               0.000000000               0.000000000               0.000000000               0.000000000              -0.000325979               0.006105935              -0.001196522              -0.000885482               0.002330452               0.001444970               0.000000000               0.000000000               0.000000000               0.000000000              -0.000139598               0.006017375              -0.001048542              -0.000804520               0.002273945               0.001469425               0.000000000               0.000000000               0.000000000               0.000000000               0.000030609               0.005882684              -0.000907911              -0.000723856               0.002202160               0.001478304               0.000000000               0.000000000               0.000000000               0.000000000               0.000185187               0.005710832              -0.000767221              -0.000644408               0.002118394               0.001473987               0.000000000               0.000000000               0.000000000               0.000000000               0.000306987               0.005521315              -0.000609521              -0.000575043               0.002032101               0.001457058               0.000000000               0.000000000               0.000000000               0.000000000               0.000374486               0.005335725              -0.000427800              -0.000526532               0.001954068               0.001427536               0.000000000               0.000000000               0.000000000               0.000000000               0.000368962               0.005162667              -0.000224286              -0.000506971               0.001889862               0.001382891               0.000000000               0.000000000               0.000000000               0.000000000               0.000327055               0.005067237              -0.000111969              -0.000510758               0.001859315               0.001348557               0.000000000               0.000000000               0.000000000               0.000000000              -0.005691023              -0.000048396               0.000368702              -0.002128082               0.000693224              -0.001434858               0.000000000               0.000000000               0.000000000               0.000000000              -0.003779824               0.001141421              -0.000780086              -0.001560110               0.000900504              -0.000659606               0.000000000               0.000000000               0.000000000               0.000000000              -0.002516467               0.002355161              -0.001780130              -0.001238068               0.001197734              -0.000040334               0.000000000               0.000000000               0.000000000               0.000000000              -0.001828466               0.003356323              -0.001993141              -0.001105213               0.001487166               0.000381953               0.000000000               0.000000000               0.000000000               0.000000000              -0.001375209               0.004127303              -0.001932812              -0.001031615               0.001719625               0.000688010               0.000000000               0.000000000               0.000000000               0.000000000              -0.001030112               0.004717574              -0.001787936              -0.000975987               0.001897837               0.000921850               0.000000000               0.000000000               0.000000000               0.000000000              -0.000747149               0.005134629              -0.001629540              -0.000922008               0.002018861               0.001096853               0.000000000               0.000000000               0.000000000               0.000000000              -0.000508519               0.005403125              -0.001480930              -0.000866084               0.002089718               0.001223634               0.000000000               0.000000000               0.000000000               0.000000000              -0.000298746               0.005565413              -0.001340694              -0.000807705               0.002124354               0.001316649               0.000000000               0.000000000               0.000000000               0.000000000              -0.000101328               0.005651280              -0.001199588              -0.000744407               0.002131877               0.001387470               0.000000000               0.000000000               0.000000000               0.000000000               0.000093067               0.005671307              -0.001064973              -0.000674012               0.002115087               0.001441075               0.000000000               0.000000000               0.000000000               0.000000000               0.000285051               0.005631263              -0.000942625              -0.000597013               0.002076073               0.001479060               0.000000000               0.000000000               0.000000000               0.000000000               0.000474489               0.005552026              -0.000815641              -0.000516069               0.002022680               0.001506611               0.000000000               0.000000000               0.000000000               0.000000000               0.000656761               0.005440081              -0.000663883              -0.000433724               0.001957917               0.001524193               0.000000000               0.000000000               0.000000000               0.000000000               0.000820877               0.005303822              -0.000478998              -0.000355148               0.001886306               0.001531157               0.000000000               0.000000000               0.000000000               0.000000000               0.000946819               0.005154379              -0.000257660              -0.000289240               0.001814522               0.001525283               0.000000000               0.000000000               0.000000000               0.000000000               0.001012399               0.005081375              -0.000140251              -0.000255522               0.001778949               0.001523427               0.000000000               0.000000000               0.000000000               0.000000000              -0.006889283              -0.000413699               0.000440644              -0.002531767               0.000706018              -0.001825749               0.000000000               0.000000000               0.000000000               0.000000000              -0.004395181               0.000469118              -0.000472461              -0.001706831               0.000725311              -0.000981520               0.000000000               0.000000000               0.000000000               0.000000000              -0.002584362               0.001357337              -0.001295491              -0.001138801               0.000832040              -0.000306762               0.000000000               0.000000000               0.000000000               0.000000000              -0.001658933               0.002302684              -0.001514879              -0.000909934               0.001070864               0.000160930               0.000000000               0.000000000               0.000000000               0.000000000              -0.001108125               0.003129925              -0.001505965              -0.000806786               0.001312226               0.000505440               0.000000000               0.000000000               0.000000000               0.000000000              -0.000730810               0.003812267              -0.001418525              -0.000750586               0.001520938               0.000770352               0.000000000               0.000000000               0.000000000               0.000000000              -0.000447031               0.004330010              -0.001311261              -0.000708887               0.001679618               0.000970731               0.000000000               0.000000000               0.000000000               0.000000000              -0.000219417               0.004705368              -0.001200881              -0.000670451               0.001791924               0.001121473               0.000000000               0.000000000               0.000000000               0.000000000              -0.000023492               0.004972048              -0.001092027              -0.000630315               0.001867438               0.001237123               0.000000000               0.000000000               0.000000000               0.000000000               0.000163297               0.005155638              -0.000985119              -0.000583217               0.001912935               0.001329717               0.000000000               0.000000000               0.000000000               0.000000000               0.000360915               0.005273113              -0.000885786              -0.000523795               0.001932285               0.001408490               0.000000000               0.000000000               0.000000000               0.000000000               0.000567770               0.005329719              -0.000793405              -0.000453300               0.001927655               0.001474355               0.000000000               0.000000000               0.000000000               0.000000000               0.000785898               0.005341370              -0.000695806              -0.000372959               0.001904758               0.001531800               0.000000000               0.000000000               0.000000000               0.000000000               0.001020353               0.005310159              -0.000577048              -0.000281137               0.001863748               0.001582611               0.000000000               0.000000000               0.000000000               0.000000000               0.001274297               0.005238491              -0.000424273              -0.000176950               0.001805129               0.001628180               0.000000000               0.000000000               0.000000000               0.000000000               0.001546513               0.005131898              -0.000229697              -0.000061545               0.001731131               0.001669585               0.000000000               0.000000000               0.000000000               0.000000000               0.001748735               0.005092771              -0.000129729               0.000019179               0.001691181               0.001710359               0.000000000               0.000000000               0.000000000               0.000000000              -0.007692402              -0.000584192               0.000287266              -0.002811625               0.000742473              -0.002069152               0.000000000               0.000000000               0.000000000               0.000000000              -0.004818958               0.000070104              -0.000216628              -0.001815871               0.000628654              -0.001187217               0.000000000               0.000000000               0.000000000               0.000000000              -0.002639359               0.000711396              -0.000680301              -0.001078683               0.000596688              -0.000481994               0.000000000               0.000000000               0.000000000               0.000000000              -0.001540151               0.001586893              -0.000818950              -0.000775917               0.000787597               0.000011680               0.000000000               0.000000000               0.000000000               0.000000000              -0.000908843               0.002425172              -0.000827082              -0.000643961               0.001023036               0.000379075               0.000000000               0.000000000               0.000000000               0.000000000              -0.000496990               0.003156602              -0.000787833              -0.000580945               0.001245838               0.000664893               0.000000000               0.000000000               0.000000000               0.000000000              -0.000210722               0.003738589              -0.000735184              -0.000546343               0.001428298               0.000881955               0.000000000               0.000000000               0.000000000               0.000000000               0.000007245               0.004180999              -0.000676875              -0.000519907               0.001566955               0.001047048               0.000000000               0.000000000               0.000000000               0.000000000               0.000195735               0.004515247              -0.000616556              -0.000491004               0.001668735               0.001177731               0.000000000               0.000000000               0.000000000               0.000000000               0.000381430               0.004768290              -0.000559048              -0.000452999               0.001740414               0.001287415               0.000000000               0.000000000               0.000000000               0.000000000               0.000577625               0.004955639              -0.000506488              -0.000402845               0.001786145               0.001383300               0.000000000               0.000000000               0.000000000               0.000000000               0.000789834               0.005084400              -0.000456441              -0.000339362               0.001807904               0.001468542               0.000000000               0.000000000               0.000000000               0.000000000               0.001026997               0.005163672              -0.000403878              -0.000260335               0.001807985               0.001547650               0.000000000               0.000000000               0.000000000               0.000000000               0.001298526               0.005192150              -0.000337640              -0.000162071               0.001784723               0.001622652               0.000000000               0.000000000               0.000000000               0.000000000               0.001619332               0.005171064              -0.000250555              -0.000039134               0.001736715               0.001697582               0.000000000               0.000000000               0.000000000               0.000000000               0.002006081               0.005101174              -0.000138123               0.000114632               0.001662164               0.001776796               0.000000000               0.000000000               0.000000000               0.000000000               0.002319137               0.005090070              -0.000081652               0.000233415               0.001618868               0.001852283               0.000000000               0.000000000               0.000000000               0.000000000              -0.007976640              -0.000633562              -0.000000000              -0.002912043               0.000759489              -0.002152554               0.000000000               0.000000000               0.000000000               0.000000000              -0.004971306              -0.000063787              -0.000000000              -0.001856265               0.000597489              -0.001258776               0.000000000               0.000000000               0.000000000               0.000000000              -0.002661084               0.000487187              -0.000000000              -0.001058804               0.000515327              -0.000543477               0.000000000               0.000000000               0.000000000               0.000000000              -0.001497041               0.001334151              -0.000000000              -0.000728158               0.000687431              -0.000040726               0.000000000               0.000000000               0.000000000               0.000000000              -0.000834965               0.002170391               0.000000000              -0.000584409               0.000918260               0.000333850               0.000000000               0.000000000               0.000000000               0.000000000              -0.000407355               0.002916927               0.000000000              -0.000517373               0.001144757               0.000627384               0.000000000               0.000000000               0.000000000               0.000000000              -0.000119238               0.003521285               0.000000000              -0.000484874               0.001335375               0.000850501               0.000000000               0.000000000               0.000000000               0.000000000               0.000094454               0.003985885              -0.000000000              -0.000462814               0.001482886               0.001020072               0.000000000               0.000000000               0.000000000               0.000000000               0.000279639               0.004342135              -0.000000000              -0.000437901               0.001593331               0.001155430               0.000000000               0.000000000               0.000000000               0.000000000               0.000465253               0.004619760               0.000000000              -0.000402999               0.001674238               0.001271239               0.000000000               0.000000000               0.000000000               0.000000000               0.000660614               0.004833153               0.000000000              -0.000356413               0.001729839               0.001373426               0.000000000               0.000000000               0.000000000               0.000000000               0.000875246               0.004989295              -0.000000000              -0.000295444               0.001761563               0.001466119               0.000000000               0.000000000               0.000000000               0.000000000               0.001117743               0.005094065              -0.000000000              -0.000217604               0.001770539               0.001552935               0.000000000               0.000000000               0.000000000               0.000000000               0.001402454               0.005144983              -0.000000000              -0.000117202               0.001754045               0.001636842               0.000000000               0.000000000               0.000000000               0.000000000               0.001751012               0.005142802              -0.000000000               0.000013779               0.001709657               0.001723436               0.000000000               0.000000000               0.000000000               0.000000000               0.002182050               0.005086155               0.000000000               0.000182498               0.001634535               0.001817033               0.000000000               0.000000000               0.000000000               0.000000000               0.002535591               0.005084696               0.000000000               0.000315257               0.001589796               0.001905053               0.000000000               0.000000000               0.000000000               0.000000000               0.000000000               0.000000000               0.000000000               0.000000000               0.000000000               0.000000000               0.000000000               0.000000000               0.000000000               0.000000000               0.000000000               0.000000000               0.000000000               0.000000000               0.000000000               0.000000000               0.000000000               0.000000000               0.000000000               0.000000000               0.000000000               0.000000000               0.000000000               0.000000000               0.000000000               0.000000000               0.000000000               0.000000000               0.000000000               0.000000000               0.000000000               0.000000000               0.000000000               0.000000000               0.000000000               0.000000000               0.000000000               0.000000000               0.000000000               0.000000000               0.000000000               0.000000000               0.000000000               0.000000000               0.000000000               0.000000000               0.000000000               0.000000000               0.000000000               0.000000000               0.000000000               0.000000000               0.000000000               0.000000000               0.000000000               0.000000000               0.000000000               0.000000000               0.000000000               0.000000000               0.000000000               0.000000000               0.000000000               0.000000000               0.000000000               0.000000000               0.000000000               0.000000000               0.000000000               0.000000000               0.000000000               0.000000000               0.000000000               0.000000000               0.000000000               0.000000000               0.000000000               0.000000000               0.000000000               0.000000000               0.000000000               0.000000000               0.000000000               0.000000000               0.000000000               0.000000000               0.000000000               0.000000000               0.000000000               0.000000000               0.000000000               0.000000000               0.000000000               0.000000000               0.000000000               0.000000000               0.000000000               0.000000000               0.000000000               0.000000000               0.000000000               0.000000000               0.000000000               0.000000000               0.000000000               0.000000000               0.000000000               0.000000000               0.000000000               0.000000000               0.000000000               0.000000000               0.000000000               0.000000000               0.000000000               0.000000000               0.000000000               0.000000000               0.000000000               0.000000000               0.000000000               0.000000000               0.000000000               0.000000000               0.000000000               0.000000000               0.000000000               0.000000000               0.000000000               0.000000000               0.000000000               0.000000000               0.000000000               0.000000000               0.000000000               0.000000000               0.000000000               0.000000000               0.000000000               0.000000000               0.000000000               0.000000000               0.000000000               0.000000000               0.000000000               0.000000000               0.000000000               0.000000000               0.000000000               0.000000000               0.000000000               0.000000000               0.000000000               0.000000000               0.000000000               0.000000000               0.000000000               0.000000000               0.000000000               0.000000000               0.000000000               0.000000000               0.000000000               0.000000000               0.000000000               0.000000000               0.000000000               0.000000000               0.000000000               0.000000000               0.001932476               0.020218719               0.001422785              -0.001802657               0.007340391               0.005537734               0.000000000               0.000000000               0.000000000               0.000000000               0.001836827               0.016032868               0.000741803              -0.001315295               0.005782668               0.004467372               0.000000000               0.000000000               0.000000000               0.000000000               0.002337433               0.012686517               0.000062910              -0.000709276               0.004465222               0.003755946               0.000000000               0.000000000               0.000000000               0.000000000               0.002227034               0.010809807              -0.000225263              -0.000516087               0.003775262               0.003259175               0.000000000               0.000000000               0.000000000               0.000000000               0.001938624               0.009640782              -0.000345738              -0.000478113               0.003372933               0.002894820               0.000000000               0.000000000               0.000000000               0.000000000               0.001621223               0.008846521              -0.000387420              -0.000497856               0.003114763               0.002616907               0.000000000               0.000000000               0.000000000               0.000000000               0.001324454               0.008261130              -0.000394732              -0.000535970               0.002932339               0.002396369               0.000000000               0.000000000               0.000000000               0.000000000               0.001064396               0.007800234              -0.000388640              -0.000575879               0.002792012               0.002216132               0.000000000               0.000000000               0.000000000               0.000000000               0.000838667               0.007409937              -0.000373510              -0.000611741               0.002673868               0.002062127               0.000000000               0.000000000               0.000000000               0.000000000               0.000645449               0.007058230              -0.000353338              -0.000640234               0.002566131               0.001925897               0.000000000               0.000000000               0.000000000               0.000000000               0.000484803               0.006725450              -0.000332013              -0.000658878               0.002461420               0.001802542               0.000000000               0.000000000               0.000000000               0.000000000               0.000351714               0.006400969              -0.000309960              -0.000668227               0.002356377               0.001688150               0.000000000               0.000000000               0.000000000               0.000000000               0.000238340               0.006073952              -0.000283837              -0.000669865               0.002247919               0.001578054               0.000000000               0.000000000               0.000000000               0.000000000               0.000143694               0.005731328              -0.000247537              -0.000662529               0.002131267               0.001468737               0.000000000               0.000000000               0.000000000               0.000000000               0.000074923               0.005361721              -0.000192655              -0.000642117               0.002001262               0.001359144               0.000000000               0.000000000               0.000000000               0.000000000               0.000030242               0.004951191              -0.000110790              -0.000607557               0.001852899               0.001245343               0.000000000               0.000000000               0.000000000               0.000000000              -0.000017946               0.004645512              -0.000067880              -0.000587417               0.001744294               0.001156877               0.000000000               0.000000000               0.000000000               0.000000000               0.002121802               0.019040967               0.002656023              -0.001584442               0.006875072               0.005290630               0.000000000               0.000000000               0.000000000               0.000000000               0.001748926               0.015268535               0.001385273              -0.001252717               0.005507033               0.004254316               0.000000000               0.000000000               0.000000000               0.000000000               0.001955391               0.012359532               0.000131770              -0.000811668               0.004390359               0.003578691               0.000000000               0.000000000               0.000000000               0.000000000               0.001738751               0.010705003              -0.000381367              -0.000686092               0.003796996               0.003110904               0.000000000               0.000000000               0.000000000               0.000000000               0.001432210               0.009646483              -0.000589014              -0.000668730               0.003438372               0.002769642               0.000000000               0.000000000               0.000000000               0.000000000               0.001138280               0.008902345              -0.000660609              -0.000685936               0.003196064               0.002510128               0.000000000               0.000000000               0.000000000               0.000000000               0.000884830               0.008340846              -0.000671932              -0.000710793               0.003017185               0.002306392               0.000000000               0.000000000               0.000000000               0.000000000               0.000674788               0.007888459              -0.000657293              -0.000733010               0.002873797               0.002140787               0.000000000               0.000000000               0.000000000               0.000000000               0.000503474               0.007499008              -0.000628102              -0.000748571               0.002749168               0.002000597               0.000000000               0.000000000               0.000000000               0.000000000               0.000364580               0.007145066              -0.000590490              -0.000756414               0.002633803               0.001877389               0.000000000               0.000000000               0.000000000               0.000000000               0.000254715               0.006814873              -0.000549736              -0.000756339               0.002523715               0.001767376               0.000000000               0.000000000               0.000000000               0.000000000               0.000166993               0.006499370              -0.000508410              -0.000749797               0.002416367               0.001666570               0.000000000               0.000000000               0.000000000               0.000000000               0.000098936               0.006192321              -0.000458921              -0.000736938               0.002309732               0.001572795               0.000000000               0.000000000               0.000000000               0.000000000               0.000049401               0.005888114              -0.000391436              -0.000717487               0.002201847               0.001484360               0.000000000               0.000000000               0.000000000               0.000000000               0.000020589               0.005586523              -0.000295686              -0.000690593               0.002092353               0.001401760               0.000000000               0.000000000               0.000000000               0.000000000               0.000006131               0.005288753              -0.000165381              -0.000658794               0.001982498               0.001323704               0.000000000               0.000000000               0.000000000               0.000000000              -0.000016949               0.005092070              -0.000097893              -0.000642863               0.001911627               0.001268764               0.000000000               0.000000000               0.000000000               0.000000000               0.002325869               0.017247150               0.003547417              -0.001283692               0.006176889               0.004893197               0.000000000               0.000000000               0.000000000               0.000000000               0.001567223               0.014120037               0.001859540              -0.001177294               0.005099063               0.003921769               0.000000000               0.000000000               0.000000000               0.000000000               0.001365007               0.011859145               0.000216246              -0.000970513               0.004276513               0.003306000               0.000000000               0.000000000               0.000000000               0.000000000               0.001023873               0.010518279              -0.000422941              -0.000930830               0.003816335               0.002885505               0.000000000               0.000000000               0.000000000               0.000000000               0.000716913               0.009612054              -0.000667834              -0.000932662               0.003514873               0.002582211               0.000000000               0.000000000               0.000000000               0.000000000               0.000477278               0.008940000              -0.000747394              -0.000938519               0.003292810               0.002354291               0.000000000               0.000000000               0.000000000               0.000000000               0.000298261               0.008408340              -0.000757836              -0.000939193               0.003115816               0.002176624               0.000000000               0.000000000               0.000000000               0.000000000               0.000167611               0.007963319              -0.000739044              -0.000932559               0.002965266               0.002032707               0.000000000               0.000000000               0.000000000               0.000000000               0.000075433               0.007575520              -0.000699961              -0.000918651               0.002831365               0.001912714               0.000000000               0.000000000               0.000000000               0.000000000               0.000006669               0.007221973              -0.000651022              -0.000900244               0.002707381               0.001807138               0.000000000               0.000000000               0.000000000               0.000000000              -0.000036361               0.006899024              -0.000599893              -0.000876011               0.002591656               0.001715644               0.000000000               0.000000000               0.000000000               0.000000000              -0.000054289               0.006602799              -0.000546759              -0.000845706               0.002482813               0.001637107               0.000000000               0.000000000               0.000000000               0.000000000              -0.000055014               0.006329265              -0.000484378              -0.000811787               0.002380329               0.001568543               0.000000000               0.000000000               0.000000000               0.000000000              -0.000045247               0.006080662              -0.000404077              -0.000777048               0.002285883               0.001508835               0.000000000               0.000000000               0.000000000               0.000000000              -0.000029845               0.005866996              -0.000296390              -0.000744565               0.002203834               0.001459269               0.000000000               0.000000000               0.000000000               0.000000000              -0.000015778               0.005701165              -0.000159914              -0.000718561               0.002139890               0.001421329               0.000000000               0.000000000               0.000000000               0.000000000              -0.000014639               0.005617262              -0.000088274              -0.000707646               0.002108284               0.001400638               0.000000000               0.000000000               0.000000000               0.000000000               0.002427193               0.015038529               0.004027289              -0.000969620               0.005335999               0.004366379               0.000000000               0.000000000               0.000000000               0.000000000               0.001268541               0.012731699               0.002147618              -0.001115758               0.004615776               0.003500018               0.000000000               0.000000000               0.000000000               0.000000000               0.000640528               0.011244107               0.000339424              -0.001165313               0.004136436               0.002971123               0.000000000               0.000000000               0.000000000               0.000000000               0.000212823               0.010245945              -0.000323660              -0.001200932               0.003815591               0.002614660               0.000000000               0.000000000               0.000000000               0.000000000              -0.000057043               0.009500510              -0.000564875              -0.001208952               0.003569789               0.002360837               0.000000000               0.000000000               0.000000000               0.000000000              -0.000210536               0.008904636              -0.000640704              -0.001192028               0.003365525               0.002173497               0.000000000               0.000000000               0.000000000               0.000000000              -0.000288793               0.008405507              -0.000649848              -0.001158983               0.003188135               0.002029152               0.000000000               0.000000000               0.000000000               0.000000000              -0.000324145               0.007972557              -0.000631289              -0.001118121               0.003030200               0.001912078               0.000000000               0.000000000               0.000000000               0.000000000              -0.000327610               0.007588610              -0.000594108              -0.001071427               0.002886654               0.001815227               0.000000000               0.000000000               0.000000000               0.000000000              -0.000309156               0.007244823              -0.000545853              -0.001021534               0.002755428               0.001733894               0.000000000               0.000000000               0.000000000               0.000000000              -0.000271999               0.006938492              -0.000495870              -0.000969309               0.002635911               0.001666602               0.000000000               0.000000000               0.000000000               0.000000000              -0.000219585               0.006669100              -0.000442585              -0.000915980               0.002528338               0.001612358               0.000000000               0.000000000               0.000000000               0.000000000              -0.000161481               0.006433107              -0.000379197              -0.000864692               0.002432578               0.001567886               0.000000000               0.000000000               0.000000000               0.000000000              -0.000103740               0.006237773              -0.000303239              -0.000818622               0.002352111               0.001533489               0.000000000               0.000000000               0.000000000               0.000000000              -0.000055079               0.006094562              -0.000213272              -0.000782473               0.002292325               0.001509852               0.000000000               0.000000000               0.000000000               0.000000000              -0.000021846               0.006009167              -0.000108907              -0.000759336               0.002256148               0.001496811               0.000000000               0.000000000               0.000000000               0.000000000              -0.000009869               0.005980179              -0.000054432              -0.000751222               0.002243780               0.001492559               0.000000000               0.000000000               0.000000000               0.000000000               0.002324782               0.012643058               0.004098097              -0.000708591               0.004450507               0.003741915               0.000000000               0.000000000               0.000000000               0.000000000               0.000851142               0.011247988               0.002268700              -0.001086819               0.004111564               0.003024745               0.000000000               0.000000000               0.000000000               0.000000000              -0.000127657               0.010560884               0.000521106              -0.001367978               0.003976252               0.002608274               0.000000000               0.000000000               0.000000000               0.000000000              -0.000563634               0.009886100              -0.000090215              -0.001447122               0.003777708               0.002330586               0.000000000               0.000000000               0.000000000               0.000000000              -0.000745209               0.009285810              -0.000311246              -0.001440176               0.003575298               0.002135121               0.000000000               0.000000000               0.000000000               0.000000000              -0.000790488               0.008764139              -0.000383818              -0.001391947               0.003385333               0.001993386               0.000000000               0.000000000               0.000000000               0.000000000              -0.000760980               0.008304992              -0.000400513              -0.001323488               0.003209466               0.001885977               0.000000000               0.000000000               0.000000000               0.000000000              -0.000693547               0.007898393              -0.000394075              -0.001247376               0.003048563               0.001801187               0.000000000               0.000000000               0.000000000               0.000000000              -0.000607286               0.007532098              -0.000369607              -0.001169242               0.002900421               0.001731180               0.000000000               0.000000000               0.000000000               0.000000000              -0.000511017               0.007206770              -0.000332967              -0.001092475               0.002766391               0.001673916               0.000000000               0.000000000               0.000000000               0.000000000              -0.000408811               0.006919724              -0.000294989              -0.001018267               0.002645974               0.001627707               0.000000000               0.000000000               0.000000000               0.000000000              -0.000306399               0.006667163              -0.000253359              -0.000948292               0.002538463               0.001590170               0.000000000               0.000000000               0.000000000               0.000000000              -0.000214726               0.006449362              -0.000206455              -0.000886690               0.002445329               0.001558639               0.000000000               0.000000000               0.000000000               0.000000000              -0.000134626               0.006278340              -0.000159185              -0.000835275               0.002371184               0.001535909               0.000000000               0.000000000               0.000000000               0.000000000              -0.000072840               0.006154286              -0.000108860              -0.000796599               0.002316941               0.001520342               0.000000000               0.000000000               0.000000000               0.000000000              -0.000029768               0.006066496              -0.000053461              -0.000769473               0.002278636               0.001509163               0.000000000               0.000000000               0.000000000               0.000000000              -0.000021855               0.006016344              -0.000031318              -0.000760237               0.002258840               0.001498603               0.000000000               0.000000000               0.000000000               0.000000000               0.001962598               0.010264775               0.003826124              -0.000547125               0.003603932               0.003056806               0.000000000               0.000000000               0.000000000               0.000000000               0.000336214               0.009787135               0.002267947              -0.001097311               0.003628115               0.002530805               0.000000000               0.000000000               0.000000000               0.000000000              -0.000850102               0.009845700               0.000766944              -0.001549497               0.003798366               0.002248869               0.000000000               0.000000000               0.000000000               0.000000000              -0.001205013               0.009446250               0.000242986              -0.001632657               0.003692937               0.002060280               0.000000000               0.000000000               0.000000000               0.000000000              -0.001255035               0.008971322               0.000035166              -0.001592049               0.003521094               0.001929044               0.000000000               0.000000000               0.000000000               0.000000000              -0.001179237               0.008521686              -0.000050306              -0.001507421               0.003343007               0.001835586               0.000000000               0.000000000               0.000000000               0.000000000              -0.001044983               0.008111743              -0.000086797              -0.001405833               0.003172499               0.001766665               0.000000000               0.000000000               0.000000000               0.000000000              -0.000889861               0.007741523              -0.000100313              -0.001301385               0.003014277               0.001712892               0.000000000               0.000000000               0.000000000               0.000000000              -0.000734367               0.007404721              -0.000095484              -0.001200975               0.002868540               0.001667566               0.000000000               0.000000000               0.000000000               0.000000000              -0.000580839               0.007094084              -0.000082748              -0.001104572               0.002732862               0.001628289               0.000000000               0.000000000               0.000000000               0.000000000              -0.000439444               0.006806863              -0.000069837              -0.001015647               0.002607480               0.001591834               0.000000000               0.000000000               0.000000000               0.000000000              -0.000321674               0.006547192              -0.000057417              -0.000939025               0.002495384               0.001556359               0.000000000               0.000000000               0.000000000               0.000000000              -0.000228211               0.006326938              -0.000048353              -0.000876444               0.002401106               0.001524662               0.000000000               0.000000000               0.000000000               0.000000000              -0.000153711               0.006151046              -0.000046056              -0.000826520               0.002325835               0.001499315               0.000000000               0.000000000               0.000000000               0.000000000              -0.000095199               0.006007922              -0.000042823              -0.000786688               0.002264850               0.001478162               0.000000000               0.000000000               0.000000000               0.000000000              -0.000045171               0.005884417              -0.000027918              -0.000752489               0.002212282               0.001459793               0.000000000               0.000000000               0.000000000               0.000000000              -0.000040704               0.005797233              -0.000028539              -0.000739916               0.002179030               0.001439114               0.000000000               0.000000000               0.000000000               0.000000000               0.001368621               0.008058580               0.003303864              -0.000494092               0.002850863               0.002356771               0.000000000               0.000000000               0.000000000               0.000000000              -0.000238272               0.008442291               0.002188969              -0.001144637               0.003195614               0.002050977               0.000000000               0.000000000               0.000000000               0.000000000              -0.001451227               0.009120906               0.001066601              -0.001684319               0.003601711               0.001917392               0.000000000               0.000000000               0.000000000               0.000000000              -0.001654734               0.008943517               0.000624632              -0.001738461               0.003560629               0.001822169               0.000000000               0.000000000               0.000000000               0.000000000              -0.001555596               0.008585636               0.000409257              -0.001656549               0.003414033               0.001757484               0.000000000               0.000000000               0.000000000               0.000000000              -0.001363771               0.008205100               0.000293034              -0.001537048               0.003247355               0.001710307               0.000000000               0.000000000               0.000000000               0.000000000              -0.001141642               0.007848604               0.000226827              -0.001409188               0.003085904               0.001676717               0.000000000               0.000000000               0.000000000               0.000000000              -0.000920969               0.007517020               0.000183666              -0.001284988               0.002933978               0.001648990               0.000000000               0.000000000               0.000000000               0.000000000              -0.000716045               0.007192957               0.000158305              -0.001167634               0.002786840               0.001619206               0.000000000               0.000000000               0.000000000               0.000000000              -0.000541946               0.006871482               0.000140526              -0.001062162               0.002644525               0.001582363               0.000000000               0.000000000               0.000000000               0.000000000              -0.000400569               0.006569074               0.000117697              -0.000971345               0.002513451               0.001542106               0.000000000               0.000000000               0.000000000               0.000000000              -0.000292938               0.006301584               0.000086541              -0.000897548               0.002399690               0.001502142               0.000000000               0.000000000               0.000000000               0.000000000              -0.000216453               0.006076730               0.000048438              -0.000840759               0.002305809               0.001465051               0.000000000               0.000000000               0.000000000               0.000000000              -0.000157634               0.005887221               0.000007700              -0.000795013               0.002227392               0.001432378               0.000000000               0.000000000               0.000000000               0.000000000              -0.000105874               0.005720269              -0.000022086              -0.000754735               0.002158315               0.001403581               0.000000000               0.000000000               0.000000000               0.000000000              -0.000056322               0.005571648              -0.000026750              -0.000717575               0.002096389               0.001378814               0.000000000               0.000000000               0.000000000               0.000000000              -0.000044544               0.005478777              -0.000030295              -0.000701550               0.002060090               0.001358541               0.000000000               0.000000000               0.000000000               0.000000000               0.000642500               0.006189279               0.002632709              -0.000532724               0.002240646               0.001707922               0.000000000               0.000000000               0.000000000               0.000000000              -0.000789174               0.007246166               0.002078733              -0.001201709               0.002815934               0.001614224               0.000000000               0.000000000               0.000000000               0.000000000              -0.001893815               0.008418509               0.001415251              -0.001762490               0.003393638               0.001631148               0.000000000               0.000000000               0.000000000               0.000000000              -0.001934993               0.008471200               0.001025679              -0.001784518               0.003418544               0.001634026               0.000000000               0.000000000               0.000000000               0.000000000              -0.001718258               0.008242568               0.000784222              -0.001674664               0.003305716               0.001631053               0.000000000               0.000000000               0.000000000               0.000000000              -0.001439636               0.007945224               0.000626579              -0.001533013               0.003159386               0.001626373               0.000000000               0.000000000               0.000000000               0.000000000              -0.001148098               0.007652349               0.000521092              -0.001387077               0.003013116               0.001626039               0.000000000               0.000000000               0.000000000               0.000000000              -0.000884214               0.007345722               0.000444585              -0.001249792               0.002865147               0.001615355               0.000000000               0.000000000               0.000000000               0.000000000              -0.000655128               0.007014303               0.000387377              -0.001122458               0.002712230               0.001589772               0.000000000               0.000000000               0.000000000               0.000000000              -0.000462753               0.006682427               0.000334067              -0.001008833               0.002563731               0.001554898               0.000000000               0.000000000               0.000000000               0.000000000              -0.000318293               0.006373399               0.000270902              -0.000916033               0.002429789               0.001513757               0.000000000               0.000000000               0.000000000               0.000000000              -0.000224356               0.006102797               0.000197069              -0.000846981               0.002316573               0.001469591               0.000000000               0.000000000               0.000000000               0.000000000              -0.000173959               0.005869602               0.000120720              -0.000798933               0.002222825               0.001423892               0.000000000               0.000000000               0.000000000               0.000000000              -0.000148556               0.005660961               0.000052852              -0.000763327               0.002141410               0.001378084               0.000000000               0.000000000               0.000000000               0.000000000              -0.000130587               0.005465740               0.000003288              -0.000732186               0.002065957               0.001333771               0.000000000               0.000000000               0.000000000               0.000000000              -0.000113692               0.005289823              -0.000017391              -0.000703860               0.001997877               0.001294016               0.000000000               0.000000000               0.000000000               0.000000000              -0.000101362               0.005201820              -0.000019990              -0.000688237               0.001963335               0.001275098               0.000000000               0.000000000               0.000000000               0.000000000              -0.000236514               0.004447477               0.001908270              -0.000644627               0.001697353               0.001052725               0.000000000               0.000000000               0.000000000               0.000000000              -0.001235402               0.005872102               0.001949090              -0.001197287               0.002356443               0.001159156               0.000000000               0.000000000               0.000000000               0.000000000              -0.002123538               0.007400497               0.001789338              -0.001721385               0.003040602               0.001319217               0.000000000               0.000000000               0.000000000               0.000000000              -0.002080244               0.007775758               0.001465424              -0.001752057               0.003175912               0.001423855               0.000000000               0.000000000               0.000000000               0.000000000              -0.001815671               0.007762800               0.001197456              -0.001651223               0.003137982               0.001486759               0.000000000               0.000000000               0.000000000               0.000000000              -0.001505245               0.007626946               0.000995124              -0.001517832               0.003048234               0.001530402               0.000000000               0.000000000               0.000000000               0.000000000              -0.001196062               0.007446043               0.000842623              -0.001379275               0.002941748               0.001562472               0.000000000               0.000000000               0.000000000               0.000000000              -0.000919120               0.007209815               0.000724960              -0.001245894               0.002818546               0.001572652               0.000000000               0.000000000               0.000000000               0.000000000              -0.000682568               0.006927491               0.000629118              -0.001121897               0.002683106               0.001561210               0.000000000               0.000000000               0.000000000               0.000000000              -0.000486370               0.006619218               0.000539308              -0.001009789               0.002542980               0.001533191               0.000000000               0.000000000               0.000000000               0.000000000              -0.000335738               0.006311584               0.000443140              -0.000914848               0.002408790               0.001493942               0.000000000               0.000000000               0.000000000               0.000000000              -0.000236363               0.006028311               0.000338197              -0.000842173               0.002290141               0.001447968               0.000000000               0.000000000               0.000000000               0.000000000              -0.000187116               0.005777425               0.000233457              -0.000792345               0.002189904               0.001397559               0.000000000               0.000000000               0.000000000               0.000000000              -0.000176052               0.005555907               0.000138790              -0.000760506               0.002105452               0.001344946               0.000000000               0.000000000               0.000000000               0.000000000              -0.000188420               0.005355015               0.000061499              -0.000740033               0.002031665               0.001291632               0.000000000               0.000000000               0.000000000               0.000000000              -0.000210831               0.005170619               0.000013929              -0.000725387               0.001965318               0.001239931               0.000000000               0.000000000               0.000000000               0.000000000              -0.000220718               0.005079587              -0.000000720              -0.000717716               0.001932417               0.001214701               0.000000000               0.000000000               0.000000000               0.000000000              -0.001407637               0.002867431               0.001176933              -0.000886291               0.001251231               0.000364940               0.000000000               0.000000000               0.000000000               0.000000000              -0.001746135               0.004502214               0.001750810              -0.001217575               0.001906581               0.000689005               0.000000000               0.000000000               0.000000000               0.000000000              -0.002269090               0.006231240               0.002080349              -0.001629810               0.002620329               0.000990518               0.000000000               0.000000000               0.000000000               0.000000000              -0.002152883               0.006907804               0.001884457              -0.001670803               0.002859512               0.001188709               0.000000000               0.000000000               0.000000000               0.000000000              -0.001866924               0.007143841               0.001620522              -0.001593073               0.002912281               0.001319207               0.000000000               0.000000000               0.000000000               0.000000000              -0.001547811               0.007198735               0.001387537              -0.001480268               0.002892977               0.001412709               0.000000000               0.000000000               0.000000000               0.000000000              -0.001239995               0.007155904               0.001194650              -0.001359483               0.002838438               0.001478955               0.000000000               0.000000000               0.000000000               0.000000000              -0.000962516               0.007022378               0.001040006              -0.001238738               0.002753682               0.001514944               0.000000000               0.000000000               0.000000000               0.000000000              -0.000718967               0.006825983               0.000910301              -0.001122858               0.002649591               0.001526733               0.000000000               0.000000000               0.000000000               0.000000000              -0.000511569               0.006585468               0.000788654              -0.001015019               0.002533474               0.001518454               0.000000000               0.000000000               0.000000000               0.000000000              -0.000340796               0.006319480               0.000667276              -0.000917731               0.002412383               0.001494651               0.000000000               0.000000000               0.000000000               0.000000000              -0.000213981               0.006046901               0.000542006              -0.000836103               0.002294314               0.001458211               0.000000000               0.000000000               0.000000000               0.000000000              -0.000140316               0.005784469               0.000415781              -0.000775675               0.002186695               0.001411020               0.000000000               0.000000000               0.000000000               0.000000000              -0.000121090               0.005547527               0.000291870              -0.000738848               0.002095440               0.001356592               0.000000000               0.000000000               0.000000000               0.000000000              -0.000149867               0.005343390               0.000175118              -0.000724122               0.002022486               0.001298364               0.000000000               0.000000000               0.000000000               0.000000000              -0.000222341               0.005163119               0.000074978              -0.000728766               0.001963944               0.001235178               0.000000000               0.000000000               0.000000000               0.000000000              -0.000286184               0.005063647               0.000023813              -0.000740273               0.001934623               0.001194350               0.000000000               0.000000000               0.000000000               0.000000000              -0.002787342               0.001560046               0.000496162              -0.001240257               0.000933428              -0.000306829               0.000000000               0.000000000               0.000000000               0.000000000              -0.002372883               0.003212959               0.001463307              -0.001291449               0.001501458               0.000210009               0.000000000               0.000000000               0.000000000               0.000000000              -0.002367504               0.004924296               0.002187457              -0.001503348               0.002142531               0.000639182               0.000000000               0.000000000               0.000000000               0.000000000              -0.002117442               0.005813314               0.002155988              -0.001520702               0.002444652               0.000923950               0.000000000               0.000000000               0.000000000               0.000000000              -0.001801617               0.006283020               0.001941746              -0.001460981               0.002581312               0.001120331               0.000000000               0.000000000               0.000000000               0.000000000              -0.001481588               0.006539359               0.001710518              -0.001373013               0.002637435               0.001264422               0.000000000               0.000000000               0.000000000               0.000000000              -0.001184082               0.006654950               0.001502499              -0.001275897               0.002643593               0.001367696               0.000000000               0.000000000               0.000000000               0.000000000              -0.000917265               0.006653425               0.001326755              -0.001175650               0.002609669               0.001434019               0.000000000               0.000000000               0.000000000               0.000000000              -0.000676696               0.006569335               0.001174462              -0.001074926               0.002548065               0.001473139               0.000000000               0.000000000               0.000000000               0.000000000              -0.000465774               0.006421432               0.001031034              -0.000977342               0.002466236               0.001488894               0.000000000               0.000000000               0.000000000               0.000000000              -0.000284458               0.006234195               0.000889921              -0.000885944               0.002373359               0.001487415               0.000000000               0.000000000               0.000000000               0.000000000              -0.000134070               0.006015392               0.000749143              -0.000802199               0.002272510               0.001470312               0.000000000               0.000000000               0.000000000               0.000000000              -0.000021674               0.005776874               0.000609140              -0.000730235               0.002169017               0.001438782               0.000000000               0.000000000               0.000000000               0.000000000               0.000038975               0.005544720               0.000464277              -0.000678473               0.002074379               0.001395906               0.000000000               0.000000000               0.000000000               0.000000000               0.000035703               0.005340939               0.000310317              -0.000654227               0.001998371               0.001344144               0.000000000               0.000000000               0.000000000               0.000000000              -0.000040287               0.005162916               0.000152365              -0.000660471               0.001941112               0.001280641               0.000000000               0.000000000               0.000000000               0.000000000              -0.000126102               0.005059045               0.000063969              -0.000679667               0.001912887               0.001233220               0.000000000               0.000000000               0.000000000               0.000000000              -0.004265139               0.000591031              -0.000045431              -0.001673304               0.000754773              -0.000918531               0.000000000               0.000000000               0.000000000               0.000000000              -0.003074154               0.002070190               0.001123701              -0.001411579               0.001160581              -0.000250998               0.000000000               0.000000000               0.000000000               0.000000000              -0.002445539               0.003588473               0.002087449              -0.001365634               0.001651356               0.000285722               0.000000000               0.000000000               0.000000000               0.000000000              -0.001997855               0.004583053               0.002207035              -0.001322075               0.001968360               0.000646285               0.000000000               0.000000000               0.000000000               0.000000000              -0.001626896               0.005235997               0.002069764              -0.001264584               0.002166842               0.000902258               0.000000000               0.000000000               0.000000000               0.000000000              -0.001301755               0.005680578               0.001871109              -0.001198228               0.002292916               0.001094688               0.000000000               0.000000000               0.000000000               0.000000000              -0.001015726               0.005957446               0.001676198              -0.001125576               0.002360987               0.001235411               0.000000000               0.000000000               0.000000000               0.000000000              -0.000764331               0.006094865               0.001504239              -0.001048480               0.002381094               0.001332614               0.000000000               0.000000000               0.000000000               0.000000000              -0.000535453               0.006138062               0.001348105              -0.000968051               0.002368684               0.001400633               0.000000000               0.000000000               0.000000000               0.000000000              -0.000325979               0.006105935               0.001196522              -0.000885482               0.002330452               0.001444970               0.000000000               0.000000000               0.000000000               0.000000000              -0.000139598               0.006017375               0.001048542              -0.000804520               0.002273945               0.001469425               0.000000000               0.000000000               0.000000000               0.000000000               0.000030609               0.005882684               0.000907911              -0.000723856               0.002202160               0.001478304               0.000000000               0.000000000               0.000000000               0.000000000               0.000185187               0.005710832               0.000767221              -0.000644408               0.002118394               0.001473987               0.000000000               0.000000000               0.000000000               0.000000000               0.000306987               0.005521315               0.000609521              -0.000575043               0.002032101               0.001457058               0.000000000               0.000000000               0.000000000               0.000000000               0.000374486               0.005335725               0.000427800              -0.000526532               0.001954068               0.001427536               0.000000000               0.000000000               0.000000000               0.000000000               0.000368962               0.005162667               0.000224286              -0.000506971               0.001889862               0.001382891               0.000000000               0.000000000               0.000000000               0.000000000               0.000327055               0.005067237               0.000111969              -0.000510758               0.001859315               0.001348557               0.000000000               0.000000000               0.000000000               0.000000000              -0.005691023              -0.000048396              -0.000368702              -0.002128082               0.000693224              -0.001434858               0.000000000               0.000000000               0.000000000               0.000000000              -0.003779824               0.001141421               0.000780086              -0.001560110               0.000900504              -0.000659606               0.000000000               0.000000000               0.000000000               0.000000000              -0.002516467               0.002355161               0.001780130              -0.001238068               0.001197734              -0.000040334               0.000000000               0.000000000               0.000000000               0.000000000              -0.001828466               0.003356323               0.001993141              -0.001105213               0.001487166               0.000381953               0.000000000               0.000000000               0.000000000               0.000000000              -0.001375209               0.004127303               0.001932812              -0.001031615               0.001719625               0.000688010               0.000000000               0.000000000               0.000000000               0.000000000              -0.001030112               0.004717574               0.001787936              -0.000975987               0.001897837               0.000921850               0.000000000               0.000000000               0.000000000               0.000000000              -0.000747149               0.005134629               0.001629540              -0.000922008               0.002018861               0.001096853               0.000000000               0.000000000               0.000000000               0.000000000              -0.000508519               0.005403125               0.001480930              -0.000866084               0.002089718               0.001223634               0.000000000               0.000000000               0.000000000               0.000000000              -0.000298746               0.005565413               0.001340694              -0.000807705               0.002124354               0.001316649               0.000000000               0.000000000               0.000000000               0.000000000              -0.000101328               0.005651280               0.001199588              -0.000744407               0.002131877               0.001387470               0.000000000               0.000000000               0.000000000               0.000000000               0.000093067               0.005671307               0.001064973              -0.000674012               0.002115087               0.001441075               0.000000000               0.000000000               0.000000000               0.000000000               0.000285051               0.005631263               0.000942625              -0.000597013               0.002076073               0.001479060               0.000000000               0.000000000               0.000000000               0.000000000               0.000474489               0.005552026               0.000815641              -0.000516069               0.002022680               0.001506611               0.000000000               0.000000000               0.000000000               0.000000000               0.000656761               0.005440081               0.000663883              -0.000433724               0.001957917               0.001524193               0.000000000               0.000000000               0.000000000               0.000000000               0.000820877               0.005303822               0.000478998              -0.000355148               0.001886306               0.001531157               0.000000000               0.000000000               0.000000000               0.000000000               0.000946819               0.005154379               0.000257660              -0.000289240               0.001814522               0.001525283               0.000000000               0.000000000               0.000000000               0.000000000               0.001012399               0.005081375               0.000140251              -0.000255522               0.001778949               0.001523427               0.000000000               0.000000000               0.000000000               0.000000000              -0.006889283              -0.000413699              -0.000440644              -0.002531767               0.000706018              -0.001825749               0.000000000               0.000000000               0.000000000               0.000000000              -0.004395181               0.000469118               0.000472461              -0.001706831               0.000725311              -0.000981520               0.000000000               0.000000000               0.000000000               0.000000000              -0.002584362               0.001357337               0.001295491              -0.001138801               0.000832040              -0.000306762               0.000000000               0.000000000               0.000000000               0.000000000              -0.001658933               0.002302684               0.001514879              -0.000909934               0.001070864               0.000160930               0.000000000               0.000000000               0.000000000               0.000000000              -0.001108125               0.003129925               0.001505965              -0.000806786               0.001312226               0.000505440               0.000000000               0.000000000               0.000000000               0.000000000              -0.000730810               0.003812267               0.001418525              -0.000750586               0.001520938               0.000770352               0.000000000               0.000000000               0.000000000               0.000000000              -0.000447031               0.004330010               0.001311261              -0.000708887               0.001679618               0.000970731               0.000000000               0.000000000               0.000000000               0.000000000              -0.000219417               0.004705368               0.001200881              -0.000670451               0.001791924               0.001121473               0.000000000               0.000000000               0.000000000               0.000000000              -0.000023492               0.004972048               0.001092027              -0.000630315               0.001867438               0.001237123               0.000000000               0.000000000               0.000000000               0.000000000               0.000163297               0.005155638               0.000985119              -0.000583217               0.001912935               0.001329717               0.000000000               0.000000000               0.000000000               0.000000000               0.000360915               0.005273113               0.000885786              -0.000523795               0.001932285               0.001408490               0.000000000               0.000000000               0.000000000               0.000000000               0.000567770               0.005329719               0.000793405              -0.000453300               0.001927655               0.001474355               0.000000000               0.000000000               0.000000000               0.000000000               0.000785898               0.005341370               0.000695806              -0.000372959               0.001904758               0.001531800               0.000000000               0.000000000               0.000000000               0.000000000               0.001020353               0.005310159               0.000577048              -0.000281137               0.001863748               0.001582611               0.000000000               0.000000000               0.000000000               0.000000000               0.001274297               0.005238491               0.000424273              -0.000176950               0.001805129               0.001628180               0.000000000               0.000000000               0.000000000               0.000000000               0.001546513               0.005131898               0.000229697              -0.000061545               0.001731131               0.001669585               0.000000000               0.000000000               0.000000000               0.000000000               0.001748735               0.005092771               0.000129729               0.000019179               0.001691181               0.001710359               0.000000000               0.000000000               0.000000000               0.000000000              -0.007692402              -0.000584192              -0.000287266              -0.002811625               0.000742473              -0.002069152               0.000000000               0.000000000               0.000000000               0.000000000              -0.004818958               0.000070104               0.000216628              -0.001815871               0.000628654              -0.001187217               0.000000000               0.000000000               0.000000000               0.000000000              -0.002639359               0.000711396               0.000680301              -0.001078683               0.000596688              -0.000481994               0.000000000               0.000000000               0.000000000               0.000000000              -0.001540151               0.001586893               0.000818950              -0.000775917               0.000787597               0.000011680               0.000000000               0.000000000               0.000000000               0.000000000              -0.000908843               0.002425172               0.000827082              -0.000643961               0.001023036               0.000379075               0.000000000               0.000000000               0.000000000               0.000000000              -0.000496990               0.003156602               0.000787833              -0.000580945               0.001245838               0.000664893               0.000000000               0.000000000               0.000000000               0.000000000              -0.000210722               0.003738589               0.000735184              -0.000546343               0.001428298               0.000881955               0.000000000               0.000000000               0.000000000               0.000000000               0.000007245               0.004180999               0.000676875              -0.000519907               0.001566955               0.001047048               0.000000000               0.000000000               0.000000000               0.000000000               0.000195735               0.004515247               0.000616556              -0.000491004               0.001668735               0.001177731               0.000000000               0.000000000               0.000000000               0.000000000               0.000381430               0.004768290               0.000559048              -0.000452999               0.001740414               0.001287415               0.000000000               0.000000000               0.000000000               0.000000000               0.000577625               0.004955639               0.000506488              -0.000402845               0.001786145               0.001383300               0.000000000               0.000000000               0.000000000               0.000000000               0.000789834               0.005084400               0.000456441              -0.000339362               0.001807904               0.001468542               0.000000000               0.000000000               0.000000000               0.000000000               0.001026997               0.005163672               0.000403878              -0.000260335               0.001807985               0.001547650               0.000000000               0.000000000               0.000000000               0.000000000               0.001298526               0.005192150               0.000337640              -0.000162071               0.001784723               0.001622652               0.000000000               0.000000000               0.000000000               0.000000000               0.001619332               0.005171064               0.000250555              -0.000039134               0.001736715               0.001697582               0.000000000               0.000000000               0.000000000               0.000000000               0.002006081               0.005101174               0.000138123               0.000114632               0.001662164               0.001776796               0.000000000               0.000000000               0.000000000               0.000000000               0.002319137               0.005090070               0.000081652               0.000233415               0.001618868               0.001852283               0.000000000               0.000000000               0.000000000               0.000000000              -0.007976640              -0.000633562              -0.000000000              -0.002912043               0.000759489              -0.002152554               0.000000000               0.000000000               0.000000000               0.000000000              -0.004971306              -0.000063787              -0.000000000              -0.001856265               0.000597489              -0.001258776               0.000000000               0.000000000               0.000000000               0.000000000              -0.002661084               0.000487187               0.000000000              -0.001058804               0.000515327              -0.000543477               0.000000000               0.000000000               0.000000000               0.000000000              -0.001497041               0.001334151               0.000000000              -0.000728158               0.000687431              -0.000040726               0.000000000               0.000000000               0.000000000               0.000000000              -0.000834965               0.002170391               0.000000000              -0.000584409               0.000918260               0.000333850               0.000000000               0.000000000               0.000000000               0.000000000              -0.000407355               0.002916927               0.000000000              -0.000517373               0.001144757               0.000627384               0.000000000               0.000000000               0.000000000               0.000000000              -0.000119238               0.003521285               0.000000000              -0.000484874               0.001335375               0.000850501               0.000000000               0.000000000               0.000000000               0.000000000               0.000094454               0.003985885               0.000000000              -0.000462814               0.001482886               0.001020072               0.000000000               0.000000000               0.000000000               0.000000000               0.000279639               0.004342135              -0.000000000              -0.000437901               0.001593331               0.001155430               0.000000000               0.000000000               0.000000000               0.000000000               0.000465253               0.004619760              -0.000000000              -0.000402999               0.001674238               0.001271239               0.000000000               0.000000000               0.000000000               0.000000000               0.000660614               0.004833153               0.000000000              -0.000356413               0.001729839               0.001373426               0.000000000               0.000000000               0.000000000               0.000000000               0.000875246               0.004989295               0.000000000              -0.000295444               0.001761563               0.001466119               0.000000000               0.000000000               0.000000000               0.000000000               0.001117743               0.005094065               0.000000000              -0.000217604               0.001770539               0.001552935               0.000000000               0.000000000               0.000000000               0.000000000               0.001402454               0.005144983               0.000000000              -0.000117202               0.001754045               0.001636842               0.000000000               0.000000000               0.000000000               0.000000000               0.001751012               0.005142802               0.000000000               0.000013779               0.001709657               0.001723436               0.000000000               0.000000000               0.000000000               0.000000000               0.002182050               0.005086155               0.000000000               0.000182498               0.001634535               0.001817033               0.000000000               0.000000000               0.000000000               0.000000000               0.002535591               0.005084696               0.000000000               0.000315257               0.001589796               0.001905053               0.000000000               0.000000000               0.000000000               0.000000000               0.001857857               0.020631155               0.000000000              -0.001882193               0.007504381               0.005622187               0.000000000               0.000000000               0.000000000               0.000000000               0.001862835               0.016301467               0.000000000              -0.001339117               0.005880140               0.004541023               0.000000000               0.000000000               0.000000000               0.000000000               0.002468227               0.012798558               0.000000000              -0.000674233               0.004490888               0.003816655               0.000000000               0.000000000               0.000000000               0.000000000               0.002399367               0.010842288               0.000000000              -0.000455522               0.003765901               0.003310378               0.000000000               0.000000000               0.000000000               0.000000000               0.002124721               0.009634407               0.000000000              -0.000407529               0.003347280               0.002939751               0.000000000               0.000000000               0.000000000               0.000000000               0.001800317               0.008822366               0.000000000              -0.000427676               0.003083318               0.002655642               0.000000000               0.000000000               0.000000000               0.000000000               0.001485196               0.008224090               0.000000000              -0.000471062               0.002898356               0.002427295               0.000000000               0.000000000               0.000000000               0.000000000               0.001209481               0.007758841               0.000000000              -0.000516298               0.002758354               0.002242056               0.000000000               0.000000000               0.000000000               0.000000000               0.000966610               0.007371548               0.000000000              -0.000558963               0.002643479               0.002084516               0.000000000               0.000000000               0.000000000               0.000000000               0.000753979               0.007023370               0.000000000              -0.000595178               0.002539493               0.001944315               0.000000000               0.000000000               0.000000000               0.000000000               0.000572684               0.006691926              -0.000000000              -0.000621733               0.002437864               0.001816131               0.000000000               0.000000000               0.000000000               0.000000000               0.000417525               0.006362431              -0.000000000              -0.000638730               0.002333699               0.001694969               0.000000000               0.000000000               0.000000000               0.000000000               0.000285761               0.006023905              -0.000000000              -0.000645826               0.002223224               0.001577398               0.000000000               0.000000000               0.000000000               0.000000000               0.000175005               0.005665226              -0.000000000              -0.000642525               0.002102565               0.001460040               0.000000000               0.000000000               0.000000000               0.000000000               0.000092037               0.005270706               0.000000000              -0.000624323               0.001964992               0.001340669               0.000000000               0.000000000               0.000000000               0.000000000               0.000039198               0.004817114               0.000000000              -0.000587439               0.001801502               0.001214063               0.000000000               0.000000000               0.000000000               0.000000000              -0.000017362               0.004465564               0.000000000              -0.000564705               0.001676742               0.001112037               0.000000000               0.000000000               0.000000000               0.000000000               0.001932476               0.020218719              -0.001422785              -0.001802657               0.007340391               0.005537734               0.000000000               0.000000000               0.000000000               0.000000000               0.001836827               0.016032868              -0.000741803              -0.001315295               0.005782668               0.004467372               0.000000000               0.000000000               0.000000000               0.000000000               0.002337433               0.012686517              -0.000062910              -0.000709276               0.004465222               0.003755946               0.000000000               0.000000000               0.000000000               0.000000000               0.002227034               0.010809807               0.000225263              -0.000516087               0.003775262               0.003259175               0.000000000               0.000000000               0.000000000               0.000000000               0.001938624               0.009640782               0.000345738              -0.000478113               0.003372933               0.002894820               0.000000000               0.000000000               0.000000000               0.000000000               0.001621223               0.008846521               0.000387420              -0.000497856               0.003114763               0.002616907               0.000000000               0.000000000               0.000000000               0.000000000               0.001324454               0.008261130               0.000394732              -0.000535970               0.002932339               0.002396369               0.000000000               0.000000000               0.000000000               0.000000000               0.001064396               0.007800234               0.000388640              -0.000575879               0.002792012               0.002216132               0.000000000               0.000000000               0.000000000               0.000000000               0.000838667               0.007409937               0.000373510              -0.000611741               0.002673868               0.002062127               0.000000000               0.000000000               0.000000000               0.000000000               0.000645449               0.007058230               0.000353338              -0.000640234               0.002566131               0.001925897               0.000000000               0.000000000               0.000000000               0.000000000               0.000484803               0.006725450               0.000332013              -0.000658878               0.002461420               0.001802542               0.000000000               0.000000000               0.000000000               0.000000000               0.000351714               0.006400969               0.000309960              -0.000668227               0.002356377               0.001688150               0.000000000               0.000000000               0.000000000               0.000000000               0.000238340               0.006073952               0.000283837              -0.000669865               0.002247919               0.001578054               0.000000000               0.000000000               0.000000000               0.000000000               0.000143694               0.005731328               0.000247537              -0.000662529               0.002131267               0.001468737               0.000000000               0.000000000               0.000000000               0.000000000               0.000074923               0.005361721               0.000192655              -0.000642117               0.002001262               0.001359144               0.000000000               0.000000000               0.000000000               0.000000000               0.000030242               0.004951191               0.000110790              -0.000607557               0.001852899               0.001245343               0.000000000               0.000000000               0.000000000               0.000000000              -0.000017946               0.004645512               0.000067880              -0.000587417               0.001744294               0.001156877               0.000000000               0.000000000               0.000000000               0.000000000               0.002121802               0.019040967              -0.002656023              -0.001584442               0.006875072               0.005290630               0.000000000               0.000000000               0.000000000               0.000000000               0.001748926               0.015268535              -0.001385273              -0.001252717               0.005507033               0.004254316               0.000000000               0.000000000               0.000000000               0.000000000               0.001955391               0.012359532              -0.000131770              -0.000811668               0.004390359               0.003578691               0.000000000               0.000000000               0.000000000               0.000000000               0.001738751               0.010705003               0.000381367              -0.000686092               0.003796996               0.003110904               0.000000000               0.000000000               0.000000000               0.000000000               0.001432210               0.009646483               0.000589014              -0.000668730               0.003438372               0.002769642               0.000000000               0.000000000               0.000000000               0.000000000               0.001138280               0.008902345               0.000660609              -0.000685936               0.003196064               0.002510128               0.000000000               0.000000000               0.000000000               0.000000000               0.000884830               0.008340846               0.000671932              -0.000710793               0.003017185               0.002306392               0.000000000               0.000000000               0.000000000               0.000000000               0.000674788               0.007888459               0.000657293              -0.000733010               0.002873797               0.002140787               0.000000000               0.000000000               0.000000000               0.000000000               0.000503474               0.007499008               0.000628102              -0.000748571               0.002749168               0.002000597               0.000000000               0.000000000               0.000000000               0.000000000               0.000364580               0.007145066               0.000590490              -0.000756414               0.002633803               0.001877389               0.000000000               0.000000000               0.000000000               0.000000000               0.000254715               0.006814873               0.000549736              -0.000756339               0.002523715               0.001767376               0.000000000               0.000000000               0.000000000               0.000000000               0.000166993               0.006499370               0.000508410              -0.000749797               0.002416367               0.001666570               0.000000000               0.000000000               0.000000000               0.000000000               0.000098936               0.006192321               0.000458921              -0.000736938               0.002309732               0.001572795               0.000000000               0.000000000               0.000000000               0.000000000               0.000049401               0.005888114               0.000391436              -0.000717487               0.002201847               0.001484360               0.000000000               0.000000000               0.000000000               0.000000000               0.000020589               0.005586523               0.000295686              -0.000690593               0.002092353               0.001401760               0.000000000               0.000000000               0.000000000               0.000000000               0.000006131               0.005288753               0.000165381              -0.000658794               0.001982498               0.001323704               0.000000000               0.000000000               0.000000000               0.000000000              -0.000016949               0.005092070               0.000097893              -0.000642863               0.001911627               0.001268764               0.000000000               0.000000000               0.000000000               0.000000000               0.002325869               0.017247150              -0.003547417              -0.001283692               0.006176889               0.004893197               0.000000000               0.000000000               0.000000000               0.000000000               0.001567223               0.014120037              -0.001859540              -0.001177294               0.005099063               0.003921769               0.000000000               0.000000000               0.000000000               0.000000000               0.001365007               0.011859145              -0.000216246              -0.000970513               0.004276513               0.003306000               0.000000000               0.000000000               0.000000000               0.000000000               0.001023873               0.010518279               0.000422941              -0.000930830               0.003816335               0.002885505               0.000000000               0.000000000               0.000000000               0.000000000               0.000716913               0.009612054               0.000667834              -0.000932662               0.003514873               0.002582211               0.000000000               0.000000000               0.000000000               0.000000000               0.000477278               0.008940000               0.000747394              -0.000938519               0.003292810               0.002354291               0.000000000               0.000000000               0.000000000               0.000000000               0.000298261               0.008408340               0.000757836              -0.000939193               0.003115816               0.002176624               0.000000000               0.000000000               0.000000000               0.000000000               0.000167611               0.007963319               0.000739044              -0.000932559               0.002965266               0.002032707               0.000000000               0.000000000               0.000000000               0.000000000               0.000075433               0.007575520               0.000699961              -0.000918651               0.002831365               0.001912714               0.000000000               0.000000000               0.000000000               0.000000000               0.000006669               0.007221973               0.000651022              -0.000900244               0.002707381               0.001807138               0.000000000               0.000000000               0.000000000               0.000000000              -0.000036361               0.006899024               0.000599893              -0.000876011               0.002591656               0.001715644               0.000000000               0.000000000               0.000000000               0.000000000              -0.000054289               0.006602799               0.000546759              -0.000845706               0.002482813               0.001637107               0.000000000               0.000000000               0.000000000               0.000000000              -0.000055014               0.006329265               0.000484378              -0.000811787               0.002380329               0.001568543               0.000000000               0.000000000               0.000000000               0.000000000              -0.000045247               0.006080662               0.000404077              -0.000777048               0.002285883               0.001508835               0.000000000               0.000000000               0.000000000               0.000000000              -0.000029845               0.005866996               0.000296390              -0.000744565               0.002203834               0.001459269               0.000000000               0.000000000               0.000000000               0.000000000              -0.000015778               0.005701165               0.000159914              -0.000718561               0.002139890               0.001421329               0.000000000               0.000000000               0.000000000               0.000000000              -0.000014639               0.005617262               0.000088274              -0.000707646               0.002108284               0.001400638               0.000000000               0.000000000               0.000000000               0.000000000               0.002427193               0.015038529              -0.004027289              -0.000969620               0.005335999               0.004366379               0.000000000               0.000000000               0.000000000               0.000000000               0.001268541               0.012731699              -0.002147618              -0.001115758               0.004615776               0.003500018               0.000000000               0.000000000               0.000000000               0.000000000               0.000640528               0.011244107              -0.000339424              -0.001165313               0.004136436               0.002971123               0.000000000               0.000000000               0.000000000               0.000000000               0.000212823               0.010245945               0.000323660              -0.001200932               0.003815591               0.002614660               0.000000000               0.000000000               0.000000000               0.000000000              -0.000057043               0.009500510               0.000564875              -0.001208952               0.003569789               0.002360837               0.000000000               0.000000000               0.000000000               0.000000000              -0.000210536               0.008904636               0.000640704              -0.001192028               0.003365525               0.002173497               0.000000000               0.000000000               0.000000000               0.000000000              -0.000288793               0.008405507               0.000649848              -0.001158983               0.003188135               0.002029152               0.000000000               0.000000000               0.000000000               0.000000000              -0.000324145               0.007972557               0.000631289              -0.001118121               0.003030200               0.001912078               0.000000000               0.000000000               0.000000000               0.000000000              -0.000327610               0.007588610               0.000594108              -0.001071427               0.002886654               0.001815227               0.000000000               0.000000000               0.000000000               0.000000000              -0.000309156               0.007244823               0.000545853              -0.001021534               0.002755428               0.001733894               0.000000000               0.000000000               0.000000000               0.000000000              -0.000271999               0.006938492               0.000495870              -0.000969309               0.002635911               0.001666602               0.000000000               0.000000000               0.000000000               0.000000000              -0.000219585               0.006669100               0.000442585              -0.000915980               0.002528338               0.001612358               0.000000000               0.000000000               0.000000000               0.000000000              -0.000161481               0.006433107               0.000379197              -0.000864692               0.002432578               0.001567886               0.000000000               0.000000000               0.000000000               0.000000000              -0.000103740               0.006237773               0.000303239              -0.000818622               0.002352111               0.001533489               0.000000000               0.000000000               0.000000000               0.000000000              -0.000055079               0.006094562               0.000213272              -0.000782473               0.002292325               0.001509852               0.000000000               0.000000000               0.000000000               0.000000000              -0.000021846               0.006009167               0.000108907              -0.000759336               0.002256148               0.001496811               0.000000000               0.000000000               0.000000000               0.000000000              -0.000009869               0.005980179               0.000054432              -0.000751222               0.002243780               0.001492559               0.000000000               0.000000000               0.000000000               0.000000000               0.002324782               0.012643058              -0.004098097              -0.000708591               0.004450507               0.003741915               0.000000000               0.000000000               0.000000000               0.000000000               0.000851142               0.011247988              -0.002268700              -0.001086819               0.004111564               0.003024745               0.000000000               0.000000000               0.000000000               0.000000000              -0.000127657               0.010560884              -0.000521106              -0.001367978               0.003976252               0.002608274               0.000000000               0.000000000               0.000000000               0.000000000              -0.000563634               0.009886100               0.000090215              -0.001447122               0.003777708               0.002330586               0.000000000               0.000000000               0.000000000               0.000000000              -0.000745209               0.009285810               0.000311246              -0.001440176               0.003575298               0.002135121               0.000000000               0.000000000               0.000000000               0.000000000              -0.000790488               0.008764139               0.000383818              -0.001391947               0.003385333               0.001993386               0.000000000               0.000000000               0.000000000               0.000000000              -0.000760980               0.008304992               0.000400513              -0.001323488               0.003209466               0.001885977               0.000000000               0.000000000               0.000000000               0.000000000              -0.000693547               0.007898393               0.000394075              -0.001247376               0.003048563               0.001801187               0.000000000               0.000000000               0.000000000               0.000000000              -0.000607286               0.007532098               0.000369607              -0.001169242               0.002900421               0.001731180               0.000000000               0.000000000               0.000000000               0.000000000              -0.000511017               0.007206770               0.000332967              -0.001092475               0.002766391               0.001673916               0.000000000               0.000000000               0.000000000               0.000000000              -0.000408811               0.006919724               0.000294989              -0.001018267               0.002645974               0.001627707               0.000000000               0.000000000               0.000000000               0.000000000              -0.000306399               0.006667163               0.000253359              -0.000948292               0.002538463               0.001590170               0.000000000               0.000000000               0.000000000               0.000000000              -0.000214726               0.006449362               0.000206455              -0.000886690               0.002445329               0.001558639               0.000000000               0.000000000               0.000000000               0.000000000              -0.000134626               0.006278340               0.000159185              -0.000835275               0.002371184               0.001535909               0.000000000               0.000000000               0.000000000               0.000000000              -0.000072840               0.006154286               0.000108860              -0.000796599               0.002316941               0.001520342               0.000000000               0.000000000               0.000000000               0.000000000              -0.000029768               0.006066496               0.000053461              -0.000769473               0.002278636               0.001509163               0.000000000               0.000000000               0.000000000               0.000000000              -0.000021855               0.006016344               0.000031318              -0.000760237               0.002258840               0.001498603               0.000000000               0.000000000               0.000000000               0.000000000               0.001962598               0.010264775              -0.003826124              -0.000547125               0.003603932               0.003056806               0.000000000               0.000000000               0.000000000               0.000000000               0.000336214               0.009787135              -0.002267947              -0.001097311               0.003628115               0.002530805               0.000000000               0.000000000               0.000000000               0.000000000              -0.000850102               0.009845700              -0.000766944              -0.001549497               0.003798366               0.002248869               0.000000000               0.000000000               0.000000000               0.000000000              -0.001205013               0.009446250              -0.000242986              -0.001632657               0.003692937               0.002060280               0.000000000               0.000000000               0.000000000               0.000000000              -0.001255035               0.008971322              -0.000035166              -0.001592049               0.003521094               0.001929044               0.000000000               0.000000000               0.000000000               0.000000000              -0.001179237               0.008521686               0.000050306              -0.001507421               0.003343007               0.001835586               0.000000000               0.000000000               0.000000000               0.000000000              -0.001044983               0.008111743               0.000086797              -0.001405833               0.003172499               0.001766665               0.000000000               0.000000000               0.000000000               0.000000000              -0.000889861               0.007741523               0.000100313              -0.001301385               0.003014277               0.001712892               0.000000000               0.000000000               0.000000000               0.000000000              -0.000734367               0.007404721               0.000095484              -0.001200975               0.002868540               0.001667566               0.000000000               0.000000000               0.000000000               0.000000000              -0.000580839               0.007094084               0.000082748              -0.001104572               0.002732862               0.001628289               0.000000000               0.000000000               0.000000000               0.000000000              -0.000439444               0.006806863               0.000069837              -0.001015647               0.002607480               0.001591834               0.000000000               0.000000000               0.000000000               0.000000000              -0.000321674               0.006547192               0.000057417              -0.000939025               0.002495384               0.001556359               0.000000000               0.000000000               0.000000000               0.000000000              -0.000228211               0.006326938               0.000048353              -0.000876444               0.002401106               0.001524662               0.000000000               0.000000000               0.000000000               0.000000000              -0.000153711               0.006151046               0.000046056              -0.000826520               0.002325835               0.001499315               0.000000000               0.000000000               0.000000000               0.000000000              -0.000095199               0.006007922               0.000042823              -0.000786688               0.002264850               0.001478162               0.000000000               0.000000000               0.000000000               0.000000000              -0.000045171               0.005884417               0.000027918              -0.000752489               0.002212282               0.001459793               0.000000000               0.000000000               0.000000000               0.000000000              -0.000040704               0.005797233               0.000028539              -0.000739916               0.002179030               0.001439114               0.000000000               0.000000000               0.000000000               0.000000000               0.001368621               0.008058580              -0.003303864              -0.000494092               0.002850863               0.002356771               0.000000000               0.000000000               0.000000000               0.000000000              -0.000238272               0.008442291              -0.002188969              -0.001144637               0.003195614               0.002050977               0.000000000               0.000000000               0.000000000               0.000000000              -0.001451227               0.009120906              -0.001066601              -0.001684319               0.003601711               0.001917392               0.000000000               0.000000000               0.000000000               0.000000000              -0.001654734               0.008943517              -0.000624632              -0.001738461               0.003560629               0.001822169               0.000000000               0.000000000               0.000000000               0.000000000              -0.001555596               0.008585636              -0.000409257              -0.001656549               0.003414033               0.001757484               0.000000000               0.000000000               0.000000000               0.000000000              -0.001363771               0.008205100              -0.000293034              -0.001537048               0.003247355               0.001710307               0.000000000               0.000000000               0.000000000               0.000000000              -0.001141642               0.007848604              -0.000226827              -0.001409188               0.003085904               0.001676717               0.000000000               0.000000000               0.000000000               0.000000000              -0.000920969               0.007517020              -0.000183666              -0.001284988               0.002933978               0.001648990               0.000000000               0.000000000               0.000000000               0.000000000              -0.000716045               0.007192957              -0.000158305              -0.001167634               0.002786840               0.001619206               0.000000000               0.000000000               0.000000000               0.000000000              -0.000541946               0.006871482              -0.000140526              -0.001062162               0.002644525               0.001582363               0.000000000               0.000000000               0.000000000               0.000000000              -0.000400569               0.006569074              -0.000117697              -0.000971345               0.002513451               0.001542106               0.000000000               0.000000000               0.000000000               0.000000000              -0.000292938               0.006301584              -0.000086541              -0.000897548               0.002399690               0.001502142               0.000000000               0.000000000               0.000000000               0.000000000              -0.000216453               0.006076730              -0.000048438              -0.000840759               0.002305809               0.001465051               0.000000000               0.000000000               0.000000000               0.000000000              -0.000157634               0.005887221              -0.000007700              -0.000795013               0.002227392               0.001432378               0.000000000               0.000000000               0.000000000               0.000000000              -0.000105874               0.005720269               0.000022086              -0.000754735               0.002158315               0.001403581               0.000000000               0.000000000               0.000000000               0.000000000              -0.000056322               0.005571648               0.000026750              -0.000717575               0.002096389               0.001378814               0.000000000               0.000000000               0.000000000               0.000000000              -0.000044544               0.005478777               0.000030295              -0.000701550               0.002060090               0.001358541               0.000000000               0.000000000               0.000000000               0.000000000               0.000642500               0.006189279              -0.002632709              -0.000532724               0.002240646               0.001707922               0.000000000               0.000000000               0.000000000               0.000000000              -0.000789174               0.007246166              -0.002078733              -0.001201709               0.002815934               0.001614224               0.000000000               0.000000000               0.000000000               0.000000000              -0.001893815               0.008418509              -0.001415251              -0.001762490               0.003393638               0.001631148               0.000000000               0.000000000               0.000000000               0.000000000              -0.001934993               0.008471200              -0.001025679              -0.001784518               0.003418544               0.001634026               0.000000000               0.000000000               0.000000000               0.000000000              -0.001718258               0.008242568              -0.000784222              -0.001674664               0.003305716               0.001631053               0.000000000               0.000000000               0.000000000               0.000000000              -0.001439636               0.007945224              -0.000626579              -0.001533013               0.003159386               0.001626373               0.000000000               0.000000000               0.000000000               0.000000000              -0.001148098               0.007652349              -0.000521092              -0.001387077               0.003013116               0.001626039               0.000000000               0.000000000               0.000000000               0.000000000              -0.000884214               0.007345722              -0.000444585              -0.001249792               0.002865147               0.001615355               0.000000000               0.000000000               0.000000000               0.000000000              -0.000655128               0.007014303              -0.000387377              -0.001122458               0.002712230               0.001589772               0.000000000               0.000000000               0.000000000               0.000000000              -0.000462753               0.006682427              -0.000334067              -0.001008833               0.002563731               0.001554898               0.000000000               0.000000000               0.000000000               0.000000000              -0.000318293               0.006373399              -0.000270902              -0.000916033               0.002429789               0.001513757               0.000000000               0.000000000               0.000000000               0.000000000              -0.000224356               0.006102797              -0.000197069              -0.000846981               0.002316573               0.001469591               0.000000000               0.000000000               0.000000000               0.000000000              -0.000173959               0.005869602              -0.000120720              -0.000798933               0.002222825               0.001423892               0.000000000               0.000000000               0.000000000               0.000000000              -0.000148556               0.005660961              -0.000052852              -0.000763327               0.002141410               0.001378084               0.000000000               0.000000000               0.000000000               0.000000000              -0.000130587               0.005465740              -0.000003288              -0.000732186               0.002065957               0.001333771               0.000000000               0.000000000               0.000000000               0.000000000              -0.000113692               0.005289823               0.000017391              -0.000703860               0.001997877               0.001294016               0.000000000               0.000000000               0.000000000               0.000000000              -0.000101362               0.005201820               0.000019990              -0.000688237               0.001963335               0.001275098               0.000000000               0.000000000               0.000000000               0.000000000              -0.000236514               0.004447477              -0.001908270              -0.000644627               0.001697353               0.001052725               0.000000000               0.000000000               0.000000000               0.000000000              -0.001235402               0.005872102              -0.001949090              -0.001197287               0.002356443               0.001159156               0.000000000               0.000000000               0.000000000               0.000000000              -0.002123538               0.007400497              -0.001789338              -0.001721385               0.003040602               0.001319217               0.000000000               0.000000000               0.000000000               0.000000000              -0.002080244               0.007775758              -0.001465424              -0.001752057               0.003175912               0.001423855               0.000000000               0.000000000               0.000000000               0.000000000              -0.001815671               0.007762800              -0.001197456              -0.001651223               0.003137982               0.001486759               0.000000000               0.000000000               0.000000000               0.000000000              -0.001505245               0.007626946              -0.000995124              -0.001517832               0.003048234               0.001530402               0.000000000               0.000000000               0.000000000               0.000000000              -0.001196062               0.007446043              -0.000842623              -0.001379275               0.002941748               0.001562472               0.000000000               0.000000000               0.000000000               0.000000000              -0.000919120               0.007209815              -0.000724960              -0.001245894               0.002818546               0.001572652               0.000000000               0.000000000               0.000000000               0.000000000              -0.000682568               0.006927491              -0.000629118              -0.001121897               0.002683106               0.001561210               0.000000000               0.000000000               0.000000000               0.000000000              -0.000486370               0.006619218              -0.000539308              -0.001009789               0.002542980               0.001533191               0.000000000               0.000000000               0.000000000               0.000000000              -0.000335738               0.006311584              -0.000443140              -0.000914848               0.002408790               0.001493942               0.000000000               0.000000000               0.000000000               0.000000000              -0.000236363               0.006028311              -0.000338197              -0.000842173               0.002290141               0.001447968               0.000000000               0.000000000               0.000000000               0.000000000              -0.000187116               0.005777425              -0.000233457              -0.000792345               0.002189904               0.001397559               0.000000000               0.000000000               0.000000000               0.000000000              -0.000176052               0.005555907              -0.000138790              -0.000760506               0.002105452               0.001344946               0.000000000               0.000000000               0.000000000               0.000000000              -0.000188420               0.005355015              -0.000061499              -0.000740033               0.002031665               0.001291632               0.000000000               0.000000000               0.000000000               0.000000000              -0.000210831               0.005170619              -0.000013929              -0.000725387               0.001965318               0.001239931               0.000000000               0.000000000               0.000000000               0.000000000              -0.000220718               0.005079587               0.000000720              -0.000717716               0.001932417               0.001214701               0.000000000               0.000000000               0.000000000               0.000000000              -0.001407637               0.002867431              -0.001176933              -0.000886291               0.001251231               0.000364940               0.000000000               0.000000000               0.000000000               0.000000000              -0.001746135               0.004502214              -0.001750810              -0.001217575               0.001906581               0.000689005               0.000000000               0.000000000               0.000000000               0.000000000              -0.002269090               0.006231240              -0.002080349              -0.001629810               0.002620329               0.000990518               0.000000000               0.000000000               0.000000000               0.000000000              -0.002152883               0.006907804              -0.001884457              -0.001670803               0.002859512               0.001188709               0.000000000               0.000000000               0.000000000               0.000000000              -0.001866924               0.007143841              -0.001620522              -0.001593073               0.002912281               0.001319207               0.000000000               0.000000000               0.000000000               0.000000000              -0.001547811               0.007198735              -0.001387537              -0.001480268               0.002892977               0.001412709               0.000000000               0.000000000               0.000000000               0.000000000              -0.001239995               0.007155904              -0.001194650              -0.001359483               0.002838438               0.001478955               0.000000000               0.000000000               0.000000000               0.000000000              -0.000962516               0.007022378              -0.001040006              -0.001238738               0.002753682               0.001514944               0.000000000               0.000000000               0.000000000               0.000000000              -0.000718967               0.006825983              -0.000910301              -0.001122858               0.002649591               0.001526733               0.000000000               0.000000000               0.000000000               0.000000000              -0.000511569               0.006585468              -0.000788654              -0.001015019               0.002533474               0.001518454               0.000000000               0.000000000               0.000000000               0.000000000              -0.000340796               0.006319480              -0.000667276              -0.000917731               0.002412383               0.001494651               0.000000000               0.000000000               0.000000000               0.000000000              -0.000213981               0.006046901              -0.000542006              -0.000836103               0.002294314               0.001458211               0.000000000               0.000000000               0.000000000               0.000000000              -0.000140316               0.005784469              -0.000415781              -0.000775675               0.002186695               0.001411020               0.000000000               0.000000000               0.000000000               0.000000000              -0.000121090               0.005547527              -0.000291870              -0.000738848               0.002095440               0.001356592               0.000000000               0.000000000               0.000000000               0.000000000              -0.000149867               0.005343390              -0.000175118              -0.000724122               0.002022486               0.001298364               0.000000000               0.000000000               0.000000000               0.000000000              -0.000222341               0.005163119              -0.000074978              -0.000728766               0.001963944               0.001235178               0.000000000               0.000000000               0.000000000               0.000000000              -0.000286184               0.005063647              -0.000023813              -0.000740273               0.001934623               0.001194350               0.000000000               0.000000000               0.000000000               0.000000000              -0.002787342               0.001560046              -0.000496162              -0.001240257               0.000933428              -0.000306829               0.000000000               0.000000000               0.000000000               0.000000000              -0.002372883               0.003212959              -0.001463307              -0.001291449               0.001501458               0.000210009               0.000000000               0.000000000               0.000000000               0.000000000              -0.002367504               0.004924296              -0.002187457              -0.001503348               0.002142531               0.000639182               0.000000000               0.000000000               0.000000000               0.000000000              -0.002117442               0.005813314              -0.002155988              -0.001520702               0.002444652               0.000923950               0.000000000               0.000000000               0.000000000               0.000000000              -0.001801617               0.006283020              -0.001941746              -0.001460981               0.002581312               0.001120331               0.000000000               0.000000000               0.000000000               0.000000000              -0.001481588               0.006539359              -0.001710518              -0.001373013               0.002637435               0.001264422               0.000000000               0.000000000               0.000000000               0.000000000              -0.001184082               0.006654950              -0.001502499              -0.001275897               0.002643593               0.001367696               0.000000000               0.000000000               0.000000000               0.000000000              -0.000917265               0.006653425              -0.001326755              -0.001175650               0.002609669               0.001434019               0.000000000               0.000000000               0.000000000               0.000000000              -0.000676696               0.006569335              -0.001174462              -0.001074926               0.002548065               0.001473139               0.000000000               0.000000000               0.000000000               0.000000000              -0.000465774               0.006421432              -0.001031034              -0.000977342               0.002466236               0.001488894               0.000000000               0.000000000               0.000000000               0.000000000              -0.000284458               0.006234195              -0.000889921              -0.000885944               0.002373359               0.001487415               0.000000000               0.000000000               0.000000000               0.000000000              -0.000134070               0.006015392              -0.000749143              -0.000802199               0.002272510               0.001470312               0.000000000               0.000000000               0.000000000               0.000000000              -0.000021674               0.005776874              -0.000609140              -0.000730235               0.002169017               0.001438782               0.000000000               0.000000000               0.000000000               0.000000000               0.000038975               0.005544720              -0.000464277              -0.000678473               0.002074379               0.001395906               0.000000000               0.000000000               0.000000000               0.000000000               0.000035703               0.005340939              -0.000310317              -0.000654227               0.001998371               0.001344144               0.000000000               0.000000000               0.000000000               0.000000000              -0.000040287               0.005162916              -0.000152365              -0.000660471               0.001941112               0.001280641               0.000000000               0.000000000               0.000000000               0.000000000              -0.000126102               0.005059045              -0.000063969              -0.000679667               0.001912887               0.001233220               0.000000000               0.000000000               0.000000000               0.000000000              -0.004265139               0.000591031               0.000045431              -0.001673304               0.000754773              -0.000918531               0.000000000               0.000000000               0.000000000               0.000000000              -0.003074154               0.002070190              -0.001123701              -0.001411579               0.001160581              -0.000250998               0.000000000               0.000000000               0.000000000               0.000000000              -0.002445539               0.003588473              -0.002087449              -0.001365634               0.001651356               0.000285722               0.000000000               0.000000000               0.000000000               0.000000000              -0.001997855               0.004583053              -0.002207035              -0.001322075               0.001968360               0.000646285               0.000000000               0.000000000               0.000000000               0.000000000              -0.001626896               0.005235997              -0.002069764              -0.001264584               0.002166842               0.000902258               0.000000000               0.000000000               0.000000000               0.000000000              -0.001301755               0.005680578              -0.001871109              -0.001198228               0.002292916               0.001094688               0.000000000               0.000000000               0.000000000               0.000000000              -0.001015726               0.005957446              -0.001676198              -0.001125576               0.002360987               0.001235411               0.000000000               0.000000000               0.000000000               0.000000000              -0.000764331               0.006094865              -0.001504239              -0.001048480               0.002381094               0.001332614               0.000000000               0.000000000               0.000000000               0.000000000              -0.000535453               0.006138062              -0.001348105              -0.000968051               0.002368684               0.001400633               0.000000000               0.000000000               0.000000000               0.000000000              -0.000325979               0.006105935              -0.001196522              -0.000885482               0.002330452               0.001444970               0.000000000               0.000000000               0.000000000               0.000000000              -0.000139598               0.006017375              -0.001048542              -0.000804520               0.002273945               0.001469425               0.000000000               0.000000000               0.000000000               0.000000000               0.000030609               0.005882684              -0.000907911              -0.000723856               0.002202160               0.001478304               0.000000000               0.000000000               0.000000000               0.000000000               0.000185187               0.005710832              -0.000767221              -0.000644408               0.002118394               0.001473987               0.000000000               0.000000000               0.000000000               0.000000000               0.000306987               0.005521315              -0.000609521              -0.000575043               0.002032101               0.001457058               0.000000000               0.000000000               0.000000000               0.000000000               0.000374486               0.005335725              -0.000427800              -0.000526532               0.001954068               0.001427536               0.000000000               0.000000000               0.000000000               0.000000000               0.000368962               0.005162667              -0.000224286              -0.000506971               0.001889862               0.001382891               0.000000000               0.000000000               0.000000000               0.000000000               0.000327055               0.005067237              -0.000111969              -0.000510758               0.001859315               0.001348557               0.000000000               0.000000000               0.000000000               0.000000000              -0.005691023              -0.000048396               0.000368702              -0.002128082               0.000693224              -0.001434858               0.000000000               0.000000000               0.000000000               0.000000000              -0.003779824               0.001141421              -0.000780086              -0.001560110               0.000900504              -0.000659606               0.000000000               0.000000000               0.000000000               0.000000000              -0.002516467               0.002355161              -0.001780130              -0.001238068               0.001197734              -0.000040334               0.000000000               0.000000000               0.000000000               0.000000000              -0.001828466               0.003356323              -0.001993141              -0.001105213               0.001487166               0.000381953               0.000000000               0.000000000               0.000000000               0.000000000              -0.001375209               0.004127303              -0.001932812              -0.001031615               0.001719625               0.000688010               0.000000000               0.000000000               0.000000000               0.000000000              -0.001030112               0.004717574              -0.001787936              -0.000975987               0.001897837               0.000921850               0.000000000               0.000000000               0.000000000               0.000000000              -0.000747149               0.005134629              -0.001629540              -0.000922008               0.002018861               0.001096853               0.000000000               0.000000000               0.000000000               0.000000000              -0.000508519               0.005403125              -0.001480930              -0.000866084               0.002089718               0.001223634               0.000000000               0.000000000               0.000000000               0.000000000              -0.000298746               0.005565413              -0.001340694              -0.000807705               0.002124354               0.001316649               0.000000000               0.000000000               0.000000000               0.000000000              -0.000101328               0.005651280              -0.001199588              -0.000744407               0.002131877               0.001387470               0.000000000               0.000000000               0.000000000               0.000000000               0.000093067               0.005671307              -0.001064973              -0.000674012               0.002115087               0.001441075               0.000000000               0.000000000               0.000000000               0.000000000               0.000285051               0.005631263              -0.000942625              -0.000597013               0.002076073               0.001479060               0.000000000               0.000000000               0.000000000               0.000000000               0.000474489               0.005552026              -0.000815641              -0.000516069               0.002022680               0.001506611               0.000000000               0.000000000               0.000000000               0.000000000               0.000656761               0.005440081              -0.000663883              -0.000433724               0.001957917               0.001524193               0.000000000               0.000000000               0.000000000               0.000000000               0.000820877               0.005303822              -0.000478998              -0.000355148               0.001886306               0.001531157               0.000000000               0.000000000               0.000000000               0.000000000               0.000946819               0.005154379              -0.000257660              -0.000289240               0.001814522               0.001525283               0.000000000               0.000000000               0.000000000               0.000000000               0.001012399               0.005081375              -0.000140251              -0.000255522               0.001778949               0.001523427               0.000000000               0.000000000               0.000000000               0.000000000              -0.006889283              -0.000413699               0.000440644              -0.002531767               0.000706018              -0.001825749               0.000000000               0.000000000               0.000000000               0.000000000              -0.004395181               0.000469118              -0.000472461              -0.001706831               0.000725311              -0.000981520               0.000000000               0.000000000               0.000000000               0.000000000              -0.002584362               0.001357337              -0.001295491              -0.001138801               0.000832040              -0.000306762               0.000000000               0.000000000               0.000000000               0.000000000              -0.001658933               0.002302684              -0.001514879              -0.000909934               0.001070864               0.000160930               0.000000000               0.000000000               0.000000000               0.000000000              -0.001108125               0.003129925              -0.001505965              -0.000806786               0.001312226               0.000505440               0.000000000               0.000000000               0.000000000               0.000000000              -0.000730810               0.003812267              -0.001418525              -0.000750586               0.001520938               0.000770352               0.000000000               0.000000000               0.000000000               0.000000000              -0.000447031               0.004330010              -0.001311261              -0.000708887               0.001679618               0.000970731               0.000000000               0.000000000               0.000000000               0.000000000              -0.000219417               0.004705368              -0.001200881              -0.000670451               0.001791924               0.001121473               0.000000000               0.000000000               0.000000000               0.000000000              -0.000023492               0.004972048              -0.001092027              -0.000630315               0.001867438               0.001237123               0.000000000               0.000000000               0.000000000               0.000000000               0.000163297               0.005155638              -0.000985119              -0.000583217               0.001912935               0.001329717               0.000000000               0.000000000               0.000000000               0.000000000               0.000360915               0.005273113              -0.000885786              -0.000523795               0.001932285               0.001408490               0.000000000               0.000000000               0.000000000               0.000000000               0.000567770               0.005329719              -0.000793405              -0.000453300               0.001927655               0.001474355               0.000000000               0.000000000               0.000000000               0.000000000               0.000785898               0.005341370              -0.000695806              -0.000372959               0.001904758               0.001531800               0.000000000               0.000000000               0.000000000               0.000000000               0.001020353               0.005310159              -0.000577048              -0.000281137               0.001863748               0.001582611               0.000000000               0.000000000               0.000000000               0.000000000               0.001274297               0.005238491              -0.000424273              -0.000176950               0.001805129               0.001628180               0.000000000               0.000000000               0.000000000               0.000000000               0.001546513               0.005131898              -0.000229697              -0.000061545               0.001731131               0.001669585               0.000000000               0.000000000               0.000000000               0.000000000               0.001748735               0.005092771              -0.000129729               0.000019179               0.001691181               0.001710359               0.000000000               0.000000000               0.000000000               0.000000000              -0.007692402              -0.000584192               0.000287266              -0.002811625               0.000742473              -0.002069152               0.000000000               0.000000000               0.000000000               0.000000000              -0.004818958               0.000070104              -0.000216628              -0.001815871               0.000628654              -0.001187217               0.000000000               0.000000000               0.000000000               0.000000000              -0.002639359               0.000711396              -0.000680301              -0.001078683               0.000596688              -0.000481994               0.000000000               0.000000000               0.000000000               0.000000000              -0.001540151               0.001586893              -0.000818950              -0.000775917               0.000787597               0.000011680               0.000000000               0.000000000               0.000000000               0.000000000              -0.000908843               0.002425172              -0.000827082              -0.000643961               0.001023036               0.000379075               0.000000000               0.000000000               0.000000000               0.000000000              -0.000496990               0.003156602              -0.000787833              -0.000580945               0.001245838               0.000664893               0.000000000               0.000000000               0.000000000               0.000000000              -0.000210722               0.003738589              -0.000735184              -0.000546343               0.001428298               0.000881955               0.000000000               0.000000000               0.000000000               0.000000000               0.000007245               0.004180999              -0.000676875              -0.000519907               0.001566955               0.001047048               0.000000000               0.000000000               0.000000000               0.000000000               0.000195735               0.004515247              -0.000616556              -0.000491004               0.001668735               0.001177731               0.000000000               0.000000000               0.000000000               0.000000000               0.000381430               0.004768290              -0.000559048              -0.000452999               0.001740414               0.001287415               0.000000000               0.000000000               0.000000000               0.000000000               0.000577625               0.004955639              -0.000506488              -0.000402845               0.001786145               0.001383300               0.000000000               0.000000000               0.000000000               0.000000000               0.000789834               0.005084400              -0.000456441              -0.000339362               0.001807904               0.001468542               0.000000000               0.000000000               0.000000000               0.000000000               0.001026997               0.005163672              -0.000403878              -0.000260335               0.001807985               0.001547650               0.000000000               0.000000000               0.000000000               0.000000000               0.001298526               0.005192150              -0.000337640              -0.000162071               0.001784723               0.001622652               0.000000000               0.000000000               0.000000000               0.000000000               0.001619332               0.005171064              -0.000250555              -0.000039134               0.001736715               0.001697582               0.000000000               0.000000000               0.000000000               0.000000000               0.002006081               0.005101174              -0.000138123               0.000114632               0.001662164               0.001776796               0.000000000               0.000000000               0.000000000               0.000000000               0.002319137               0.005090070              -0.000081652               0.000233415               0.001618868               0.001852283               0.000000000               0.000000000               0.000000000               0.000000000               0.000000000               0.000000000               0.000000000               0.000000000               0.000000000               0.000000000               0.000000000               0.000000000               0.000000000               0.000000000               0.000000000               0.000000000               0.000000000               0.000000000               0.000000000               0.000000000               0.000000000               0.000000000               0.000000000               0.000000000               0.000000000               0.000000000               0.000000000               0.000000000               0.000000000               0.000000000               0.000000000               0.000000000               0.000000000               0.000000000               0.000000000               0.000000000               0.000000000               0.000000000               0.000000000               0.000000000               0.000000000               0.000000000               0.000000000               0.000000000               0.000000000               0.000000000               0.000000000               0.000000000               0.000000000               0.000000000               0.000000000               0.000000000               0.000000000               0.000000000               0.000000000               0.000000000               0.000000000               0.000000000               0.000000000               0.000000000               0.000000000               0.000000000               0.000000000               0.000000000               0.000000000               0.000000000               0.000000000               0.000000000               0.000000000               0.000000000               0.000000000               0.000000000               0.000000000               0.000000000               0.000000000               0.000000000               0.000000000               0.000000000               0.000000000               0.000000000               0.000000000               0.000000000               0.000000000               0.000000000               0.000000000               0.000000000               0.000000000               0.000000000               0.000000000               0.000000000               0.000000000               0.000000000               0.000000000               0.000000000               0.000000000               0.000000000               0.000000000               0.000000000               0.000000000               0.000000000               0.000000000               0.000000000               0.000000000               0.000000000               0.000000000               0.000000000               0.000000000               0.000000000               0.000000000               0.000000000               0.000000000               0.000000000               0.000000000               0.000000000               0.000000000               0.000000000               0.000000000               0.000000000               0.000000000               0.000000000               0.000000000               0.000000000               0.000000000               0.000000000               0.000000000               0.000000000               0.000000000               0.000000000               0.000000000               0.000000000               0.000000000               0.000000000               0.000000000               0.000000000               0.000000000               0.000000000               0.000000000               0.000000000               0.000000000               0.000000000               0.000000000               0.000000000               0.000000000               0.000000000               0.000000000               0.000000000               0.000000000               0.000000000               0.000000000               0.000000000               0.000000000               0.000000000               0.000000000               0.000000000               0.000000000               0.000000000               0.000000000               0.000000000               0.000000000               0.000000000               0.000000000               0.000000000               0.000000000               0.000000000               0.000000000               0.000000000               0.000000000               0.000000000               0.000000000               0.000000000               0.000000000               0.000000000               0.000000000               0.000000000               0.000000000               0.000000000               0.000000000               0.000000000               0.000000000               0.000000000               0.000000000               0.000000000               0.000000000               0.000000000               0.000000000               0.000000000               0.000000000               0.000000000               0.000000000               0.000000000               0.000000000               0.000000000               0.000000000               0.000000000               0.000000000               0.000000000               0.000000000               0.000000000               0.000000000               0.000000000               0.000000000               0.000000000               0.000000000               0.000000000               0.000000000               0.000000000               0.000000000               0.000000000               0.000000000               0.000000000               0.000000000               0.000000000               0.000000000               0.000000000               0.000000000               0.000000000               0.000000000               0.000000000               0.000000000               0.000000000               0.000000000               0.000000000               0.000000000               0.000000000               0.000000000               0.000000000               0.000000000               0.000000000               0.000000000               0.000000000               0.000000000               0.000000000               0.000000000               0.000000000               0.000000000               0.000000000               0.000000000               0.000000000               0.000000000               0.000000000               0.000000000               0.000000000               0.000000000               0.000000000               0.000000000               0.000000000               0.000000000               0.000000000               0.000000000               0.000000000               0.000000000               0.000000000               0.000000000               0.000000000               0.000000000               0.000000000               0.000000000               0.000000000               0.000000000               0.000000000               0.000000000               0.000000000               0.000000000               0.000000000               0.000000000               0.000000000               0.000000000               0.000000000               0.000000000               0.000000000               0.000000000               0.000000000               0.000000000               0.000000000               0.000000000               0.000000000               0.000000000               0.000000000               0.000000000               0.000000000               0.000000000               0.000000000               0.000000000               0.000000000               0.000000000               0.000000000               0.000000000               0.000000000               0.000000000               0.000000000               0.000000000               0.000000000               0.000000000               0.000000000               0.000000000               0.000000000               0.000000000               0.000000000               0.000000000               0.000000000               0.000000000               0.000000000               0.000000000               0.000000000               0.000000000               0.000000000               0.000000000               0.000000000               0.000000000               0.000000000               0.000000000               0.000000000               0.000000000               0.000000000               0.000000000               0.000000000               0.000000000               0.000000000               0.000000000               0.000000000               0.000000000               0.000000000               0.000000000               0.000000000               0.000000000               0.000000000               0.000000000               0.000000000               0.000000000               0.000000000               0.000000000               0.000000000               0.000000000               0.000000000               0.000000000               0.000000000               0.000000000               0.000000000               0.000000000               0.000000000               0.000000000               0.000000000               0.000000000               0.000000000               0.001932476               0.020218719               0.001422785              -0.001802657               0.007340391               0.005537734               0.000000000               0.000000000               0.000000000               0.000000000               0.001836827               0.016032868               0.000741803              -0.001315295               0.005782668               0.004467372               0.000000000               0.000000000               0.000000000               0.000000000               0.002337433               0.012686517               0.000062910              -0.000709276               0.004465222               0.003755946               0.000000000               0.000000000               0.000000000               0.000000000               0.002227034               0.010809807              -0.000225263              -0.000516087               0.003775262               0.003259175               0.000000000               0.000000000               0.000000000               0.000000000               0.001938624               0.009640782              -0.000345738              -0.000478113               0.003372933               0.002894820               0.000000000               0.000000000               0.000000000               0.000000000               0.001621223               0.008846521              -0.000387420              -0.000497856               0.003114763               0.002616907               0.000000000               0.000000000               0.000000000               0.000000000               0.001324454               0.008261130              -0.000394732              -0.000535970               0.002932339               0.002396369               0.000000000               0.000000000               0.000000000               0.000000000               0.001064396               0.007800234              -0.000388640              -0.000575879               0.002792012               0.002216132               0.000000000               0.000000000               0.000000000               0.000000000               0.000838667               0.007409937              -0.000373510              -0.000611741               0.002673868               0.002062127               0.000000000               0.000000000               0.000000000               0.000000000               0.000645449               0.007058230              -0.000353338              -0.000640234               0.002566131               0.001925897               0.000000000               0.000000000               0.000000000               0.000000000               0.000484803               0.006725450              -0.000332013              -0.000658878               0.002461420               0.001802542               0.000000000               0.000000000               0.000000000               0.000000000               0.000351714               0.006400969              -0.000309960              -0.000668227               0.002356377               0.001688150               0.000000000               0.000000000               0.000000000               0.000000000               0.000238340               0.006073952              -0.000283837              -0.000669865               0.002247919               0.001578054               0.000000000               0.000000000               0.000000000               0.000000000               0.000143694               0.005731328              -0.000247537              -0.000662529               0.002131267               0.001468737               0.000000000               0.000000000               0.000000000               0.000000000               0.000074923               0.005361721              -0.000192655              -0.000642117               0.002001262               0.001359144               0.000000000               0.000000000               0.000000000               0.000000000               0.000030242               0.004951191              -0.000110790              -0.000607557               0.001852899               0.001245343               0.000000000               0.000000000               0.000000000               0.000000000              -0.000017946               0.004645512              -0.000067880              -0.000587417               0.001744294               0.001156877               0.000000000               0.000000000               0.000000000               0.000000000               0.002121802               0.019040967               0.002656023              -0.001584442               0.006875072               0.005290630               0.000000000               0.000000000               0.000000000               0.000000000               0.001748926               0.015268535               0.001385273              -0.001252717               0.005507033               0.004254316               0.000000000               0.000000000               0.000000000               0.000000000               0.001955391               0.012359532               0.000131770              -0.000811668               0.004390359               0.003578691               0.000000000               0.000000000               0.000000000               0.000000000               0.001738751               0.010705003              -0.000381367              -0.000686092               0.003796996               0.003110904               0.000000000               0.000000000               0.000000000               0.000000000               0.001432210               0.009646483              -0.000589014              -0.000668730               0.003438372               0.002769642               0.000000000               0.000000000               0.000000000               0.000000000               0.001138280               0.008902345              -0.000660609              -0.000685936               0.003196064               0.002510128               0.000000000               0.000000000               0.000000000               0.000000000               0.000884830               0.008340846              -0.000671932              -0.000710793               0.003017185               0.002306392               0.000000000               0.000000000               0.000000000               0.000000000               0.000674788               0.007888459              -0.000657293              -0.000733010               0.002873797               0.002140787               0.000000000               0.000000000               0.000000000               0.000000000               0.000503474               0.007499008              -0.000628102              -0.000748571               0.002749168               0.002000597               0.000000000               0.000000000               0.000000000               0.000000000               0.000364580               0.007145066              -0.000590490              -0.000756414               0.002633803               0.001877389               0.000000000               0.000000000               0.000000000               0.000000000               0.000254715               0.006814873              -0.000549736              -0.000756339               0.002523715               0.001767376               0.000000000               0.000000000               0.000000000               0.000000000               0.000166993               0.006499370              -0.000508410              -0.000749797               0.002416367               0.001666570               0.000000000               0.000000000               0.000000000               0.000000000               0.000098936               0.006192321              -0.000458921              -0.000736938               0.002309732               0.001572795               0.000000000               0.000000000               0.000000000               0.000000000               0.000049401               0.005888114              -0.000391436              -0.000717487               0.002201847               0.001484360               0.000000000               0.000000000               0.000000000               0.000000000               0.000020589               0.005586523              -0.000295686              -0.000690593               0.002092353               0.001401760               0.000000000               0.000000000               0.000000000               0.000000000               0.000006131               0.005288753              -0.000165381              -0.000658794               0.001982498               0.001323704               0.000000000               0.000000000               0.000000000               0.000000000              -0.000016949               0.005092070              -0.000097893              -0.000642863               0.001911627               0.001268764               0.000000000               0.000000000               0.000000000               0.000000000               0.002325869               0.017247150               0.003547417              -0.001283692               0.006176889               0.004893197               0.000000000               0.000000000               0.000000000               0.000000000               0.001567223               0.014120037               0.001859540              -0.001177294               0.005099063               0.003921769               0.000000000               0.000000000               0.000000000               0.000000000               0.001365007               0.011859145               0.000216246              -0.000970513               0.004276513               0.003306000               0.000000000               0.000000000               0.000000000               0.000000000               0.001023873               0.010518279              -0.000422941              -0.000930830               0.003816335               0.002885505               0.000000000               0.000000000               0.000000000               0.000000000               0.000716913               0.009612054              -0.000667834              -0.000932662               0.003514873               0.002582211               0.000000000               0.000000000               0.000000000               0.000000000               0.000477278               0.008940000              -0.000747394              -0.000938519               0.003292810               0.002354291               0.000000000               0.000000000               0.000000000               0.000000000               0.000298261               0.008408340              -0.000757836              -0.000939193               0.003115816               0.002176624               0.000000000               0.000000000               0.000000000               0.000000000               0.000167611               0.007963319              -0.000739044              -0.000932559               0.002965266               0.002032707               0.000000000               0.000000000               0.000000000               0.000000000               0.000075433               0.007575520              -0.000699961              -0.000918651               0.002831365               0.001912714               0.000000000               0.000000000               0.000000000               0.000000000               0.000006669               0.007221973              -0.000651022              -0.000900244               0.002707381               0.001807138               0.000000000               0.000000000               0.000000000               0.000000000              -0.000036361               0.006899024              -0.000599893              -0.000876011               0.002591656               0.001715644               0.000000000               0.000000000               0.000000000               0.000000000              -0.000054289               0.006602799              -0.000546759              -0.000845706               0.002482813               0.001637107               0.000000000               0.000000000               0.000000000               0.000000000              -0.000055014               0.006329265              -0.000484378              -0.000811787               0.002380329               0.001568543               0.000000000               0.000000000               0.000000000               0.000000000              -0.000045247               0.006080662              -0.000404077              -0.000777048               0.002285883               0.001508835               0.000000000               0.000000000               0.000000000               0.000000000              -0.000029845               0.005866996              -0.000296390              -0.000744565               0.002203834               0.001459269               0.000000000               0.000000000               0.000000000               0.000000000              -0.000015778               0.005701165              -0.000159914              -0.000718561               0.002139890               0.001421329               0.000000000               0.000000000               0.000000000               0.000000000              -0.000014639               0.005617262              -0.000088274              -0.000707646               0.002108284               0.001400638               0.000000000               0.000000000               0.000000000               0.000000000               0.002427193               0.015038529               0.004027289              -0.000969620               0.005335999               0.004366379               0.000000000               0.000000000               0.000000000               0.000000000               0.001268541               0.012731699               0.002147618              -0.001115758               0.004615776               0.003500018               0.000000000               0.000000000               0.000000000               0.000000000               0.000640528               0.011244107               0.000339424              -0.001165313               0.004136436               0.002971123               0.000000000               0.000000000               0.000000000               0.000000000               0.000212823               0.010245945              -0.000323660              -0.001200932               0.003815591               0.002614660               0.000000000               0.000000000               0.000000000               0.000000000              -0.000057043               0.009500510              -0.000564875              -0.001208952               0.003569789               0.002360837               0.000000000               0.000000000               0.000000000               0.000000000              -0.000210536               0.008904636              -0.000640704              -0.001192028               0.003365525               0.002173497               0.000000000               0.000000000               0.000000000               0.000000000              -0.000288793               0.008405507              -0.000649848              -0.001158983               0.003188135               0.002029152               0.000000000               0.000000000               0.000000000               0.000000000              -0.000324145               0.007972557              -0.000631289              -0.001118121               0.003030200               0.001912078               0.000000000               0.000000000               0.000000000               0.000000000              -0.000327610               0.007588610              -0.000594108              -0.001071427               0.002886654               0.001815227               0.000000000               0.000000000               0.000000000               0.000000000              -0.000309156               0.007244823              -0.000545853              -0.001021534               0.002755428               0.001733894               0.000000000               0.000000000               0.000000000               0.000000000              -0.000271999               0.006938492              -0.000495870              -0.000969309               0.002635911               0.001666602               0.000000000               0.000000000               0.000000000               0.000000000              -0.000219585               0.006669100              -0.000442585              -0.000915980               0.002528338               0.001612358               0.000000000               0.000000000               0.000000000               0.000000000              -0.000161481               0.006433107              -0.000379197              -0.000864692               0.002432578               0.001567886               0.000000000               0.000000000               0.000000000               0.000000000              -0.000103740               0.006237773              -0.000303239              -0.000818622               0.002352111               0.001533489               0.000000000               0.000000000               0.000000000               0.000000000              -0.000055079               0.006094562              -0.000213272              -0.000782473               0.002292325               0.001509852               0.000000000               0.000000000               0.000000000               0.000000000              -0.000021846               0.006009167              -0.000108907              -0.000759336               0.002256148               0.001496811               0.000000000               0.000000000               0.000000000               0.000000000              -0.000009869               0.005980179              -0.000054432              -0.000751222               0.002243780               0.001492559               0.000000000               0.000000000               0.000000000               0.000000000               0.002324782               0.012643058               0.004098097              -0.000708591               0.004450507               0.003741915               0.000000000               0.000000000               0.000000000               0.000000000               0.000851142               0.011247988               0.002268700              -0.001086819               0.004111564               0.003024745               0.000000000               0.000000000               0.000000000               0.000000000              -0.000127657               0.010560884               0.000521106              -0.001367978               0.003976252               0.002608274               0.000000000               0.000000000               0.000000000               0.000000000              -0.000563634               0.009886100              -0.000090215              -0.001447122               0.003777708               0.002330586               0.000000000               0.000000000               0.000000000               0.000000000              -0.000745209               0.009285810              -0.000311246              -0.001440176               0.003575298               0.002135121               0.000000000               0.000000000               0.000000000               0.000000000              -0.000790488               0.008764139              -0.000383818              -0.001391947               0.003385333               0.001993386               0.000000000               0.000000000               0.000000000               0.000000000              -0.000760980               0.008304992              -0.000400513              -0.001323488               0.003209466               0.001885977               0.000000000               0.000000000               0.000000000               0.000000000              -0.000693547               0.007898393              -0.000394075              -0.001247376               0.003048563               0.001801187               0.000000000               0.000000000               0.000000000               0.000000000              -0.000607286               0.007532098              -0.000369607              -0.001169242               0.002900421               0.001731180               0.000000000               0.000000000               0.000000000               0.000000000              -0.000511017               0.007206770              -0.000332967              -0.001092475               0.002766391               0.001673916               0.000000000               0.000000000               0.000000000               0.000000000              -0.000408811               0.006919724              -0.000294989              -0.001018267               0.002645974               0.001627707               0.000000000               0.000000000               0.000000000               0.000000000              -0.000306399               0.006667163              -0.000253359              -0.000948292               0.002538463               0.001590170               0.000000000               0.000000000               0.000000000               0.000000000              -0.000214726               0.006449362              -0.000206455              -0.000886690               0.002445329               0.001558639               0.000000000               0.000000000               0.000000000               0.000000000              -0.000134626               0.006278340              -0.000159185              -0.000835275               0.002371184               0.001535909               0.000000000               0.000000000               0.000000000               0.000000000              -0.000072840               0.006154286              -0.000108860              -0.000796599               0.002316941               0.001520342               0.000000000               0.000000000               0.000000000               0.000000000              -0.000029768               0.006066496              -0.000053461              -0.000769473               0.002278636               0.001509163               0.000000000               0.000000000               0.000000000               0.000000000              -0.000021855               0.006016344              -0.000031318              -0.000760237               0.002258840               0.001498603               0.000000000               0.000000000               0.000000000               0.000000000               0.001962598               0.010264775               0.003826124              -0.000547125               0.003603932               0.003056806               0.000000000               0.000000000               0.000000000               0.000000000               0.000336214               0.009787135               0.002267947              -0.001097311               0.003628115               0.002530805               0.000000000               0.000000000               0.000000000               0.000000000              -0.000850102               0.009845700               0.000766944              -0.001549497               0.003798366               0.002248869               0.000000000               0.000000000               0.000000000               0.000000000              -0.001205013               0.009446250               0.000242986              -0.001632657               0.003692937               0.002060280               0.000000000               0.000000000               0.000000000               0.000000000              -0.001255035               0.008971322               0.000035166              -0.001592049               0.003521094               0.001929044               0.000000000               0.000000000               0.000000000               0.000000000              -0.001179237               0.008521686              -0.000050306              -0.001507421               0.003343007               0.001835586               0.000000000               0.000000000               0.000000000               0.000000000              -0.001044983               0.008111743              -0.000086797              -0.001405833               0.003172499               0.001766665               0.000000000               0.000000000               0.000000000               0.000000000              -0.000889861               0.007741523              -0.000100313              -0.001301385               0.003014277               0.001712892               0.000000000               0.000000000               0.000000000               0.000000000              -0.000734367               0.007404721              -0.000095484              -0.001200975               0.002868540               0.001667566               0.000000000               0.000000000               0.000000000               0.000000000              -0.000580839               0.007094084              -0.000082748              -0.001104572               0.002732862               0.001628289               0.000000000               0.000000000               0.000000000               0.000000000              -0.000439444               0.006806863              -0.000069837              -0.001015647               0.002607480               0.001591834               0.000000000               0.000000000               0.000000000               0.000000000              -0.000321674               0.006547192              -0.000057417              -0.000939025               0.002495384               0.001556359               0.000000000               0.000000000               0.000000000               0.000000000              -0.000228211               0.006326938              -0.000048353              -0.000876444               0.002401106               0.001524662               0.000000000               0.000000000               0.000000000               0.000000000              -0.000153711               0.006151046              -0.000046056              -0.000826520               0.002325835               0.001499315               0.000000000               0.000000000               0.000000000               0.000000000              -0.000095199               0.006007922              -0.000042823              -0.000786688               0.002264850               0.001478162               0.000000000               0.000000000               0.000000000               0.000000000              -0.000045171               0.005884417              -0.000027918              -0.000752489               0.002212282               0.001459793               0.000000000               0.000000000               0.000000000               0.000000000              -0.000040704               0.005797233              -0.000028539              -0.000739916               0.002179030               0.001439114               0.000000000               0.000000000               0.000000000               0.000000000               0.001368621               0.008058580               0.003303864              -0.000494092               0.002850863               0.002356771               0.000000000               0.000000000               0.000000000               0.000000000              -0.000238272               0.008442291               0.002188969              -0.001144637               0.003195614               0.002050977               0.000000000               0.000000000               0.000000000               0.000000000              -0.001451227               0.009120906               0.001066601              -0.001684319               0.003601711               0.001917392               0.000000000               0.000000000               0.000000000               0.000000000              -0.001654734               0.008943517               0.000624632              -0.001738461               0.003560629               0.001822169               0.000000000               0.000000000               0.000000000               0.000000000              -0.001555596               0.008585636               0.000409257              -0.001656549               0.003414033               0.001757484               0.000000000               0.000000000               0.000000000               0.000000000              -0.001363771               0.008205100               0.000293034              -0.001537048               0.003247355               0.001710307               0.000000000               0.000000000               0.000000000               0.000000000              -0.001141642               0.007848604               0.000226827              -0.001409188               0.003085904               0.001676717               0.000000000               0.000000000               0.000000000               0.000000000              -0.000920969               0.007517020               0.000183666              -0.001284988               0.002933978               0.001648990               0.000000000               0.000000000               0.000000000               0.000000000              -0.000716045               0.007192957               0.000158305              -0.001167634               0.002786840               0.001619206               0.000000000               0.000000000               0.000000000               0.000000000              -0.000541946               0.006871482               0.000140526              -0.001062162               0.002644525               0.001582363               0.000000000               0.000000000               0.000000000               0.000000000              -0.000400569               0.006569074               0.000117697              -0.000971345               0.002513451               0.001542106               0.000000000               0.000000000               0.000000000               0.000000000              -0.000292938               0.006301584               0.000086541              -0.000897548               0.002399690               0.001502142               0.000000000               0.000000000               0.000000000               0.000000000              -0.000216453               0.006076730               0.000048438              -0.000840759               0.002305809               0.001465051               0.000000000               0.000000000               0.000000000               0.000000000              -0.000157634               0.005887221               0.000007700              -0.000795013               0.002227392               0.001432378               0.000000000               0.000000000               0.000000000               0.000000000              -0.000105874               0.005720269              -0.000022086              -0.000754735               0.002158315               0.001403581               0.000000000               0.000000000               0.000000000               0.000000000              -0.000056322               0.005571648              -0.000026750              -0.000717575               0.002096389               0.001378814               0.000000000               0.000000000               0.000000000               0.000000000              -0.000044544               0.005478777              -0.000030295              -0.000701550               0.002060090               0.001358541               0.000000000               0.000000000               0.000000000               0.000000000               0.000642500               0.006189279               0.002632709              -0.000532724               0.002240646               0.001707922               0.000000000               0.000000000               0.000000000               0.000000000              -0.000789174               0.007246166               0.002078733              -0.001201709               0.002815934               0.001614224               0.000000000               0.000000000               0.000000000               0.000000000              -0.001893815               0.008418509               0.001415251              -0.001762490               0.003393638               0.001631148               0.000000000               0.000000000               0.000000000               0.000000000              -0.001934993               0.008471200               0.001025679              -0.001784518               0.003418544               0.001634026               0.000000000               0.000000000               0.000000000               0.000000000              -0.001718258               0.008242568               0.000784222              -0.001674664               0.003305716               0.001631053               0.000000000               0.000000000               0.000000000               0.000000000              -0.001439636               0.007945224               0.000626579              -0.001533013               0.003159386               0.001626373               0.000000000               0.000000000               0.000000000               0.000000000              -0.001148098               0.007652349               0.000521092              -0.001387077               0.003013116               0.001626039               0.000000000               0.000000000               0.000000000               0.000000000              -0.000884214               0.007345722               0.000444585              -0.001249792               0.002865147               0.001615355               0.000000000               0.000000000               0.000000000               0.000000000              -0.000655128               0.007014303               0.000387377              -0.001122458               0.002712230               0.001589772               0.000000000               0.000000000               0.000000000               0.000000000              -0.000462753               0.006682427               0.000334067              -0.001008833               0.002563731               0.001554898               0.000000000               0.000000000               0.000000000               0.000000000              -0.000318293               0.006373399               0.000270902              -0.000916033               0.002429789               0.001513757               0.000000000               0.000000000               0.000000000               0.000000000              -0.000224356               0.006102797               0.000197069              -0.000846981               0.002316573               0.001469591               0.000000000               0.000000000               0.000000000               0.000000000              -0.000173959               0.005869602               0.000120720              -0.000798933               0.002222825               0.001423892               0.000000000               0.000000000               0.000000000               0.000000000              -0.000148556               0.005660961               0.000052852              -0.000763327               0.002141410               0.001378084               0.000000000               0.000000000               0.000000000               0.000000000              -0.000130587               0.005465740               0.000003288              -0.000732186               0.002065957               0.001333771               0.000000000               0.000000000               0.000000000               0.000000000              -0.000113692               0.005289823              -0.000017391              -0.000703860               0.001997877               0.001294016               0.000000000               0.000000000               0.000000000               0.000000000              -0.000101362               0.005201820              -0.000019990              -0.000688237               0.001963335               0.001275098               0.000000000               0.000000000               0.000000000               0.000000000              -0.000236514               0.004447477               0.001908270              -0.000644627               0.001697353               0.001052725               0.000000000               0.000000000               0.000000000               0.000000000              -0.001235402               0.005872102               0.001949090              -0.001197287               0.002356443               0.001159156               0.000000000               0.000000000               0.000000000               0.000000000              -0.002123538               0.007400497               0.001789338              -0.001721385               0.003040602               0.001319217               0.000000000               0.000000000               0.000000000               0.000000000              -0.002080244               0.007775758               0.001465424              -0.001752057               0.003175912               0.001423855               0.000000000               0.000000000               0.000000000               0.000000000              -0.001815671               0.007762800               0.001197456              -0.001651223               0.003137982               0.001486759               0.000000000               0.000000000               0.000000000               0.000000000              -0.001505245               0.007626946               0.000995124              -0.001517832               0.003048234               0.001530402               0.000000000               0.000000000               0.000000000               0.000000000              -0.001196062               0.007446043               0.000842623              -0.001379275               0.002941748               0.001562472               0.000000000               0.000000000               0.000000000               0.000000000              -0.000919120               0.007209815               0.000724960              -0.001245894               0.002818546               0.001572652               0.000000000               0.000000000               0.000000000               0.000000000              -0.000682568               0.006927491               0.000629118              -0.001121897               0.002683106               0.001561210               0.000000000               0.000000000               0.000000000               0.000000000              -0.000486370               0.006619218               0.000539308              -0.001009789               0.002542980               0.001533191               0.000000000               0.000000000               0.000000000               0.000000000              -0.000335738               0.006311584               0.000443140              -0.000914848               0.002408790               0.001493942               0.000000000               0.000000000               0.000000000               0.000000000              -0.000236363               0.006028311               0.000338197              -0.000842173               0.002290141               0.001447968               0.000000000               0.000000000               0.000000000               0.000000000              -0.000187116               0.005777425               0.000233457              -0.000792345               0.002189904               0.001397559               0.000000000               0.000000000               0.000000000               0.000000000              -0.000176052               0.005555907               0.000138790              -0.000760506               0.002105452               0.001344946               0.000000000               0.000000000               0.000000000               0.000000000              -0.000188420               0.005355015               0.000061499              -0.000740033               0.002031665               0.001291632               0.000000000               0.000000000               0.000000000               0.000000000              -0.000210831               0.005170619               0.000013929              -0.000725387               0.001965318               0.001239931               0.000000000               0.000000000               0.000000000               0.000000000              -0.000220718               0.005079587              -0.000000720              -0.000717716               0.001932417               0.001214701               0.000000000               0.000000000               0.000000000               0.000000000              -0.001407637               0.002867431               0.001176933              -0.000886291               0.001251231               0.000364940               0.000000000               0.000000000               0.000000000               0.000000000              -0.001746135               0.004502214               0.001750810              -0.001217575               0.001906581               0.000689005               0.000000000               0.000000000               0.000000000               0.000000000              -0.002269090               0.006231240               0.002080349              -0.001629810               0.002620329               0.000990518               0.000000000               0.000000000               0.000000000               0.000000000              -0.002152883               0.006907804               0.001884457              -0.001670803               0.002859512               0.001188709               0.000000000               0.000000000               0.000000000               0.000000000              -0.001866924               0.007143841               0.001620522              -0.001593073               0.002912281               0.001319207               0.000000000               0.000000000               0.000000000               0.000000000              -0.001547811               0.007198735               0.001387537              -0.001480268               0.002892977               0.001412709               0.000000000               0.000000000               0.000000000               0.000000000              -0.001239995               0.007155904               0.001194650              -0.001359483               0.002838438               0.001478955               0.000000000               0.000000000               0.000000000               0.000000000              -0.000962516               0.007022378               0.001040006              -0.001238738               0.002753682               0.001514944               0.000000000               0.000000000               0.000000000               0.000000000              -0.000718967               0.006825983               0.000910301              -0.001122858               0.002649591               0.001526733               0.000000000               0.000000000               0.000000000               0.000000000              -0.000511569               0.006585468               0.000788654              -0.001015019               0.002533474               0.001518454               0.000000000               0.000000000               0.000000000               0.000000000              -0.000340796               0.006319480               0.000667276              -0.000917731               0.002412383               0.001494651               0.000000000               0.000000000               0.000000000               0.000000000              -0.000213981               0.006046901               0.000542006              -0.000836103               0.002294314               0.001458211               0.000000000               0.000000000               0.000000000               0.000000000              -0.000140316               0.005784469               0.000415781              -0.000775675               0.002186695               0.001411020               0.000000000               0.000000000               0.000000000               0.000000000              -0.000121090               0.005547527               0.000291870              -0.000738848               0.002095440               0.001356592               0.000000000               0.000000000               0.000000000               0.000000000              -0.000149867               0.005343390               0.000175118              -0.000724122               0.002022486               0.001298364               0.000000000               0.000000000               0.000000000               0.000000000              -0.000222341               0.005163119               0.000074978              -0.000728766               0.001963944               0.001235178               0.000000000               0.000000000               0.000000000               0.000000000              -0.000286184               0.005063647               0.000023813              -0.000740273               0.001934623               0.001194350               0.000000000               0.000000000               0.000000000               0.000000000              -0.002787342               0.001560046               0.000496162              -0.001240257               0.000933428              -0.000306829               0.000000000               0.000000000               0.000000000               0.000000000              -0.002372883               0.003212959               0.001463307              -0.001291449               0.001501458               0.000210009               0.000000000               0.000000000               0.000000000               0.000000000              -0.002367504               0.004924296               0.002187457              -0.001503348               0.002142531               0.000639182               0.000000000               0.000000000               0.000000000               0.000000000              -0.002117442               0.005813314               0.002155988              -0.001520702               0.002444652               0.000923950               0.000000000               0.000000000               0.000000000               0.000000000              -0.001801617               0.006283020               0.001941746              -0.001460981               0.002581312               0.001120331               0.000000000               0.000000000               0.000000000               0.000000000              -0.001481588               0.006539359               0.001710518              -0.001373013               0.002637435               0.001264422               0.000000000               0.000000000               0.000000000               0.000000000              -0.001184082               0.006654950               0.001502499              -0.001275897               0.002643593               0.001367696               0.000000000               0.000000000               0.000000000               0.000000000              -0.000917265               0.006653425               0.001326755              -0.001175650               0.002609669               0.001434019               0.000000000               0.000000000               0.000000000               0.000000000              -0.000676696               0.006569335               0.001174462              -0.001074926               0.002548065               0.001473139               0.000000000               0.000000000               0.000000000               0.000000000              -0.000465774               0.006421432               0.001031034              -0.000977342               0.002466236               0.001488894               0.000000000               0.000000000               0.000000000               0.000000000              -0.000284458               0.006234195               0.000889921              -0.000885944               0.002373359               0.001487415               0.000000000               0.000000000               0.000000000               0.000000000              -0.000134070               0.006015392               0.000749143              -0.000802199               0.002272510               0.001470312               0.000000000               0.000000000               0.000000000               0.000000000              -0.000021674               0.005776874               0.000609140              -0.000730235               0.002169017               0.001438782               0.000000000               0.000000000               0.000000000               0.000000000               0.000038975               0.005544720               0.000464277              -0.000678473               0.002074379               0.001395906               0.000000000               0.000000000               0.000000000               0.000000000               0.000035703               0.005340939               0.000310317              -0.000654227               0.001998371               0.001344144               0.000000000               0.000000000               0.000000000               0.000000000              -0.000040287               0.005162916               0.000152365              -0.000660471               0.001941112               0.001280641               0.000000000               0.000000000               0.000000000               0.000000000              -0.000126102               0.005059045               0.000063969              -0.000679667               0.001912887               0.001233220               0.000000000               0.000000000               0.000000000               0.000000000              -0.004265139               0.000591031              -0.000045431              -0.001673304               0.000754773              -0.000918531               0.000000000               0.000000000               0.000000000               0.000000000              -0.003074154               0.002070190               0.001123701              -0.001411579               0.001160581              -0.000250998               0.000000000               0.000000000               0.000000000               0.000000000              -0.002445539               0.003588473               0.002087449              -0.001365634               0.001651356               0.000285722               0.000000000               0.000000000               0.000000000               0.000000000              -0.001997855               0.004583053               0.002207035              -0.001322075               0.001968360               0.000646285               0.000000000               0.000000000               0.000000000               0.000000000              -0.001626896               0.005235997               0.002069764              -0.001264584               0.002166842               0.000902258               0.000000000               0.000000000               0.000000000               0.000000000              -0.001301755               0.005680578               0.001871109              -0.001198228               0.002292916               0.001094688               0.000000000               0.000000000               0.000000000               0.000000000              -0.001015726               0.005957446               0.001676198              -0.001125576               0.002360987               0.001235411               0.000000000               0.000000000               0.000000000               0.000000000              -0.000764331               0.006094865               0.001504239              -0.001048480               0.002381094               0.001332614               0.000000000               0.000000000               0.000000000               0.000000000              -0.000535453               0.006138062               0.001348105              -0.000968051               0.002368684               0.001400633               0.000000000               0.000000000               0.000000000               0.000000000              -0.000325979               0.006105935               0.001196522              -0.000885482               0.002330452               0.001444970               0.000000000               0.000000000               0.000000000               0.000000000              -0.000139598               0.006017375               0.001048542              -0.000804520               0.002273945               0.001469425               0.000000000               0.000000000               0.000000000               0.000000000               0.000030609               0.005882684               0.000907911              -0.000723856               0.002202160               0.001478304               0.000000000               0.000000000               0.000000000               0.000000000               0.000185187               0.005710832               0.000767221              -0.000644408               0.002118394               0.001473987               0.000000000               0.000000000               0.000000000               0.000000000               0.000306987               0.005521315               0.000609521              -0.000575043               0.002032101               0.001457058               0.000000000               0.000000000               0.000000000               0.000000000               0.000374486               0.005335725               0.000427800              -0.000526532               0.001954068               0.001427536               0.000000000               0.000000000               0.000000000               0.000000000               0.000368962               0.005162667               0.000224286              -0.000506971               0.001889862               0.001382891               0.000000000               0.000000000               0.000000000               0.000000000               0.000327055               0.005067237               0.000111969              -0.000510758               0.001859315               0.001348557               0.000000000               0.000000000               0.000000000               0.000000000              -0.005691023              -0.000048396              -0.000368702              -0.002128082               0.000693224              -0.001434858               0.000000000               0.000000000               0.000000000               0.000000000              -0.003779824               0.001141421               0.000780086              -0.001560110               0.000900504              -0.000659606               0.000000000               0.000000000               0.000000000               0.000000000              -0.002516467               0.002355161               0.001780130              -0.001238068               0.001197734              -0.000040334               0.000000000               0.000000000               0.000000000               0.000000000              -0.001828466               0.003356323               0.001993141              -0.001105213               0.001487166               0.000381953               0.000000000               0.000000000               0.000000000               0.000000000              -0.001375209               0.004127303               0.001932812              -0.001031615               0.001719625               0.000688010               0.000000000               0.000000000               0.000000000               0.000000000              -0.001030112               0.004717574               0.001787936              -0.000975987               0.001897837               0.000921850               0.000000000               0.000000000               0.000000000               0.000000000              -0.000747149               0.005134629               0.001629540              -0.000922008               0.002018861               0.001096853               0.000000000               0.000000000               0.000000000               0.000000000              -0.000508519               0.005403125               0.001480930              -0.000866084               0.002089718               0.001223634               0.000000000               0.000000000               0.000000000               0.000000000              -0.000298746               0.005565413               0.001340694              -0.000807705               0.002124354               0.001316649               0.000000000               0.000000000               0.000000000               0.000000000              -0.000101328               0.005651280               0.001199588              -0.000744407               0.002131877               0.001387470               0.000000000               0.000000000               0.000000000               0.000000000               0.000093067               0.005671307               0.001064973              -0.000674012               0.002115087               0.001441075               0.000000000               0.000000000               0.000000000               0.000000000               0.000285051               0.005631263               0.000942625              -0.000597013               0.002076073               0.001479060               0.000000000               0.000000000               0.000000000               0.000000000               0.000474489               0.005552026               0.000815641              -0.000516069               0.002022680               0.001506611               0.000000000               0.000000000               0.000000000               0.000000000               0.000656761               0.005440081               0.000663883              -0.000433724               0.001957917               0.001524193               0.000000000               0.000000000               0.000000000               0.000000000               0.000820877               0.005303822               0.000478998              -0.000355148               0.001886306               0.001531157               0.000000000               0.000000000               0.000000000               0.000000000               0.000946819               0.005154379               0.000257660              -0.000289240               0.001814522               0.001525283               0.000000000               0.000000000               0.000000000               0.000000000               0.001012399               0.005081375               0.000140251              -0.000255522               0.001778949               0.001523427               0.000000000               0.000000000               0.000000000               0.000000000              -0.006889283              -0.000413699              -0.000440644              -0.002531767               0.000706018              -0.001825749               0.000000000               0.000000000               0.000000000               0.000000000              -0.004395181               0.000469118               0.000472461              -0.001706831               0.000725311              -0.000981520               0.000000000               0.000000000               0.000000000               0.000000000              -0.002584362               0.001357337               0.001295491              -0.001138801               0.000832040              -0.000306762               0.000000000               0.000000000               0.000000000               0.000000000              -0.001658933               0.002302684               0.001514879              -0.000909934               0.001070864               0.000160930               0.000000000               0.000000000               0.000000000               0.000000000              -0.001108125               0.003129925               0.001505965              -0.000806786               0.001312226               0.000505440               0.000000000               0.000000000               0.000000000               0.000000000              -0.000730810               0.003812267               0.001418525              -0.000750586               0.001520938               0.000770352               0.000000000               0.000000000               0.000000000               0.000000000              -0.000447031               0.004330010               0.001311261              -0.000708887               0.001679618               0.000970731               0.000000000               0.000000000               0.000000000               0.000000000              -0.000219417               0.004705368               0.001200881              -0.000670451               0.001791924               0.001121473               0.000000000               0.000000000               0.000000000               0.000000000              -0.000023492               0.004972048               0.001092027              -0.000630315               0.001867438               0.001237123               0.000000000               0.000000000               0.000000000               0.000000000               0.000163297               0.005155638               0.000985119              -0.000583217               0.001912935               0.001329717               0.000000000               0.000000000               0.000000000               0.000000000               0.000360915               0.005273113               0.000885786              -0.000523795               0.001932285               0.001408490               0.000000000               0.000000000               0.000000000               0.000000000               0.000567770               0.005329719               0.000793405              -0.000453300               0.001927655               0.001474355               0.000000000               0.000000000               0.000000000               0.000000000               0.000785898               0.005341370               0.000695806              -0.000372959               0.001904758               0.001531800               0.000000000               0.000000000               0.000000000               0.000000000               0.001020353               0.005310159               0.000577048              -0.000281137               0.001863748               0.001582611               0.000000000               0.000000000               0.000000000               0.000000000               0.001274297               0.005238491               0.000424273              -0.000176950               0.001805129               0.001628180               0.000000000               0.000000000               0.000000000               0.000000000               0.001546513               0.005131898               0.000229697              -0.000061545               0.001731131               0.001669585               0.000000000               0.000000000               0.000000000               0.000000000               0.001748735               0.005092771               0.000129729               0.000019179               0.001691181               0.001710359               0.000000000               0.000000000               0.000000000               0.000000000              -0.007692402              -0.000584192              -0.000287266              -0.002811625               0.000742473              -0.002069152               0.000000000               0.000000000               0.000000000               0.000000000              -0.004818958               0.000070104               0.000216628              -0.001815871               0.000628654              -0.001187217               0.000000000               0.000000000               0.000000000               0.000000000              -0.002639359               0.000711396               0.000680301              -0.001078683               0.000596688              -0.000481994               0.000000000               0.000000000               0.000000000               0.000000000              -0.001540151               0.001586893               0.000818950              -0.000775917               0.000787597               0.000011680               0.000000000               0.000000000               0.000000000               0.000000000              -0.000908843               0.002425172               0.000827082              -0.000643961               0.001023036               0.000379075               0.000000000               0.000000000               0.000000000               0.000000000              -0.000496990               0.003156602               0.000787833              -0.000580945               0.001245838               0.000664893               0.000000000               0.000000000               0.000000000               0.000000000              -0.000210722               0.003738589               0.000735184              -0.000546343               0.001428298               0.000881955               0.000000000               0.000000000               0.000000000               0.000000000               0.000007245               0.004180999               0.000676875              -0.000519907               0.001566955               0.001047048               0.000000000               0.000000000               0.000000000               0.000000000               0.000195735               0.004515247               0.000616556              -0.000491004               0.001668735               0.001177731               0.000000000               0.000000000               0.000000000               0.000000000               0.000381430               0.004768290               0.000559048              -0.000452999               0.001740414               0.001287415               0.000000000               0.000000000               0.000000000               0.000000000               0.000577625               0.004955639               0.000506488              -0.000402845               0.001786145               0.001383300               0.000000000               0.000000000               0.000000000               0.000000000               0.000789834               0.005084400               0.000456441              -0.000339362               0.001807904               0.001468542               0.000000000               0.000000000               0.000000000               0.000000000               0.001026997               0.005163672               0.000403878              -0.000260335               0.001807985               0.001547650               0.000000000               0.000000000               0.000000000               0.000000000               0.001298526               0.005192150               0.000337640              -0.000162071               0.001784723               0.001622652               0.000000000               0.000000000               0.000000000               0.000000000               0.001619332               0.005171064               0.000250555              -0.000039134               0.001736715               0.001697582               0.000000000               0.000000000               0.000000000               0.000000000               0.002006081               0.005101174               0.000138123               0.000114632               0.001662164               0.001776796               0.000000000               0.000000000               0.000000000               0.000000000               0.002319137               0.005090070               0.000081652               0.000233415               0.001618868               0.001852283               0.000000000               0.000000000               0.000000000               0.000000000               0.000000000               0.000000000               0.000000000               0.000000000               0.000000000               0.000000000               0.000000000               0.000000000               0.000000000               0.000000000               0.000000000               0.000000000               0.000000000               0.000000000               0.000000000               0.000000000               0.000000000               0.000000000               0.000000000               0.000000000               0.000000000               0.000000000               0.000000000               0.000000000               0.000000000               0.000000000               0.000000000               0.000000000               0.000000000               0.000000000               0.000000000               0.000000000               0.000000000               0.000000000               0.000000000               0.000000000               0.000000000               0.000000000               0.000000000               0.000000000               0.000000000               0.000000000               0.000000000               0.000000000               0.000000000               0.000000000               0.000000000               0.000000000               0.000000000               0.000000000               0.000000000               0.000000000               0.000000000               0.000000000               0.000000000               0.000000000               0.000000000               0.000000000               0.000000000               0.000000000               0.000000000               0.000000000               0.000000000               0.000000000               0.000000000               0.000000000               0.000000000               0.000000000               0.000000000               0.000000000               0.000000000               0.000000000               0.000000000               0.000000000               0.000000000               0.000000000               0.000000000               0.000000000               0.000000000               0.000000000               0.000000000               0.000000000               0.000000000               0.000000000               0.000000000               0.000000000               0.000000000               0.000000000               0.000000000               0.000000000               0.000000000               0.000000000               0.000000000               0.000000000               0.000000000               0.000000000               0.000000000               0.000000000               0.000000000               0.000000000               0.000000000               0.000000000               0.000000000               0.000000000               0.000000000               0.000000000               0.000000000               0.000000000               0.000000000               0.000000000               0.000000000               0.000000000               0.000000000               0.000000000               0.000000000               0.000000000               0.000000000               0.000000000               0.000000000               0.000000000               0.000000000               0.000000000               0.000000000               0.000000000               0.000000000               0.000000000               0.000000000               0.000000000               0.000000000               0.000000000               0.000000000               0.000000000               0.000000000               0.000000000               0.000000000               0.000000000               0.000000000               0.000000000               0.000000000               0.000000000               0.000000000               0.000000000               0.000000000               0.000000000               0.000000000               0.000000000               0.000000000               0.000000000               0.000000000               0.000000000               0.000000000               0.000000000               0.000000000               0.000000000               0.000000000               0.000000000               0.000000000               0.000000000               0.000000000               0.000000000               0.000000000               0.000000000               0.000000000               0.000000000               0.000000000               0.000000000               0.000000000               0.000000000               0.000000000               0.000000000 </DataArray>
</PointData>
</Piece>
</UnstructuredGrid> </VTKFile>
