<?xml version="1.0"?>
<VTKFile type="UnstructuredGrid" version="0.1">
<UnstructuredGrid>
<Piece NumberOfPoints="      1156" NumberOfCells="      1024">
<Points>
<DataArray type="Float64"                                    Name="coordinates"                                                      NumberOfComponents=" 3" format="ascii">
              0.133000000               0.000000000               0.000000000               0.155937500               0.000000000               0.000000000               0.178875000               0.000000000               0.000000000               0.201812500               0.000000000               0.000000000               0.224750000               0.000000000               0.000000000               0.247687500               0.000000000               0.000000000               0.270625000               0.000000000               0.000000000               0.293562500               0.000000000               0.000000000               0.316500000               0.000000000               0.000000000               0.339437500               0.000000000               0.000000000               0.362375000               0.000000000               0.000000000               0.385312500               0.000000000               0.000000000               0.408250000               0.000000000               0.000000000               0.431187500               0.000000000               0.000000000               0.454125000               0.000000000               0.000000000               0.477062500               0.000000000               0.000000000               0.500000000               0.000000000               0.000000000               0.132359569               0.013036280               0.000000000               0.155337096               0.016127762               0.000000000               0.178314623               0.019219245               0.000000000               0.201292150               0.022310727               0.000000000               0.224269676               0.025402210               0.000000000               0.247247203               0.028493692               0.000000000               0.270224730               0.031585175               0.000000000               0.293202257               0.034676657               0.000000000               0.316179784               0.037768140               0.000000000               0.339157311               0.040859622               0.000000000               0.362134838               0.043951105               0.000000000               0.385112365               0.047042587               0.000000000               0.408089892               0.050134070               0.000000000               0.431067419               0.053225552               0.000000000               0.454044946               0.056317035               0.000000000               0.477022473               0.059408517               0.000000000               0.500000000               0.062500000               0.000000000               0.130444442               0.025947013               0.000000000               0.153541665               0.032137825               0.000000000               0.176638887               0.038328636               0.000000000               0.199736109               0.044519448               0.000000000               0.222833332               0.050710260               0.000000000               0.245930554               0.056901071               0.000000000               0.269027776               0.063091883               0.000000000               0.292124999               0.069282695               0.000000000               0.315222221               0.075473506               0.000000000               0.338319444               0.081664318               0.000000000               0.361416666               0.087855130               0.000000000               0.384513888               0.094045942               0.000000000               0.407611111               0.100236753               0.000000000               0.430708333               0.106427565               0.000000000               0.453805555               0.112618377               0.000000000               0.476902778               0.118809188               0.000000000               0.500000000               0.125000000               0.000000000               0.127273065               0.038607862               0.000000000               0.150568498               0.047913621               0.000000000               0.173863932               0.057219379               0.000000000               0.197159365               0.066525138               0.000000000               0.220454798               0.075830897               0.000000000               0.243750232               0.085136655               0.000000000               0.267045665               0.094442414               0.000000000               0.290341099               0.103748172               0.000000000               0.313636532               0.113053931               0.000000000               0.336931966               0.122359690               0.000000000               0.360227399               0.131665448               0.000000000               0.383522833               0.140971207               0.000000000               0.406818266               0.150276966               0.000000000               0.430113700               0.159582724               0.000000000               0.453409133               0.168888483               0.000000000               0.476704567               0.178194241               0.000000000               0.500000000               0.187500000               0.000000000               0.122875978               0.050896897               0.000000000               0.146446229               0.063340840               0.000000000               0.170016481               0.075784784               0.000000000               0.193586732               0.088228728               0.000000000               0.217156983               0.100672672               0.000000000               0.240727235               0.113116616               0.000000000               0.264297486               0.125560560               0.000000000               0.287867738               0.138004504               0.000000000               0.311437989               0.150448448               0.000000000               0.335008240               0.162892392               0.000000000               0.358578492               0.175336336               0.000000000               0.382148743               0.187780280               0.000000000               0.405718994               0.200224224               0.000000000               0.429289246               0.212668168               0.000000000               0.452859497               0.225112112               0.000000000               0.476429749               0.237556056               0.000000000               0.500000000               0.250000000               0.000000000               0.117295528               0.062695766               0.000000000               0.141214558               0.078308531               0.000000000               0.165133587               0.093921295               0.000000000               0.189052617               0.109534060               0.000000000               0.212971646               0.125146824               0.000000000               0.236890676               0.140759589               0.000000000               0.260809705               0.156372354               0.000000000               0.284728735               0.171985118               0.000000000               0.308647764               0.187597883               0.000000000               0.332566794               0.203210648               0.000000000               0.356485823               0.218823412               0.000000000               0.380404853               0.234436177               0.000000000               0.404323882               0.250048941               0.000000000               0.428242912               0.265661706               0.000000000               0.452161941               0.281274471               0.000000000               0.476080971               0.296887235               0.000000000               0.500000000               0.312500000               0.000000000               0.110585458               0.073890841               0.000000000               0.134923867               0.092710163               0.000000000               0.159262276               0.111529486               0.000000000               0.183600685               0.130348808               0.000000000               0.207939094               0.149168131               0.000000000               0.232277503               0.167987453               0.000000000               0.256615912               0.186806776               0.000000000               0.280954320               0.205626098               0.000000000               0.305292729               0.224445420               0.000000000               0.329631138               0.243264743               0.000000000               0.353969547               0.262084065               0.000000000               0.378307956               0.280903388               0.000000000               0.402646365               0.299722710               0.000000000               0.426984773               0.318542033               0.000000000               0.451323182               0.337361355               0.000000000               0.475661591               0.356180678               0.000000000               0.500000000               0.375000000               0.000000000               0.102810390               0.084374307               0.000000000               0.127634741               0.106444663               0.000000000               0.152459092               0.128515018               0.000000000               0.177283442               0.150585374               0.000000000               0.202107793               0.172655730               0.000000000               0.226932143               0.194726086               0.000000000               0.251756494               0.216796442               0.000000000               0.276580845               0.238866798               0.000000000               0.301405195               0.260937153               0.000000000               0.326229546               0.283007509               0.000000000               0.351053896               0.305077865               0.000000000               0.375878247               0.327148221               0.000000000               0.400702598               0.349218577               0.000000000               0.425526948               0.371288933               0.000000000               0.450351299               0.393359288               0.000000000               0.475175649               0.415429644               0.000000000               0.500000000               0.437500000               0.000000000               0.094045202               0.094045202               0.000000000               0.119417377               0.119417377               0.000000000               0.144789552               0.144789552               0.000000000               0.170161727               0.170161727               0.000000000               0.195533901               0.195533901               0.000000000               0.220906076               0.220906076               0.000000000               0.246278251               0.246278251               0.000000000               0.271650426               0.271650426               0.000000000               0.297022601               0.297022601               0.000000000               0.322394776               0.322394776               0.000000000               0.347766951               0.347766951               0.000000000               0.373139126               0.373139126               0.000000000               0.398511300               0.398511300               0.000000000               0.423883475               0.423883475               0.000000000               0.449255650               0.449255650               0.000000000               0.474627825               0.474627825               0.000000000               0.500000000               0.500000000               0.000000000               0.084374307               0.102810390               0.000000000               0.106444663               0.127634741               0.000000000               0.128515018               0.152459092               0.000000000               0.150585374               0.177283442               0.000000000               0.172655730               0.202107793               0.000000000               0.194726086               0.226932143               0.000000000               0.216796442               0.251756494               0.000000000               0.238866798               0.276580845               0.000000000               0.260937153               0.301405195               0.000000000               0.283007509               0.326229546               0.000000000               0.305077865               0.351053896               0.000000000               0.327148221               0.375878247               0.000000000               0.349218577               0.400702598               0.000000000               0.371288933               0.425526948               0.000000000               0.393359288               0.450351299               0.000000000               0.415429644               0.475175649               0.000000000               0.437500000               0.500000000               0.000000000               0.073890841               0.110585458               0.000000000               0.092710163               0.134923867               0.000000000               0.111529486               0.159262276               0.000000000               0.130348808               0.183600685               0.000000000               0.149168131               0.207939094               0.000000000               0.167987453               0.232277503               0.000000000               0.186806776               0.256615912               0.000000000               0.205626098               0.280954320               0.000000000               0.224445420               0.305292729               0.000000000               0.243264743               0.329631138               0.000000000               0.262084065               0.353969547               0.000000000               0.280903388               0.378307956               0.000000000               0.299722710               0.402646365               0.000000000               0.318542033               0.426984773               0.000000000               0.337361355               0.451323182               0.000000000               0.356180678               0.475661591               0.000000000               0.375000000               0.500000000               0.000000000               0.062695766               0.117295528               0.000000000               0.078308531               0.141214558               0.000000000               0.093921295               0.165133587               0.000000000               0.109534060               0.189052617               0.000000000               0.125146824               0.212971646               0.000000000               0.140759589               0.236890676               0.000000000               0.156372354               0.260809705               0.000000000               0.171985118               0.284728735               0.000000000               0.187597883               0.308647764               0.000000000               0.203210648               0.332566794               0.000000000               0.218823412               0.356485823               0.000000000               0.234436177               0.380404853               0.000000000               0.250048941               0.404323882               0.000000000               0.265661706               0.428242912               0.000000000               0.281274471               0.452161941               0.000000000               0.296887235               0.476080971               0.000000000               0.312500000               0.500000000               0.000000000               0.050896897               0.122875978               0.000000000               0.063340840               0.146446229               0.000000000               0.075784784               0.170016481               0.000000000               0.088228728               0.193586732               0.000000000               0.100672672               0.217156983               0.000000000               0.113116616               0.240727235               0.000000000               0.125560560               0.264297486               0.000000000               0.138004504               0.287867738               0.000000000               0.150448448               0.311437989               0.000000000               0.162892392               0.335008240               0.000000000               0.175336336               0.358578492               0.000000000               0.187780280               0.382148743               0.000000000               0.200224224               0.405718994               0.000000000               0.212668168               0.429289246               0.000000000               0.225112112               0.452859497               0.000000000               0.237556056               0.476429749               0.000000000               0.250000000               0.500000000               0.000000000               0.038607862               0.127273065               0.000000000               0.047913621               0.150568498               0.000000000               0.057219379               0.173863932               0.000000000               0.066525138               0.197159365               0.000000000               0.075830897               0.220454798               0.000000000               0.085136655               0.243750232               0.000000000               0.094442414               0.267045665               0.000000000               0.103748172               0.290341099               0.000000000               0.113053931               0.313636532               0.000000000               0.122359690               0.336931966               0.000000000               0.131665448               0.360227399               0.000000000               0.140971207               0.383522833               0.000000000               0.150276966               0.406818266               0.000000000               0.159582724               0.430113700               0.000000000               0.168888483               0.453409133               0.000000000               0.178194241               0.476704567               0.000000000               0.187500000               0.500000000               0.000000000               0.025947013               0.130444442               0.000000000               0.032137825               0.153541665               0.000000000               0.038328636               0.176638887               0.000000000               0.044519448               0.199736109               0.000000000               0.050710260               0.222833332               0.000000000               0.056901071               0.245930554               0.000000000               0.063091883               0.269027776               0.000000000               0.069282695               0.292124999               0.000000000               0.075473506               0.315222221               0.000000000               0.081664318               0.338319444               0.000000000               0.087855130               0.361416666               0.000000000               0.094045942               0.384513888               0.000000000               0.100236753               0.407611111               0.000000000               0.106427565               0.430708333               0.000000000               0.112618377               0.453805555               0.000000000               0.118809188               0.476902778               0.000000000               0.125000000               0.500000000               0.000000000               0.013036280               0.132359569               0.000000000               0.016127762               0.155337096               0.000000000               0.019219245               0.178314623               0.000000000               0.022310727               0.201292150               0.000000000               0.025402210               0.224269676               0.000000000               0.028493692               0.247247203               0.000000000               0.031585175               0.270224730               0.000000000               0.034676657               0.293202257               0.000000000               0.037768140               0.316179784               0.000000000               0.040859622               0.339157311               0.000000000               0.043951105               0.362134838               0.000000000               0.047042587               0.385112365               0.000000000               0.050134070               0.408089892               0.000000000               0.053225552               0.431067419               0.000000000               0.056317035               0.454044946               0.000000000               0.059408517               0.477022473               0.000000000               0.062500000               0.500000000               0.000000000               0.000000000               0.133000000               0.000000000               0.000000000               0.155937500               0.000000000               0.000000000               0.178875000               0.000000000               0.000000000               0.201812500               0.000000000               0.000000000               0.224750000               0.000000000               0.000000000               0.247687500               0.000000000               0.000000000               0.270625000               0.000000000               0.000000000               0.293562500               0.000000000               0.000000000               0.316500000               0.000000000               0.000000000               0.339437500               0.000000000               0.000000000               0.362375000               0.000000000               0.000000000               0.385312500               0.000000000               0.000000000               0.408250000               0.000000000               0.000000000               0.431187500               0.000000000               0.000000000               0.454125000               0.000000000               0.000000000               0.477062500               0.000000000               0.000000000               0.500000000               0.000000000               0.133000000               0.000000000               0.000000000               0.155937500               0.000000000               0.000000000               0.178875000               0.000000000               0.000000000               0.201812500               0.000000000               0.000000000               0.224750000               0.000000000               0.000000000               0.247687500               0.000000000               0.000000000               0.270625000               0.000000000               0.000000000               0.293562500               0.000000000               0.000000000               0.316500000               0.000000000               0.000000000               0.339437500               0.000000000               0.000000000               0.362375000               0.000000000               0.000000000               0.385312500               0.000000000               0.000000000               0.408250000               0.000000000               0.000000000               0.431187500               0.000000000               0.000000000               0.454125000               0.000000000               0.000000000               0.477062500               0.000000000               0.000000000               0.500000000               0.000000000               0.000000000               0.132359569              -0.013036280               0.000000000               0.155337096              -0.016127762               0.000000000               0.178314623              -0.019219245               0.000000000               0.201292150              -0.022310727               0.000000000               0.224269676              -0.025402210               0.000000000               0.247247203              -0.028493692               0.000000000               0.270224730              -0.031585175               0.000000000               0.293202257              -0.034676657               0.000000000               0.316179784              -0.037768140               0.000000000               0.339157311              -0.040859622               0.000000000               0.362134838              -0.043951105               0.000000000               0.385112365              -0.047042587               0.000000000               0.408089892              -0.050134070               0.000000000               0.431067419              -0.053225552               0.000000000               0.454044946              -0.056317035               0.000000000               0.477022473              -0.059408517               0.000000000               0.500000000              -0.062500000               0.000000000               0.130444442              -0.025947013               0.000000000               0.153541665              -0.032137825               0.000000000               0.176638887              -0.038328636               0.000000000               0.199736109              -0.044519448               0.000000000               0.222833332              -0.050710260               0.000000000               0.245930554              -0.056901071               0.000000000               0.269027776              -0.063091883               0.000000000               0.292124999              -0.069282695               0.000000000               0.315222221              -0.075473506               0.000000000               0.338319444              -0.081664318               0.000000000               0.361416666              -0.087855130               0.000000000               0.384513888              -0.094045942               0.000000000               0.407611111              -0.100236753               0.000000000               0.430708333              -0.106427565               0.000000000               0.453805555              -0.112618377               0.000000000               0.476902778              -0.118809188               0.000000000               0.500000000              -0.125000000               0.000000000               0.127273065              -0.038607862               0.000000000               0.150568498              -0.047913621               0.000000000               0.173863932              -0.057219379               0.000000000               0.197159365              -0.066525138               0.000000000               0.220454798              -0.075830897               0.000000000               0.243750232              -0.085136655               0.000000000               0.267045665              -0.094442414               0.000000000               0.290341099              -0.103748172               0.000000000               0.313636532              -0.113053931               0.000000000               0.336931966              -0.122359690               0.000000000               0.360227399              -0.131665448               0.000000000               0.383522833              -0.140971207               0.000000000               0.406818266              -0.150276966               0.000000000               0.430113700              -0.159582724               0.000000000               0.453409133              -0.168888483               0.000000000               0.476704567              -0.178194241               0.000000000               0.500000000              -0.187500000               0.000000000               0.122875978              -0.050896897               0.000000000               0.146446229              -0.063340840               0.000000000               0.170016481              -0.075784784               0.000000000               0.193586732              -0.088228728               0.000000000               0.217156983              -0.100672672               0.000000000               0.240727235              -0.113116616               0.000000000               0.264297486              -0.125560560               0.000000000               0.287867738              -0.138004504               0.000000000               0.311437989              -0.150448448               0.000000000               0.335008240              -0.162892392               0.000000000               0.358578492              -0.175336336               0.000000000               0.382148743              -0.187780280               0.000000000               0.405718994              -0.200224224               0.000000000               0.429289246              -0.212668168               0.000000000               0.452859497              -0.225112112               0.000000000               0.476429749              -0.237556056               0.000000000               0.500000000              -0.250000000               0.000000000               0.117295528              -0.062695766               0.000000000               0.141214558              -0.078308531               0.000000000               0.165133587              -0.093921295               0.000000000               0.189052617              -0.109534060               0.000000000               0.212971646              -0.125146824               0.000000000               0.236890676              -0.140759589               0.000000000               0.260809705              -0.156372354               0.000000000               0.284728735              -0.171985118               0.000000000               0.308647764              -0.187597883               0.000000000               0.332566794              -0.203210648               0.000000000               0.356485823              -0.218823412               0.000000000               0.380404853              -0.234436177               0.000000000               0.404323882              -0.250048941               0.000000000               0.428242912              -0.265661706               0.000000000               0.452161941              -0.281274471               0.000000000               0.476080971              -0.296887235               0.000000000               0.500000000              -0.312500000               0.000000000               0.110585458              -0.073890841               0.000000000               0.134923867              -0.092710163               0.000000000               0.159262276              -0.111529486               0.000000000               0.183600685              -0.130348808               0.000000000               0.207939094              -0.149168131               0.000000000               0.232277503              -0.167987453               0.000000000               0.256615912              -0.186806776               0.000000000               0.280954320              -0.205626098               0.000000000               0.305292729              -0.224445420               0.000000000               0.329631138              -0.243264743               0.000000000               0.353969547              -0.262084065               0.000000000               0.378307956              -0.280903388               0.000000000               0.402646365              -0.299722710               0.000000000               0.426984773              -0.318542033               0.000000000               0.451323182              -0.337361355               0.000000000               0.475661591              -0.356180678               0.000000000               0.500000000              -0.375000000               0.000000000               0.102810390              -0.084374307               0.000000000               0.127634741              -0.106444663               0.000000000               0.152459092              -0.128515018               0.000000000               0.177283442              -0.150585374               0.000000000               0.202107793              -0.172655730               0.000000000               0.226932143              -0.194726086               0.000000000               0.251756494              -0.216796442               0.000000000               0.276580845              -0.238866798               0.000000000               0.301405195              -0.260937153               0.000000000               0.326229546              -0.283007509               0.000000000               0.351053896              -0.305077865               0.000000000               0.375878247              -0.327148221               0.000000000               0.400702598              -0.349218577               0.000000000               0.425526948              -0.371288933               0.000000000               0.450351299              -0.393359288               0.000000000               0.475175649              -0.415429644               0.000000000               0.500000000              -0.437500000               0.000000000               0.094045202              -0.094045202               0.000000000               0.119417377              -0.119417377               0.000000000               0.144789552              -0.144789552               0.000000000               0.170161727              -0.170161727               0.000000000               0.195533901              -0.195533901               0.000000000               0.220906076              -0.220906076               0.000000000               0.246278251              -0.246278251               0.000000000               0.271650426              -0.271650426               0.000000000               0.297022601              -0.297022601               0.000000000               0.322394776              -0.322394776               0.000000000               0.347766951              -0.347766951               0.000000000               0.373139126              -0.373139126               0.000000000               0.398511300              -0.398511300               0.000000000               0.423883475              -0.423883475               0.000000000               0.449255650              -0.449255650               0.000000000               0.474627825              -0.474627825               0.000000000               0.500000000              -0.500000000               0.000000000               0.084374307              -0.102810390               0.000000000               0.106444663              -0.127634741               0.000000000               0.128515018              -0.152459092               0.000000000               0.150585374              -0.177283442               0.000000000               0.172655730              -0.202107793               0.000000000               0.194726086              -0.226932143               0.000000000               0.216796442              -0.251756494               0.000000000               0.238866798              -0.276580845               0.000000000               0.260937153              -0.301405195               0.000000000               0.283007509              -0.326229546               0.000000000               0.305077865              -0.351053896               0.000000000               0.327148221              -0.375878247               0.000000000               0.349218577              -0.400702598               0.000000000               0.371288933              -0.425526948               0.000000000               0.393359288              -0.450351299               0.000000000               0.415429644              -0.475175649               0.000000000               0.437500000              -0.500000000               0.000000000               0.073890841              -0.110585458               0.000000000               0.092710163              -0.134923867               0.000000000               0.111529486              -0.159262276               0.000000000               0.130348808              -0.183600685               0.000000000               0.149168131              -0.207939094               0.000000000               0.167987453              -0.232277503               0.000000000               0.186806776              -0.256615912               0.000000000               0.205626098              -0.280954320               0.000000000               0.224445420              -0.305292729               0.000000000               0.243264743              -0.329631138               0.000000000               0.262084065              -0.353969547               0.000000000               0.280903388              -0.378307956               0.000000000               0.299722710              -0.402646365               0.000000000               0.318542033              -0.426984773               0.000000000               0.337361355              -0.451323182               0.000000000               0.356180678              -0.475661591               0.000000000               0.375000000              -0.500000000               0.000000000               0.062695766              -0.117295528               0.000000000               0.078308531              -0.141214558               0.000000000               0.093921295              -0.165133587               0.000000000               0.109534060              -0.189052617               0.000000000               0.125146824              -0.212971646               0.000000000               0.140759589              -0.236890676               0.000000000               0.156372354              -0.260809705               0.000000000               0.171985118              -0.284728735               0.000000000               0.187597883              -0.308647764               0.000000000               0.203210648              -0.332566794               0.000000000               0.218823412              -0.356485823               0.000000000               0.234436177              -0.380404853               0.000000000               0.250048941              -0.404323882               0.000000000               0.265661706              -0.428242912               0.000000000               0.281274471              -0.452161941               0.000000000               0.296887235              -0.476080971               0.000000000               0.312500000              -0.500000000               0.000000000               0.050896897              -0.122875978               0.000000000               0.063340840              -0.146446229               0.000000000               0.075784784              -0.170016481               0.000000000               0.088228728              -0.193586732               0.000000000               0.100672672              -0.217156983               0.000000000               0.113116616              -0.240727235               0.000000000               0.125560560              -0.264297486               0.000000000               0.138004504              -0.287867738               0.000000000               0.150448448              -0.311437989               0.000000000               0.162892392              -0.335008240               0.000000000               0.175336336              -0.358578492               0.000000000               0.187780280              -0.382148743               0.000000000               0.200224224              -0.405718994               0.000000000               0.212668168              -0.429289246               0.000000000               0.225112112              -0.452859497               0.000000000               0.237556056              -0.476429749               0.000000000               0.250000000              -0.500000000               0.000000000               0.038607862              -0.127273065               0.000000000               0.047913621              -0.150568498               0.000000000               0.057219379              -0.173863932               0.000000000               0.066525138              -0.197159365               0.000000000               0.075830897              -0.220454798               0.000000000               0.085136655              -0.243750232               0.000000000               0.094442414              -0.267045665               0.000000000               0.103748172              -0.290341099               0.000000000               0.113053931              -0.313636532               0.000000000               0.122359690              -0.336931966               0.000000000               0.131665448              -0.360227399               0.000000000               0.140971207              -0.383522833               0.000000000               0.150276966              -0.406818266               0.000000000               0.159582724              -0.430113700               0.000000000               0.168888483              -0.453409133               0.000000000               0.178194241              -0.476704567               0.000000000               0.187500000              -0.500000000               0.000000000               0.025947013              -0.130444442               0.000000000               0.032137825              -0.153541665               0.000000000               0.038328636              -0.176638887               0.000000000               0.044519448              -0.199736109               0.000000000               0.050710260              -0.222833332               0.000000000               0.056901071              -0.245930554               0.000000000               0.063091883              -0.269027776               0.000000000               0.069282695              -0.292124999               0.000000000               0.075473506              -0.315222221               0.000000000               0.081664318              -0.338319444               0.000000000               0.087855130              -0.361416666               0.000000000               0.094045942              -0.384513888               0.000000000               0.100236753              -0.407611111               0.000000000               0.106427565              -0.430708333               0.000000000               0.112618377              -0.453805555               0.000000000               0.118809188              -0.476902778               0.000000000               0.125000000              -0.500000000               0.000000000               0.013036280              -0.132359569               0.000000000               0.016127762              -0.155337096               0.000000000               0.019219245              -0.178314623               0.000000000               0.022310727              -0.201292150               0.000000000               0.025402210              -0.224269676               0.000000000               0.028493692              -0.247247203               0.000000000               0.031585175              -0.270224730               0.000000000               0.034676657              -0.293202257               0.000000000               0.037768140              -0.316179784               0.000000000               0.040859622              -0.339157311               0.000000000               0.043951105              -0.362134838               0.000000000               0.047042587              -0.385112365               0.000000000               0.050134070              -0.408089892               0.000000000               0.053225552              -0.431067419               0.000000000               0.056317035              -0.454044946               0.000000000               0.059408517              -0.477022473               0.000000000               0.062500000              -0.500000000               0.000000000               0.000000000              -0.133000000               0.000000000               0.000000000              -0.155937500               0.000000000               0.000000000              -0.178875000               0.000000000               0.000000000              -0.201812500               0.000000000               0.000000000              -0.224750000               0.000000000               0.000000000              -0.247687500               0.000000000               0.000000000              -0.270625000               0.000000000               0.000000000              -0.293562500               0.000000000               0.000000000              -0.316500000               0.000000000               0.000000000              -0.339437500               0.000000000               0.000000000              -0.362375000               0.000000000               0.000000000              -0.385312500               0.000000000               0.000000000              -0.408250000               0.000000000               0.000000000              -0.431187500               0.000000000               0.000000000              -0.454125000               0.000000000               0.000000000              -0.477062500               0.000000000               0.000000000              -0.500000000               0.000000000              -0.133000000               0.000000000               0.000000000              -0.155937500               0.000000000               0.000000000              -0.178875000               0.000000000               0.000000000              -0.201812500               0.000000000               0.000000000              -0.224750000               0.000000000               0.000000000              -0.247687500               0.000000000               0.000000000              -0.270625000               0.000000000               0.000000000              -0.293562500               0.000000000               0.000000000              -0.316500000               0.000000000               0.000000000              -0.339437500               0.000000000               0.000000000              -0.362375000               0.000000000               0.000000000              -0.385312500               0.000000000               0.000000000              -0.408250000               0.000000000               0.000000000              -0.431187500               0.000000000               0.000000000              -0.454125000               0.000000000               0.000000000              -0.477062500               0.000000000               0.000000000              -0.500000000               0.000000000               0.000000000              -0.132359569              -0.013036280               0.000000000              -0.155337096              -0.016127762               0.000000000              -0.178314623              -0.019219245               0.000000000              -0.201292150              -0.022310727               0.000000000              -0.224269676              -0.025402210               0.000000000              -0.247247203              -0.028493692               0.000000000              -0.270224730              -0.031585175               0.000000000              -0.293202257              -0.034676657               0.000000000              -0.316179784              -0.037768140               0.000000000              -0.339157311              -0.040859622               0.000000000              -0.362134838              -0.043951105               0.000000000              -0.385112365              -0.047042587               0.000000000              -0.408089892              -0.050134070               0.000000000              -0.431067419              -0.053225552               0.000000000              -0.454044946              -0.056317035               0.000000000              -0.477022473              -0.059408517               0.000000000              -0.500000000              -0.062500000               0.000000000              -0.130444442              -0.025947013               0.000000000              -0.153541665              -0.032137825               0.000000000              -0.176638887              -0.038328636               0.000000000              -0.199736109              -0.044519448               0.000000000              -0.222833332              -0.050710260               0.000000000              -0.245930554              -0.056901071               0.000000000              -0.269027776              -0.063091883               0.000000000              -0.292124999              -0.069282695               0.000000000              -0.315222221              -0.075473506               0.000000000              -0.338319444              -0.081664318               0.000000000              -0.361416666              -0.087855130               0.000000000              -0.384513888              -0.094045942               0.000000000              -0.407611111              -0.100236753               0.000000000              -0.430708333              -0.106427565               0.000000000              -0.453805555              -0.112618377               0.000000000              -0.476902778              -0.118809188               0.000000000              -0.500000000              -0.125000000               0.000000000              -0.127273065              -0.038607862               0.000000000              -0.150568498              -0.047913621               0.000000000              -0.173863932              -0.057219379               0.000000000              -0.197159365              -0.066525138               0.000000000              -0.220454798              -0.075830897               0.000000000              -0.243750232              -0.085136655               0.000000000              -0.267045665              -0.094442414               0.000000000              -0.290341099              -0.103748172               0.000000000              -0.313636532              -0.113053931               0.000000000              -0.336931966              -0.122359690               0.000000000              -0.360227399              -0.131665448               0.000000000              -0.383522833              -0.140971207               0.000000000              -0.406818266              -0.150276966               0.000000000              -0.430113700              -0.159582724               0.000000000              -0.453409133              -0.168888483               0.000000000              -0.476704567              -0.178194241               0.000000000              -0.500000000              -0.187500000               0.000000000              -0.122875978              -0.050896897               0.000000000              -0.146446229              -0.063340840               0.000000000              -0.170016481              -0.075784784               0.000000000              -0.193586732              -0.088228728               0.000000000              -0.217156983              -0.100672672               0.000000000              -0.240727235              -0.113116616               0.000000000              -0.264297486              -0.125560560               0.000000000              -0.287867738              -0.138004504               0.000000000              -0.311437989              -0.150448448               0.000000000              -0.335008240              -0.162892392               0.000000000              -0.358578492              -0.175336336               0.000000000              -0.382148743              -0.187780280               0.000000000              -0.405718994              -0.200224224               0.000000000              -0.429289246              -0.212668168               0.000000000              -0.452859497              -0.225112112               0.000000000              -0.476429749              -0.237556056               0.000000000              -0.500000000              -0.250000000               0.000000000              -0.117295528              -0.062695766               0.000000000              -0.141214558              -0.078308531               0.000000000              -0.165133587              -0.093921295               0.000000000              -0.189052617              -0.109534060               0.000000000              -0.212971646              -0.125146824               0.000000000              -0.236890676              -0.140759589               0.000000000              -0.260809705              -0.156372354               0.000000000              -0.284728735              -0.171985118               0.000000000              -0.308647764              -0.187597883               0.000000000              -0.332566794              -0.203210648               0.000000000              -0.356485823              -0.218823412               0.000000000              -0.380404853              -0.234436177               0.000000000              -0.404323882              -0.250048941               0.000000000              -0.428242912              -0.265661706               0.000000000              -0.452161941              -0.281274471               0.000000000              -0.476080971              -0.296887235               0.000000000              -0.500000000              -0.312500000               0.000000000              -0.110585458              -0.073890841               0.000000000              -0.134923867              -0.092710163               0.000000000              -0.159262276              -0.111529486               0.000000000              -0.183600685              -0.130348808               0.000000000              -0.207939094              -0.149168131               0.000000000              -0.232277503              -0.167987453               0.000000000              -0.256615912              -0.186806776               0.000000000              -0.280954320              -0.205626098               0.000000000              -0.305292729              -0.224445420               0.000000000              -0.329631138              -0.243264743               0.000000000              -0.353969547              -0.262084065               0.000000000              -0.378307956              -0.280903388               0.000000000              -0.402646365              -0.299722710               0.000000000              -0.426984773              -0.318542033               0.000000000              -0.451323182              -0.337361355               0.000000000              -0.475661591              -0.356180678               0.000000000              -0.500000000              -0.375000000               0.000000000              -0.102810390              -0.084374307               0.000000000              -0.127634741              -0.106444663               0.000000000              -0.152459092              -0.128515018               0.000000000              -0.177283442              -0.150585374               0.000000000              -0.202107793              -0.172655730               0.000000000              -0.226932143              -0.194726086               0.000000000              -0.251756494              -0.216796442               0.000000000              -0.276580845              -0.238866798               0.000000000              -0.301405195              -0.260937153               0.000000000              -0.326229546              -0.283007509               0.000000000              -0.351053896              -0.305077865               0.000000000              -0.375878247              -0.327148221               0.000000000              -0.400702598              -0.349218577               0.000000000              -0.425526948              -0.371288933               0.000000000              -0.450351299              -0.393359288               0.000000000              -0.475175649              -0.415429644               0.000000000              -0.500000000              -0.437500000               0.000000000              -0.094045202              -0.094045202               0.000000000              -0.119417377              -0.119417377               0.000000000              -0.144789552              -0.144789552               0.000000000              -0.170161727              -0.170161727               0.000000000              -0.195533901              -0.195533901               0.000000000              -0.220906076              -0.220906076               0.000000000              -0.246278251              -0.246278251               0.000000000              -0.271650426              -0.271650426               0.000000000              -0.297022601              -0.297022601               0.000000000              -0.322394776              -0.322394776               0.000000000              -0.347766951              -0.347766951               0.000000000              -0.373139126              -0.373139126               0.000000000              -0.398511300              -0.398511300               0.000000000              -0.423883475              -0.423883475               0.000000000              -0.449255650              -0.449255650               0.000000000              -0.474627825              -0.474627825               0.000000000              -0.500000000              -0.500000000               0.000000000              -0.084374307              -0.102810390               0.000000000              -0.106444663              -0.127634741               0.000000000              -0.128515018              -0.152459092               0.000000000              -0.150585374              -0.177283442               0.000000000              -0.172655730              -0.202107793               0.000000000              -0.194726086              -0.226932143               0.000000000              -0.216796442              -0.251756494               0.000000000              -0.238866798              -0.276580845               0.000000000              -0.260937153              -0.301405195               0.000000000              -0.283007509              -0.326229546               0.000000000              -0.305077865              -0.351053896               0.000000000              -0.327148221              -0.375878247               0.000000000              -0.349218577              -0.400702598               0.000000000              -0.371288933              -0.425526948               0.000000000              -0.393359288              -0.450351299               0.000000000              -0.415429644              -0.475175649               0.000000000              -0.437500000              -0.500000000               0.000000000              -0.073890841              -0.110585458               0.000000000              -0.092710163              -0.134923867               0.000000000              -0.111529486              -0.159262276               0.000000000              -0.130348808              -0.183600685               0.000000000              -0.149168131              -0.207939094               0.000000000              -0.167987453              -0.232277503               0.000000000              -0.186806776              -0.256615912               0.000000000              -0.205626098              -0.280954320               0.000000000              -0.224445420              -0.305292729               0.000000000              -0.243264743              -0.329631138               0.000000000              -0.262084065              -0.353969547               0.000000000              -0.280903388              -0.378307956               0.000000000              -0.299722710              -0.402646365               0.000000000              -0.318542033              -0.426984773               0.000000000              -0.337361355              -0.451323182               0.000000000              -0.356180678              -0.475661591               0.000000000              -0.375000000              -0.500000000               0.000000000              -0.062695766              -0.117295528               0.000000000              -0.078308531              -0.141214558               0.000000000              -0.093921295              -0.165133587               0.000000000              -0.109534060              -0.189052617               0.000000000              -0.125146824              -0.212971646               0.000000000              -0.140759589              -0.236890676               0.000000000              -0.156372354              -0.260809705               0.000000000              -0.171985118              -0.284728735               0.000000000              -0.187597883              -0.308647764               0.000000000              -0.203210648              -0.332566794               0.000000000              -0.218823412              -0.356485823               0.000000000              -0.234436177              -0.380404853               0.000000000              -0.250048941              -0.404323882               0.000000000              -0.265661706              -0.428242912               0.000000000              -0.281274471              -0.452161941               0.000000000              -0.296887235              -0.476080971               0.000000000              -0.312500000              -0.500000000               0.000000000              -0.050896897              -0.122875978               0.000000000              -0.063340840              -0.146446229               0.000000000              -0.075784784              -0.170016481               0.000000000              -0.088228728              -0.193586732               0.000000000              -0.100672672              -0.217156983               0.000000000              -0.113116616              -0.240727235               0.000000000              -0.125560560              -0.264297486               0.000000000              -0.138004504              -0.287867738               0.000000000              -0.150448448              -0.311437989               0.000000000              -0.162892392              -0.335008240               0.000000000              -0.175336336              -0.358578492               0.000000000              -0.187780280              -0.382148743               0.000000000              -0.200224224              -0.405718994               0.000000000              -0.212668168              -0.429289246               0.000000000              -0.225112112              -0.452859497               0.000000000              -0.237556056              -0.476429749               0.000000000              -0.250000000              -0.500000000               0.000000000              -0.038607862              -0.127273065               0.000000000              -0.047913621              -0.150568498               0.000000000              -0.057219379              -0.173863932               0.000000000              -0.066525138              -0.197159365               0.000000000              -0.075830897              -0.220454798               0.000000000              -0.085136655              -0.243750232               0.000000000              -0.094442414              -0.267045665               0.000000000              -0.103748172              -0.290341099               0.000000000              -0.113053931              -0.313636532               0.000000000              -0.122359690              -0.336931966               0.000000000              -0.131665448              -0.360227399               0.000000000              -0.140971207              -0.383522833               0.000000000              -0.150276966              -0.406818266               0.000000000              -0.159582724              -0.430113700               0.000000000              -0.168888483              -0.453409133               0.000000000              -0.178194241              -0.476704567               0.000000000              -0.187500000              -0.500000000               0.000000000              -0.025947013              -0.130444442               0.000000000              -0.032137825              -0.153541665               0.000000000              -0.038328636              -0.176638887               0.000000000              -0.044519448              -0.199736109               0.000000000              -0.050710260              -0.222833332               0.000000000              -0.056901071              -0.245930554               0.000000000              -0.063091883              -0.269027776               0.000000000              -0.069282695              -0.292124999               0.000000000              -0.075473506              -0.315222221               0.000000000              -0.081664318              -0.338319444               0.000000000              -0.087855130              -0.361416666               0.000000000              -0.094045942              -0.384513888               0.000000000              -0.100236753              -0.407611111               0.000000000              -0.106427565              -0.430708333               0.000000000              -0.112618377              -0.453805555               0.000000000              -0.118809188              -0.476902778               0.000000000              -0.125000000              -0.500000000               0.000000000              -0.013036280              -0.132359569               0.000000000              -0.016127762              -0.155337096               0.000000000              -0.019219245              -0.178314623               0.000000000              -0.022310727              -0.201292150               0.000000000              -0.025402210              -0.224269676               0.000000000              -0.028493692              -0.247247203               0.000000000              -0.031585175              -0.270224730               0.000000000              -0.034676657              -0.293202257               0.000000000              -0.037768140              -0.316179784               0.000000000              -0.040859622              -0.339157311               0.000000000              -0.043951105              -0.362134838               0.000000000              -0.047042587              -0.385112365               0.000000000              -0.050134070              -0.408089892               0.000000000              -0.053225552              -0.431067419               0.000000000              -0.056317035              -0.454044946               0.000000000              -0.059408517              -0.477022473               0.000000000              -0.062500000              -0.500000000               0.000000000               0.000000000              -0.133000000               0.000000000               0.000000000              -0.155937500               0.000000000               0.000000000              -0.178875000               0.000000000               0.000000000              -0.201812500               0.000000000               0.000000000              -0.224750000               0.000000000               0.000000000              -0.247687500               0.000000000               0.000000000              -0.270625000               0.000000000               0.000000000              -0.293562500               0.000000000               0.000000000              -0.316500000               0.000000000               0.000000000              -0.339437500               0.000000000               0.000000000              -0.362375000               0.000000000               0.000000000              -0.385312500               0.000000000               0.000000000              -0.408250000               0.000000000               0.000000000              -0.431187500               0.000000000               0.000000000              -0.454125000               0.000000000               0.000000000              -0.477062500               0.000000000               0.000000000              -0.500000000               0.000000000              -0.133000000               0.000000000               0.000000000              -0.155937500               0.000000000               0.000000000              -0.178875000               0.000000000               0.000000000              -0.201812500               0.000000000               0.000000000              -0.224750000               0.000000000               0.000000000              -0.247687500               0.000000000               0.000000000              -0.270625000               0.000000000               0.000000000              -0.293562500               0.000000000               0.000000000              -0.316500000               0.000000000               0.000000000              -0.339437500               0.000000000               0.000000000              -0.362375000               0.000000000               0.000000000              -0.385312500               0.000000000               0.000000000              -0.408250000               0.000000000               0.000000000              -0.431187500               0.000000000               0.000000000              -0.454125000               0.000000000               0.000000000              -0.477062500               0.000000000               0.000000000              -0.500000000               0.000000000               0.000000000              -0.132359569               0.013036280               0.000000000              -0.155337096               0.016127762               0.000000000              -0.178314623               0.019219245               0.000000000              -0.201292150               0.022310727               0.000000000              -0.224269676               0.025402210               0.000000000              -0.247247203               0.028493692               0.000000000              -0.270224730               0.031585175               0.000000000              -0.293202257               0.034676657               0.000000000              -0.316179784               0.037768140               0.000000000              -0.339157311               0.040859622               0.000000000              -0.362134838               0.043951105               0.000000000              -0.385112365               0.047042587               0.000000000              -0.408089892               0.050134070               0.000000000              -0.431067419               0.053225552               0.000000000              -0.454044946               0.056317035               0.000000000              -0.477022473               0.059408517               0.000000000              -0.500000000               0.062500000               0.000000000              -0.130444442               0.025947013               0.000000000              -0.153541665               0.032137825               0.000000000              -0.176638887               0.038328636               0.000000000              -0.199736109               0.044519448               0.000000000              -0.222833332               0.050710260               0.000000000              -0.245930554               0.056901071               0.000000000              -0.269027776               0.063091883               0.000000000              -0.292124999               0.069282695               0.000000000              -0.315222221               0.075473506               0.000000000              -0.338319444               0.081664318               0.000000000              -0.361416666               0.087855130               0.000000000              -0.384513888               0.094045942               0.000000000              -0.407611111               0.100236753               0.000000000              -0.430708333               0.106427565               0.000000000              -0.453805555               0.112618377               0.000000000              -0.476902778               0.118809188               0.000000000              -0.500000000               0.125000000               0.000000000              -0.127273065               0.038607862               0.000000000              -0.150568498               0.047913621               0.000000000              -0.173863932               0.057219379               0.000000000              -0.197159365               0.066525138               0.000000000              -0.220454798               0.075830897               0.000000000              -0.243750232               0.085136655               0.000000000              -0.267045665               0.094442414               0.000000000              -0.290341099               0.103748172               0.000000000              -0.313636532               0.113053931               0.000000000              -0.336931966               0.122359690               0.000000000              -0.360227399               0.131665448               0.000000000              -0.383522833               0.140971207               0.000000000              -0.406818266               0.150276966               0.000000000              -0.430113700               0.159582724               0.000000000              -0.453409133               0.168888483               0.000000000              -0.476704567               0.178194241               0.000000000              -0.500000000               0.187500000               0.000000000              -0.122875978               0.050896897               0.000000000              -0.146446229               0.063340840               0.000000000              -0.170016481               0.075784784               0.000000000              -0.193586732               0.088228728               0.000000000              -0.217156983               0.100672672               0.000000000              -0.240727235               0.113116616               0.000000000              -0.264297486               0.125560560               0.000000000              -0.287867738               0.138004504               0.000000000              -0.311437989               0.150448448               0.000000000              -0.335008240               0.162892392               0.000000000              -0.358578492               0.175336336               0.000000000              -0.382148743               0.187780280               0.000000000              -0.405718994               0.200224224               0.000000000              -0.429289246               0.212668168               0.000000000              -0.452859497               0.225112112               0.000000000              -0.476429749               0.237556056               0.000000000              -0.500000000               0.250000000               0.000000000              -0.117295528               0.062695766               0.000000000              -0.141214558               0.078308531               0.000000000              -0.165133587               0.093921295               0.000000000              -0.189052617               0.109534060               0.000000000              -0.212971646               0.125146824               0.000000000              -0.236890676               0.140759589               0.000000000              -0.260809705               0.156372354               0.000000000              -0.284728735               0.171985118               0.000000000              -0.308647764               0.187597883               0.000000000              -0.332566794               0.203210648               0.000000000              -0.356485823               0.218823412               0.000000000              -0.380404853               0.234436177               0.000000000              -0.404323882               0.250048941               0.000000000              -0.428242912               0.265661706               0.000000000              -0.452161941               0.281274471               0.000000000              -0.476080971               0.296887235               0.000000000              -0.500000000               0.312500000               0.000000000              -0.110585458               0.073890841               0.000000000              -0.134923867               0.092710163               0.000000000              -0.159262276               0.111529486               0.000000000              -0.183600685               0.130348808               0.000000000              -0.207939094               0.149168131               0.000000000              -0.232277503               0.167987453               0.000000000              -0.256615912               0.186806776               0.000000000              -0.280954320               0.205626098               0.000000000              -0.305292729               0.224445420               0.000000000              -0.329631138               0.243264743               0.000000000              -0.353969547               0.262084065               0.000000000              -0.378307956               0.280903388               0.000000000              -0.402646365               0.299722710               0.000000000              -0.426984773               0.318542033               0.000000000              -0.451323182               0.337361355               0.000000000              -0.475661591               0.356180678               0.000000000              -0.500000000               0.375000000               0.000000000              -0.102810390               0.084374307               0.000000000              -0.127634741               0.106444663               0.000000000              -0.152459092               0.128515018               0.000000000              -0.177283442               0.150585374               0.000000000              -0.202107793               0.172655730               0.000000000              -0.226932143               0.194726086               0.000000000              -0.251756494               0.216796442               0.000000000              -0.276580845               0.238866798               0.000000000              -0.301405195               0.260937153               0.000000000              -0.326229546               0.283007509               0.000000000              -0.351053896               0.305077865               0.000000000              -0.375878247               0.327148221               0.000000000              -0.400702598               0.349218577               0.000000000              -0.425526948               0.371288933               0.000000000              -0.450351299               0.393359288               0.000000000              -0.475175649               0.415429644               0.000000000              -0.500000000               0.437500000               0.000000000              -0.094045202               0.094045202               0.000000000              -0.119417377               0.119417377               0.000000000              -0.144789552               0.144789552               0.000000000              -0.170161727               0.170161727               0.000000000              -0.195533901               0.195533901               0.000000000              -0.220906076               0.220906076               0.000000000              -0.246278251               0.246278251               0.000000000              -0.271650426               0.271650426               0.000000000              -0.297022601               0.297022601               0.000000000              -0.322394776               0.322394776               0.000000000              -0.347766951               0.347766951               0.000000000              -0.373139126               0.373139126               0.000000000              -0.398511300               0.398511300               0.000000000              -0.423883475               0.423883475               0.000000000              -0.449255650               0.449255650               0.000000000              -0.474627825               0.474627825               0.000000000              -0.500000000               0.500000000               0.000000000              -0.084374307               0.102810390               0.000000000              -0.106444663               0.127634741               0.000000000              -0.128515018               0.152459092               0.000000000              -0.150585374               0.177283442               0.000000000              -0.172655730               0.202107793               0.000000000              -0.194726086               0.226932143               0.000000000              -0.216796442               0.251756494               0.000000000              -0.238866798               0.276580845               0.000000000              -0.260937153               0.301405195               0.000000000              -0.283007509               0.326229546               0.000000000              -0.305077865               0.351053896               0.000000000              -0.327148221               0.375878247               0.000000000              -0.349218577               0.400702598               0.000000000              -0.371288933               0.425526948               0.000000000              -0.393359288               0.450351299               0.000000000              -0.415429644               0.475175649               0.000000000              -0.437500000               0.500000000               0.000000000              -0.073890841               0.110585458               0.000000000              -0.092710163               0.134923867               0.000000000              -0.111529486               0.159262276               0.000000000              -0.130348808               0.183600685               0.000000000              -0.149168131               0.207939094               0.000000000              -0.167987453               0.232277503               0.000000000              -0.186806776               0.256615912               0.000000000              -0.205626098               0.280954320               0.000000000              -0.224445420               0.305292729               0.000000000              -0.243264743               0.329631138               0.000000000              -0.262084065               0.353969547               0.000000000              -0.280903388               0.378307956               0.000000000              -0.299722710               0.402646365               0.000000000              -0.318542033               0.426984773               0.000000000              -0.337361355               0.451323182               0.000000000              -0.356180678               0.475661591               0.000000000              -0.375000000               0.500000000               0.000000000              -0.062695766               0.117295528               0.000000000              -0.078308531               0.141214558               0.000000000              -0.093921295               0.165133587               0.000000000              -0.109534060               0.189052617               0.000000000              -0.125146824               0.212971646               0.000000000              -0.140759589               0.236890676               0.000000000              -0.156372354               0.260809705               0.000000000              -0.171985118               0.284728735               0.000000000              -0.187597883               0.308647764               0.000000000              -0.203210648               0.332566794               0.000000000              -0.218823412               0.356485823               0.000000000              -0.234436177               0.380404853               0.000000000              -0.250048941               0.404323882               0.000000000              -0.265661706               0.428242912               0.000000000              -0.281274471               0.452161941               0.000000000              -0.296887235               0.476080971               0.000000000              -0.312500000               0.500000000               0.000000000              -0.050896897               0.122875978               0.000000000              -0.063340840               0.146446229               0.000000000              -0.075784784               0.170016481               0.000000000              -0.088228728               0.193586732               0.000000000              -0.100672672               0.217156983               0.000000000              -0.113116616               0.240727235               0.000000000              -0.125560560               0.264297486               0.000000000              -0.138004504               0.287867738               0.000000000              -0.150448448               0.311437989               0.000000000              -0.162892392               0.335008240               0.000000000              -0.175336336               0.358578492               0.000000000              -0.187780280               0.382148743               0.000000000              -0.200224224               0.405718994               0.000000000              -0.212668168               0.429289246               0.000000000              -0.225112112               0.452859497               0.000000000              -0.237556056               0.476429749               0.000000000              -0.250000000               0.500000000               0.000000000              -0.038607862               0.127273065               0.000000000              -0.047913621               0.150568498               0.000000000              -0.057219379               0.173863932               0.000000000              -0.066525138               0.197159365               0.000000000              -0.075830897               0.220454798               0.000000000              -0.085136655               0.243750232               0.000000000              -0.094442414               0.267045665               0.000000000              -0.103748172               0.290341099               0.000000000              -0.113053931               0.313636532               0.000000000              -0.122359690               0.336931966               0.000000000              -0.131665448               0.360227399               0.000000000              -0.140971207               0.383522833               0.000000000              -0.150276966               0.406818266               0.000000000              -0.159582724               0.430113700               0.000000000              -0.168888483               0.453409133               0.000000000              -0.178194241               0.476704567               0.000000000              -0.187500000               0.500000000               0.000000000              -0.025947013               0.130444442               0.000000000              -0.032137825               0.153541665               0.000000000              -0.038328636               0.176638887               0.000000000              -0.044519448               0.199736109               0.000000000              -0.050710260               0.222833332               0.000000000              -0.056901071               0.245930554               0.000000000              -0.063091883               0.269027776               0.000000000              -0.069282695               0.292124999               0.000000000              -0.075473506               0.315222221               0.000000000              -0.081664318               0.338319444               0.000000000              -0.087855130               0.361416666               0.000000000              -0.094045942               0.384513888               0.000000000              -0.100236753               0.407611111               0.000000000              -0.106427565               0.430708333               0.000000000              -0.112618377               0.453805555               0.000000000              -0.118809188               0.476902778               0.000000000              -0.125000000               0.500000000               0.000000000              -0.013036280               0.132359569               0.000000000              -0.016127762               0.155337096               0.000000000              -0.019219245               0.178314623               0.000000000              -0.022310727               0.201292150               0.000000000              -0.025402210               0.224269676               0.000000000              -0.028493692               0.247247203               0.000000000              -0.031585175               0.270224730               0.000000000              -0.034676657               0.293202257               0.000000000              -0.037768140               0.316179784               0.000000000              -0.040859622               0.339157311               0.000000000              -0.043951105               0.362134838               0.000000000              -0.047042587               0.385112365               0.000000000              -0.050134070               0.408089892               0.000000000              -0.053225552               0.431067419               0.000000000              -0.056317035               0.454044946               0.000000000              -0.059408517               0.477022473               0.000000000              -0.062500000               0.500000000               0.000000000               0.000000000               0.133000000               0.000000000               0.000000000               0.155937500               0.000000000               0.000000000               0.178875000               0.000000000               0.000000000               0.201812500               0.000000000               0.000000000               0.224750000               0.000000000               0.000000000               0.247687500               0.000000000               0.000000000               0.270625000               0.000000000               0.000000000               0.293562500               0.000000000               0.000000000               0.316500000               0.000000000               0.000000000               0.339437500               0.000000000               0.000000000               0.362375000               0.000000000               0.000000000               0.385312500               0.000000000               0.000000000               0.408250000               0.000000000               0.000000000               0.431187500               0.000000000               0.000000000               0.454125000               0.000000000               0.000000000               0.477062500               0.000000000               0.000000000               0.500000000               0.000000000 </DataArray>
</Points>
<Cells>
<DataArray type="Int32"                                    Name="connectivity"                                                      NumberOfComponents=" 1" format="ascii">
         0          1         18         17          1          2         19         18          2          3         20         19          3          4         21         20          4          5         22         21          5          6         23         22          6          7         24         23          7          8         25         24          8          9         26         25          9         10         27         26         10         11         28         27         11         12         29         28         12         13         30         29         13         14         31         30         14         15         32         31         15         16         33         32         17         18         35         34         18         19         36         35         19         20         37         36         20         21         38         37         21         22         39         38         22         23         40         39         23         24         41         40         24         25         42         41         25         26         43         42         26         27         44         43         27         28         45         44         28         29         46         45         29         30         47         46         30         31         48         47         31         32         49         48         32         33         50         49         34         35         52         51         35         36         53         52         36         37         54         53         37         38         55         54         38         39         56         55         39         40         57         56         40         41         58         57         41         42         59         58         42         43         60         59         43         44         61         60         44         45         62         61         45         46         63         62         46         47         64         63         47         48         65         64         48         49         66         65         49         50         67         66         51         52         69         68         52         53         70         69         53         54         71         70         54         55         72         71         55         56         73         72         56         57         74         73         57         58         75         74         58         59         76         75         59         60         77         76         60         61         78         77         61         62         79         78         62         63         80         79         63         64         81         80         64         65         82         81         65         66         83         82         66         67         84         83         68         69         86         85         69         70         87         86         70         71         88         87         71         72         89         88         72         73         90         89         73         74         91         90         74         75         92         91         75         76         93         92         76         77         94         93         77         78         95         94         78         79         96         95         79         80         97         96         80         81         98         97         81         82         99         98         82         83        100         99         83         84        101        100         85         86        103        102         86         87        104        103         87         88        105        104         88         89        106        105         89         90        107        106         90         91        108        107         91         92        109        108         92         93        110        109         93         94        111        110         94         95        112        111         95         96        113        112         96         97        114        113         97         98        115        114         98         99        116        115         99        100        117        116        100        101        118        117        102        103        120        119        103        104        121        120        104        105        122        121        105        106        123        122        106        107        124        123        107        108        125        124        108        109        126        125        109        110        127        126        110        111        128        127        111        112        129        128        112        113        130        129        113        114        131        130        114        115        132        131        115        116        133        132        116        117        134        133        117        118        135        134        119        120        137        136        120        121        138        137        121        122        139        138        122        123        140        139        123        124        141        140        124        125        142        141        125        126        143        142        126        127        144        143        127        128        145        144        128        129        146        145        129        130        147        146        130        131        148        147        131        132        149        148        132        133        150        149        133        134        151        150        134        135        152        151        136        137        154        153        137        138        155        154        138        139        156        155        139        140        157        156        140        141        158        157        141        142        159        158        142        143        160        159        143        144        161        160        144        145        162        161        145        146        163        162        146        147        164        163        147        148        165        164        148        149        166        165        149        150        167        166        150        151        168        167        151        152        169        168        153        154        171        170        154        155        172        171        155        156        173        172        156        157        174        173        157        158        175        174        158        159        176        175        159        160        177        176        160        161        178        177        161        162        179        178        162        163        180        179        163        164        181        180        164        165        182        181        165        166        183        182        166        167        184        183        167        168        185        184        168        169        186        185        170        171        188        187        171        172        189        188        172        173        190        189        173        174        191        190        174        175        192        191        175        176        193        192        176        177        194        193        177        178        195        194        178        179        196        195        179        180        197        196        180        181        198        197        181        182        199        198        182        183        200        199        183        184        201        200        184        185        202        201        185        186        203        202        187        188        205        204        188        189        206        205        189        190        207        206        190        191        208        207        191        192        209        208        192        193        210        209        193        194        211        210        194        195        212        211        195        196        213        212        196        197        214        213        197        198        215        214        198        199        216        215        199        200        217        216        200        201        218        217        201        202        219        218        202        203        220        219        204        205        222        221        205        206        223        222        206        207        224        223        207        208        225        224        208        209        226        225        209        210        227        226        210        211        228        227        211        212        229        228        212        213        230        229        213        214        231        230        214        215        232        231        215        216        233        232        216        217        234        233        217        218        235        234        218        219        236        235        219        220        237        236        221        222        239        238        222        223        240        239        223        224        241        240        224        225        242        241        225        226        243        242        226        227        244        243        227        228        245        244        228        229        246        245        229        230        247        246        230        231        248        247        231        232        249        248        232        233        250        249        233        234        251        250        234        235        252        251        235        236        253        252        236        237        254        253        238        239        256        255        239        240        257        256        240        241        258        257        241        242        259        258        242        243        260        259        243        244        261        260        244        245        262        261        245        246        263        262        246        247        264        263        247        248        265        264        248        249        266        265        249        250        267        266        250        251        268        267        251        252        269        268        252        253        270        269        253        254        271        270        255        256        273        272        256        257        274        273        257        258        275        274        258        259        276        275        259        260        277        276        260        261        278        277        261        262        279        278        262        263        280        279        263        264        281        280        264        265        282        281        265        266        283        282        266        267        284        283        267        268        285        284        268        269        286        285        269        270        287        286        270        271        288        287        306        307          1          0        307        308          2          1        308        309          3          2        309        310          4          3        310        311          5          4        311        312          6          5        312        313          7          6        313        314          8          7        314        315          9          8        315        316         10          9        316        317         11         10        317        318         12         11        318        319         13         12        319        320         14         13        320        321         15         14        321        322         16         15        323        324        307        306        324        325        308        307        325        326        309        308        326        327        310        309        327        328        311        310        328        329        312        311        329        330        313        312        330        331        314        313        331        332        315        314        332        333        316        315        333        334        317        316        334        335        318        317        335        336        319        318        336        337        320        319        337        338        321        320        338        339        322        321        340        341        324        323        341        342        325        324        342        343        326        325        343        344        327        326        344        345        328        327        345        346        329        328        346        347        330        329        347        348        331        330        348        349        332        331        349        350        333        332        350        351        334        333        351        352        335        334        352        353        336        335        353        354        337        336        354        355        338        337        355        356        339        338        357        358        341        340        358        359        342        341        359        360        343        342        360        361        344        343        361        362        345        344        362        363        346        345        363        364        347        346        364        365        348        347        365        366        349        348        366        367        350        349        367        368        351        350        368        369        352        351        369        370        353        352        370        371        354        353        371        372        355        354        372        373        356        355        374        375        358        357        375        376        359        358        376        377        360        359        377        378        361        360        378        379        362        361        379        380        363        362        380        381        364        363        381        382        365        364        382        383        366        365        383        384        367        366        384        385        368        367        385        386        369        368        386        387        370        369        387        388        371        370        388        389        372        371        389        390        373        372        391        392        375        374        392        393        376        375        393        394        377        376        394        395        378        377        395        396        379        378        396        397        380        379        397        398        381        380        398        399        382        381        399        400        383        382        400        401        384        383        401        402        385        384        402        403        386        385        403        404        387        386        404        405        388        387        405        406        389        388        406        407        390        389        408        409        392        391        409        410        393        392        410        411        394        393        411        412        395        394        412        413        396        395        413        414        397        396        414        415        398        397        415        416        399        398        416        417        400        399        417        418        401        400        418        419        402        401        419        420        403        402        420        421        404        403        421        422        405        404        422        423        406        405        423        424        407        406        425        426        409        408        426        427        410        409        427        428        411        410        428        429        412        411        429        430        413        412        430        431        414        413        431        432        415        414        432        433        416        415        433        434        417        416        434        435        418        417        435        436        419        418        436        437        420        419        437        438        421        420        438        439        422        421        439        440        423        422        440        441        424        423        442        443        426        425        443        444        427        426        444        445        428        427        445        446        429        428        446        447        430        429        447        448        431        430        448        449        432        431        449        450        433        432        450        451        434        433        451        452        435        434        452        453        436        435        453        454        437        436        454        455        438        437        455        456        439        438        456        457        440        439        457        458        441        440        459        460        443        442        460        461        444        443        461        462        445        444        462        463        446        445        463        464        447        446        464        465        448        447        465        466        449        448        466        467        450        449        467        468        451        450        468        469        452        451        469        470        453        452        470        471        454        453        471        472        455        454        472        473        456        455        473        474        457        456        474        475        458        457        476        477        460        459        477        478        461        460        478        479        462        461        479        480        463        462        480        481        464        463        481        482        465        464        482        483        466        465        483        484        467        466        484        485        468        467        485        486        469        468        486        487        470        469        487        488        471        470        488        489        472        471        489        490        473        472        490        491        474        473        491        492        475        474        493        494        477        476        494        495        478        477        495        496        479        478        496        497        480        479        497        498        481        480        498        499        482        481        499        500        483        482        500        501        484        483        501        502        485        484        502        503        486        485        503        504        487        486        504        505        488        487        505        506        489        488        506        507        490        489        507        508        491        490        508        509        492        491        510        511        494        493        511        512        495        494        512        513        496        495        513        514        497        496        514        515        498        497        515        516        499        498        516        517        500        499        517        518        501        500        518        519        502        501        519        520        503        502        520        521        504        503        521        522        505        504        522        523        506        505        523        524        507        506        524        525        508        507        525        526        509        508        527        528        511        510        528        529        512        511        529        530        513        512        530        531        514        513        531        532        515        514        532        533        516        515        533        534        517        516        534        535        518        517        535        536        519        518        536        537        520        519        537        538        521        520        538        539        522        521        539        540        523        522        540        541        524        523        541        542        525        524        542        543        526        525        544        545        528        527        545        546        529        528        546        547        530        529        547        548        531        530        548        549        532        531        549        550        533        532        550        551        534        533        551        552        535        534        552        553        536        535        553        554        537        536        554        555        538        537        555        556        539        538        556        557        540        539        557        558        541        540        558        559        542        541        559        560        543        542        561        562        545        544        562        563        546        545        563        564        547        546        564        565        548        547        565        566        549        548        566        567        550        549        567        568        551        550        568        569        552        551        569        570        553        552        570        571        554        553        571        572        555        554        572        573        556        555        573        574        557        556        574        575        558        557        575        576        559        558        576        577        560        559        578        579        596        595        579        580        597        596        580        581        598        597        581        582        599        598        582        583        600        599        583        584        601        600        584        585        602        601        585        586        603        602        586        587        604        603        587        588        605        604        588        589        606        605        589        590        607        606        590        591        608        607        591        592        609        608        592        593        610        609        593        594        611        610        595        596        613        612        596        597        614        613        597        598        615        614        598        599        616        615        599        600        617        616        600        601        618        617        601        602        619        618        602        603        620        619        603        604        621        620        604        605        622        621        605        606        623        622        606        607        624        623        607        608        625        624        608        609        626        625        609        610        627        626        610        611        628        627        612        613        630        629        613        614        631        630        614        615        632        631        615        616        633        632        616        617        634        633        617        618        635        634        618        619        636        635        619        620        637        636        620        621        638        637        621        622        639        638        622        623        640        639        623        624        641        640        624        625        642        641        625        626        643        642        626        627        644        643        627        628        645        644        629        630        647        646        630        631        648        647        631        632        649        648        632        633        650        649        633        634        651        650        634        635        652        651        635        636        653        652        636        637        654        653        637        638        655        654        638        639        656        655        639        640        657        656        640        641        658        657        641        642        659        658        642        643        660        659        643        644        661        660        644        645        662        661        646        647        664        663        647        648        665        664        648        649        666        665        649        650        667        666        650        651        668        667        651        652        669        668        652        653        670        669        653        654        671        670        654        655        672        671        655        656        673        672        656        657        674        673        657        658        675        674        658        659        676        675        659        660        677        676        660        661        678        677        661        662        679        678        663        664        681        680        664        665        682        681        665        666        683        682        666        667        684        683        667        668        685        684        668        669        686        685        669        670        687        686        670        671        688        687        671        672        689        688        672        673        690        689        673        674        691        690        674        675        692        691        675        676        693        692        676        677        694        693        677        678        695        694        678        679        696        695        680        681        698        697        681        682        699        698        682        683        700        699        683        684        701        700        684        685        702        701        685        686        703        702        686        687        704        703        687        688        705        704        688        689        706        705        689        690        707        706        690        691        708        707        691        692        709        708        692        693        710        709        693        694        711        710        694        695        712        711        695        696        713        712        697        698        715        714        698        699        716        715        699        700        717        716        700        701        718        717        701        702        719        718        702        703        720        719        703        704        721        720        704        705        722        721        705        706        723        722        706        707        724        723        707        708        725        724        708        709        726        725        709        710        727        726        710        711        728        727        711        712        729        728        712        713        730        729        714        715        732        731        715        716        733        732        716        717        734        733        717        718        735        734        718        719        736        735        719        720        737        736        720        721        738        737        721        722        739        738        722        723        740        739        723        724        741        740        724        725        742        741        725        726        743        742        726        727        744        743        727        728        745        744        728        729        746        745        729        730        747        746        731        732        749        748        732        733        750        749        733        734        751        750        734        735        752        751        735        736        753        752        736        737        754        753        737        738        755        754        738        739        756        755        739        740        757        756        740        741        758        757        741        742        759        758        742        743        760        759        743        744        761        760        744        745        762        761        745        746        763        762        746        747        764        763        748        749        766        765        749        750        767        766        750        751        768        767        751        752        769        768        752        753        770        769        753        754        771        770        754        755        772        771        755        756        773        772        756        757        774        773        757        758        775        774        758        759        776        775        759        760        777        776        760        761        778        777        761        762        779        778        762        763        780        779        763        764        781        780        765        766        783        782        766        767        784        783        767        768        785        784        768        769        786        785        769        770        787        786        770        771        788        787        771        772        789        788        772        773        790        789        773        774        791        790        774        775        792        791        775        776        793        792        776        777        794        793        777        778        795        794        778        779        796        795        779        780        797        796        780        781        798        797        782        783        800        799        783        784        801        800        784        785        802        801        785        786        803        802        786        787        804        803        787        788        805        804        788        789        806        805        789        790        807        806        790        791        808        807        791        792        809        808        792        793        810        809        793        794        811        810        794        795        812        811        795        796        813        812        796        797        814        813        797        798        815        814        799        800        817        816        800        801        818        817        801        802        819        818        802        803        820        819        803        804        821        820        804        805        822        821        805        806        823        822        806        807        824        823        807        808        825        824        808        809        826        825        809        810        827        826        810        811        828        827        811        812        829        828        812        813        830        829        813        814        831        830        814        815        832        831        816        817        834        833        817        818        835        834        818        819        836        835        819        820        837        836        820        821        838        837        821        822        839        838        822        823        840        839        823        824        841        840        824        825        842        841        825        826        843        842        826        827        844        843        827        828        845        844        828        829        846        845        829        830        847        846        830        831        848        847        831        832        849        848        833        834        562        561        834        835        563        562        835        836        564        563        836        837        565        564        837        838        566        565        838        839        567        566        839        840        568        567        840        841        569        568        841        842        570        569        842        843        571        570        843        844        572        571        844        845        573        572        845        846        574        573        846        847        575        574        847        848        576        575        848        849        577        576        884        885        579        578        885        886        580        579        886        887        581        580        887        888        582        581        888        889        583        582        889        890        584        583        890        891        585        584        891        892        586        585        892        893        587        586        893        894        588        587        894        895        589        588        895        896        590        589        896        897        591        590        897        898        592        591        898        899        593        592        899        900        594        593        901        902        885        884        902        903        886        885        903        904        887        886        904        905        888        887        905        906        889        888        906        907        890        889        907        908        891        890        908        909        892        891        909        910        893        892        910        911        894        893        911        912        895        894        912        913        896        895        913        914        897        896        914        915        898        897        915        916        899        898        916        917        900        899        918        919        902        901        919        920        903        902        920        921        904        903        921        922        905        904        922        923        906        905        923        924        907        906        924        925        908        907        925        926        909        908        926        927        910        909        927        928        911        910        928        929        912        911        929        930        913        912        930        931        914        913        931        932        915        914        932        933        916        915        933        934        917        916        935        936        919        918        936        937        920        919        937        938        921        920        938        939        922        921        939        940        923        922        940        941        924        923        941        942        925        924        942        943        926        925        943        944        927        926        944        945        928        927        945        946        929        928        946        947        930        929        947        948        931        930        948        949        932        931        949        950        933        932        950        951        934        933        952        953        936        935        953        954        937        936        954        955        938        937        955        956        939        938        956        957        940        939        957        958        941        940        958        959        942        941        959        960        943        942        960        961        944        943        961        962        945        944        962        963        946        945        963        964        947        946        964        965        948        947        965        966        949        948        966        967        950        949        967        968        951        950        969        970        953        952        970        971        954        953        971        972        955        954        972        973        956        955        973        974        957        956        974        975        958        957        975        976        959        958        976        977        960        959        977        978        961        960        978        979        962        961        979        980        963        962        980        981        964        963        981        982        965        964        982        983        966        965        983        984        967        966        984        985        968        967        986        987        970        969        987        988        971        970        988        989        972        971        989        990        973        972        990        991        974        973        991        992        975        974        992        993        976        975        993        994        977        976        994        995        978        977        995        996        979        978        996        997        980        979        997        998        981        980        998        999        982        981        999       1000        983        982       1000       1001        984        983       1001       1002        985        984       1003       1004        987        986       1004       1005        988        987       1005       1006        989        988       1006       1007        990        989       1007       1008        991        990       1008       1009        992        991       1009       1010        993        992       1010       1011        994        993       1011       1012        995        994       1012       1013        996        995       1013       1014        997        996       1014       1015        998        997       1015       1016        999        998       1016       1017       1000        999       1017       1018       1001       1000       1018       1019       1002       1001       1020       1021       1004       1003       1021       1022       1005       1004       1022       1023       1006       1005       1023       1024       1007       1006       1024       1025       1008       1007       1025       1026       1009       1008       1026       1027       1010       1009       1027       1028       1011       1010       1028       1029       1012       1011       1029       1030       1013       1012       1030       1031       1014       1013       1031       1032       1015       1014       1032       1033       1016       1015       1033       1034       1017       1016       1034       1035       1018       1017       1035       1036       1019       1018       1037       1038       1021       1020       1038       1039       1022       1021       1039       1040       1023       1022       1040       1041       1024       1023       1041       1042       1025       1024       1042       1043       1026       1025       1043       1044       1027       1026       1044       1045       1028       1027       1045       1046       1029       1028       1046       1047       1030       1029       1047       1048       1031       1030       1048       1049       1032       1031       1049       1050       1033       1032       1050       1051       1034       1033       1051       1052       1035       1034       1052       1053       1036       1035       1054       1055       1038       1037       1055       1056       1039       1038       1056       1057       1040       1039       1057       1058       1041       1040       1058       1059       1042       1041       1059       1060       1043       1042       1060       1061       1044       1043       1061       1062       1045       1044       1062       1063       1046       1045       1063       1064       1047       1046       1064       1065       1048       1047       1065       1066       1049       1048       1066       1067       1050       1049       1067       1068       1051       1050       1068       1069       1052       1051       1069       1070       1053       1052       1071       1072       1055       1054       1072       1073       1056       1055       1073       1074       1057       1056       1074       1075       1058       1057       1075       1076       1059       1058       1076       1077       1060       1059       1077       1078       1061       1060       1078       1079       1062       1061       1079       1080       1063       1062       1080       1081       1064       1063       1081       1082       1065       1064       1082       1083       1066       1065       1083       1084       1067       1066       1084       1085       1068       1067       1085       1086       1069       1068       1086       1087       1070       1069       1088       1089       1072       1071       1089       1090       1073       1072       1090       1091       1074       1073       1091       1092       1075       1074       1092       1093       1076       1075       1093       1094       1077       1076       1094       1095       1078       1077       1095       1096       1079       1078       1096       1097       1080       1079       1097       1098       1081       1080       1098       1099       1082       1081       1099       1100       1083       1082       1100       1101       1084       1083       1101       1102       1085       1084       1102       1103       1086       1085       1103       1104       1087       1086       1105       1106       1089       1088       1106       1107       1090       1089       1107       1108       1091       1090       1108       1109       1092       1091       1109       1110       1093       1092       1110       1111       1094       1093       1111       1112       1095       1094       1112       1113       1096       1095       1113       1114       1097       1096       1114       1115       1098       1097       1115       1116       1099       1098       1116       1117       1100       1099       1117       1118       1101       1100       1118       1119       1102       1101       1119       1120       1103       1102       1120       1121       1104       1103       1122       1123       1106       1105       1123       1124       1107       1106       1124       1125       1108       1107       1125       1126       1109       1108       1126       1127       1110       1109       1127       1128       1111       1110       1128       1129       1112       1111       1129       1130       1113       1112       1130       1131       1114       1113       1131       1132       1115       1114       1132       1133       1116       1115       1133       1134       1117       1116       1134       1135       1118       1117       1135       1136       1119       1118       1136       1137       1120       1119       1137       1138       1121       1120        272        273       1123       1122        273        274       1124       1123        274        275       1125       1124        275        276       1126       1125        276        277       1127       1126        277        278       1128       1127        278        279       1129       1128        279        280       1130       1129        280        281       1131       1130        281        282       1132       1131        282        283       1133       1132        283        284       1134       1133        284        285       1135       1134        285        286       1136       1135        286        287       1137       1136        287        288       1138       1137 </DataArray>
<DataArray type="Int32"                                    Name="offsets"                                                      NumberOfComponents=" 1" format="ascii">
         4          8         12         16         20         24         28         32         36         40         44         48         52         56         60         64         68         72         76         80         84         88         92         96        100        104        108        112        116        120        124        128        132        136        140        144        148        152        156        160        164        168        172        176        180        184        188        192        196        200        204        208        212        216        220        224        228        232        236        240        244        248        252        256        260        264        268        272        276        280        284        288        292        296        300        304        308        312        316        320        324        328        332        336        340        344        348        352        356        360        364        368        372        376        380        384        388        392        396        400        404        408        412        416        420        424        428        432        436        440        444        448        452        456        460        464        468        472        476        480        484        488        492        496        500        504        508        512        516        520        524        528        532        536        540        544        548        552        556        560        564        568        572        576        580        584        588        592        596        600        604        608        612        616        620        624        628        632        636        640        644        648        652        656        660        664        668        672        676        680        684        688        692        696        700        704        708        712        716        720        724        728        732        736        740        744        748        752        756        760        764        768        772        776        780        784        788        792        796        800        804        808        812        816        820        824        828        832        836        840        844        848        852        856        860        864        868        872        876        880        884        888        892        896        900        904        908        912        916        920        924        928        932        936        940        944        948        952        956        960        964        968        972        976        980        984        988        992        996       1000       1004       1008       1012       1016       1020       1024       1028       1032       1036       1040       1044       1048       1052       1056       1060       1064       1068       1072       1076       1080       1084       1088       1092       1096       1100       1104       1108       1112       1116       1120       1124       1128       1132       1136       1140       1144       1148       1152       1156       1160       1164       1168       1172       1176       1180       1184       1188       1192       1196       1200       1204       1208       1212       1216       1220       1224       1228       1232       1236       1240       1244       1248       1252       1256       1260       1264       1268       1272       1276       1280       1284       1288       1292       1296       1300       1304       1308       1312       1316       1320       1324       1328       1332       1336       1340       1344       1348       1352       1356       1360       1364       1368       1372       1376       1380       1384       1388       1392       1396       1400       1404       1408       1412       1416       1420       1424       1428       1432       1436       1440       1444       1448       1452       1456       1460       1464       1468       1472       1476       1480       1484       1488       1492       1496       1500       1504       1508       1512       1516       1520       1524       1528       1532       1536       1540       1544       1548       1552       1556       1560       1564       1568       1572       1576       1580       1584       1588       1592       1596       1600       1604       1608       1612       1616       1620       1624       1628       1632       1636       1640       1644       1648       1652       1656       1660       1664       1668       1672       1676       1680       1684       1688       1692       1696       1700       1704       1708       1712       1716       1720       1724       1728       1732       1736       1740       1744       1748       1752       1756       1760       1764       1768       1772       1776       1780       1784       1788       1792       1796       1800       1804       1808       1812       1816       1820       1824       1828       1832       1836       1840       1844       1848       1852       1856       1860       1864       1868       1872       1876       1880       1884       1888       1892       1896       1900       1904       1908       1912       1916       1920       1924       1928       1932       1936       1940       1944       1948       1952       1956       1960       1964       1968       1972       1976       1980       1984       1988       1992       1996       2000       2004       2008       2012       2016       2020       2024       2028       2032       2036       2040       2044       2048       2052       2056       2060       2064       2068       2072       2076       2080       2084       2088       2092       2096       2100       2104       2108       2112       2116       2120       2124       2128       2132       2136       2140       2144       2148       2152       2156       2160       2164       2168       2172       2176       2180       2184       2188       2192       2196       2200       2204       2208       2212       2216       2220       2224       2228       2232       2236       2240       2244       2248       2252       2256       2260       2264       2268       2272       2276       2280       2284       2288       2292       2296       2300       2304       2308       2312       2316       2320       2324       2328       2332       2336       2340       2344       2348       2352       2356       2360       2364       2368       2372       2376       2380       2384       2388       2392       2396       2400       2404       2408       2412       2416       2420       2424       2428       2432       2436       2440       2444       2448       2452       2456       2460       2464       2468       2472       2476       2480       2484       2488       2492       2496       2500       2504       2508       2512       2516       2520       2524       2528       2532       2536       2540       2544       2548       2552       2556       2560       2564       2568       2572       2576       2580       2584       2588       2592       2596       2600       2604       2608       2612       2616       2620       2624       2628       2632       2636       2640       2644       2648       2652       2656       2660       2664       2668       2672       2676       2680       2684       2688       2692       2696       2700       2704       2708       2712       2716       2720       2724       2728       2732       2736       2740       2744       2748       2752       2756       2760       2764       2768       2772       2776       2780       2784       2788       2792       2796       2800       2804       2808       2812       2816       2820       2824       2828       2832       2836       2840       2844       2848       2852       2856       2860       2864       2868       2872       2876       2880       2884       2888       2892       2896       2900       2904       2908       2912       2916       2920       2924       2928       2932       2936       2940       2944       2948       2952       2956       2960       2964       2968       2972       2976       2980       2984       2988       2992       2996       3000       3004       3008       3012       3016       3020       3024       3028       3032       3036       3040       3044       3048       3052       3056       3060       3064       3068       3072       3076       3080       3084       3088       3092       3096       3100       3104       3108       3112       3116       3120       3124       3128       3132       3136       3140       3144       3148       3152       3156       3160       3164       3168       3172       3176       3180       3184       3188       3192       3196       3200       3204       3208       3212       3216       3220       3224       3228       3232       3236       3240       3244       3248       3252       3256       3260       3264       3268       3272       3276       3280       3284       3288       3292       3296       3300       3304       3308       3312       3316       3320       3324       3328       3332       3336       3340       3344       3348       3352       3356       3360       3364       3368       3372       3376       3380       3384       3388       3392       3396       3400       3404       3408       3412       3416       3420       3424       3428       3432       3436       3440       3444       3448       3452       3456       3460       3464       3468       3472       3476       3480       3484       3488       3492       3496       3500       3504       3508       3512       3516       3520       3524       3528       3532       3536       3540       3544       3548       3552       3556       3560       3564       3568       3572       3576       3580       3584       3588       3592       3596       3600       3604       3608       3612       3616       3620       3624       3628       3632       3636       3640       3644       3648       3652       3656       3660       3664       3668       3672       3676       3680       3684       3688       3692       3696       3700       3704       3708       3712       3716       3720       3724       3728       3732       3736       3740       3744       3748       3752       3756       3760       3764       3768       3772       3776       3780       3784       3788       3792       3796       3800       3804       3808       3812       3816       3820       3824       3828       3832       3836       3840       3844       3848       3852       3856       3860       3864       3868       3872       3876       3880       3884       3888       3892       3896       3900       3904       3908       3912       3916       3920       3924       3928       3932       3936       3940       3944       3948       3952       3956       3960       3964       3968       3972       3976       3980       3984       3988       3992       3996       4000       4004       4008       4012       4016       4020       4024       4028       4032       4036       4040       4044       4048       4052       4056       4060       4064       4068       4072       4076       4080       4084       4088       4092       4096 </DataArray>
<DataArray type="UInt8"                                    Name="types"                                                      NumberOfComponents=" 1" format="ascii">
         9          9          9          9          9          9          9          9          9          9          9          9          9          9          9          9          9          9          9          9          9          9          9          9          9          9          9          9          9          9          9          9          9          9          9          9          9          9          9          9          9          9          9          9          9          9          9          9          9          9          9          9          9          9          9          9          9          9          9          9          9          9          9          9          9          9          9          9          9          9          9          9          9          9          9          9          9          9          9          9          9          9          9          9          9          9          9          9          9          9          9          9          9          9          9          9          9          9          9          9          9          9          9          9          9          9          9          9          9          9          9          9          9          9          9          9          9          9          9          9          9          9          9          9          9          9          9          9          9          9          9          9          9          9          9          9          9          9          9          9          9          9          9          9          9          9          9          9          9          9          9          9          9          9          9          9          9          9          9          9          9          9          9          9          9          9          9          9          9          9          9          9          9          9          9          9          9          9          9          9          9          9          9          9          9          9          9          9          9          9          9          9          9          9          9          9          9          9          9          9          9          9          9          9          9          9          9          9          9          9          9          9          9          9          9          9          9          9          9          9          9          9          9          9          9          9          9          9          9          9          9          9          9          9          9          9          9          9          9          9          9          9          9          9          9          9          9          9          9          9          9          9          9          9          9          9          9          9          9          9          9          9          9          9          9          9          9          9          9          9          9          9          9          9          9          9          9          9          9          9          9          9          9          9          9          9          9          9          9          9          9          9          9          9          9          9          9          9          9          9          9          9          9          9          9          9          9          9          9          9          9          9          9          9          9          9          9          9          9          9          9          9          9          9          9          9          9          9          9          9          9          9          9          9          9          9          9          9          9          9          9          9          9          9          9          9          9          9          9          9          9          9          9          9          9          9          9          9          9          9          9          9          9          9          9          9          9          9          9          9          9          9          9          9          9          9          9          9          9          9          9          9          9          9          9          9          9          9          9          9          9          9          9          9          9          9          9          9          9          9          9          9          9          9          9          9          9          9          9          9          9          9          9          9          9          9          9          9          9          9          9          9          9          9          9          9          9          9          9          9          9          9          9          9          9          9          9          9          9          9          9          9          9          9          9          9          9          9          9          9          9          9          9          9          9          9          9          9          9          9          9          9          9          9          9          9          9          9          9          9          9          9          9          9          9          9          9          9          9          9          9          9          9          9          9          9          9          9          9          9          9          9          9          9          9          9          9          9          9          9          9          9          9          9          9          9          9          9          9          9          9          9          9          9          9          9          9          9          9          9          9          9          9          9          9          9          9          9          9          9          9          9          9          9          9          9          9          9          9          9          9          9          9          9          9          9          9          9          9          9          9          9          9          9          9          9          9          9          9          9          9          9          9          9          9          9          9          9          9          9          9          9          9          9          9          9          9          9          9          9          9          9          9          9          9          9          9          9          9          9          9          9          9          9          9          9          9          9          9          9          9          9          9          9          9          9          9          9          9          9          9          9          9          9          9          9          9          9          9          9          9          9          9          9          9          9          9          9          9          9          9          9          9          9          9          9          9          9          9          9          9          9          9          9          9          9          9          9          9          9          9          9          9          9          9          9          9          9          9          9          9          9          9          9          9          9          9          9          9          9          9          9          9          9          9          9          9          9          9          9          9          9          9          9          9          9          9          9          9          9          9          9          9          9          9          9          9          9          9          9          9          9          9          9          9          9          9          9          9          9          9          9          9          9          9          9          9          9          9          9          9          9          9          9          9          9          9          9          9          9          9          9          9          9          9          9          9          9          9          9          9          9          9          9          9          9          9          9          9          9          9          9          9          9          9          9          9          9          9          9          9          9          9          9          9          9          9          9          9          9          9          9          9          9          9          9          9          9          9          9          9          9          9          9          9          9          9          9          9          9          9          9          9          9          9          9          9          9          9          9          9          9          9          9          9          9          9          9          9          9          9          9          9          9          9          9          9          9          9          9          9          9          9          9          9          9          9          9          9          9          9          9          9          9          9          9          9          9          9          9          9          9          9          9          9          9          9          9          9          9          9          9          9          9          9          9          9          9          9          9          9          9          9          9          9          9          9          9          9          9          9          9          9          9          9          9          9          9          9          9          9          9          9          9          9          9          9          9          9          9          9          9          9          9          9          9          9          9          9          9          9          9          9          9          9          9          9          9          9          9          9          9          9          9          9          9          9          9          9          9          9          9          9          9          9          9          9          9          9          9          9          9          9          9          9          9          9          9          9          9          9          9          9          9          9          9          9          9          9          9          9          9          9          9          9          9          9          9          9          9          9          9          9          9          9          9          9          9          9          9          9          9          9          9          9          9          9          9          9          9          9          9          9          9          9          9          9          9          9          9          9          9          9          9          9          9          9          9          9          9          9          9          9          9          9          9          9          9          9          9          9          9          9          9          9          9          9          9          9          9          9          9          9          9 </DataArray>
</Cells>
<CellData>
<DataArray type="Int32"                                    Name="material"                                                      NumberOfComponents=" 1" format="ascii">
         1          1          1          1          1          1          1          1          1          1          1          1          1          1          1          1          1          1          1          1          1          1          1          1          1          1          1          1          1          1          1          1          1          1          1          1          1          1          1          1          1          1          1          1          1          1          1          1          1          1          1          1          1          1          1          1          1          1          1          1          1          1          1          1          1          1          1          1          1          1          1          1          1          1          1          1          1          1          1          1          1          1          1          1          1          1          1          1          1          1          1          1          1          1          1          1          1          1          1          1          1          1          1          1          1          1          1          1          1          1          1          1          1          1          1          1          1          1          1          1          1          1          1          1          1          1          1          1          1          1          1          1          1          1          1          1          1          1          1          1          1          1          1          1          1          1          1          1          1          1          1          1          1          1          1          1          1          1          1          1          1          1          1          1          1          1          1          1          1          1          1          1          1          1          1          1          1          1          1          1          1          1          1          1          1          1          1          1          1          1          1          1          1          1          1          1          1          1          1          1          1          1          1          1          1          1          1          1          1          1          1          1          1          1          1          1          1          1          1          1          1          1          1          1          1          1          1          1          1          1          1          1          1          1          1          1          1          1          1          1          1          1          1          1          1          1          1          1          1          1          1          1          1          1          1          1          1          1          1          1          1          1          1          1          1          1          1          1          1          1          1          1          1          1          1          1          1          1          1          1          1          1          1          1          1          1          1          1          1          1          1          1          1          1          1          1          1          1          1          1          1          1          1          1          1          1          1          1          1          1          1          1          1          1          1          1          1          1          1          1          1          1          1          1          1          1          1          1          1          1          1          1          1          1          1          1          1          1          1          1          1          1          1          1          1          1          1          1          1          1          1          1          1          1          1          1          1          1          1          1          1          1          1          1          1          1          1          1          1          1          1          1          1          1          1          1          1          1          1          1          1          1          1          1          1          1          1          1          1          1          1          1          1          1          1          1          1          1          1          1          1          1          1          1          1          1          1          1          1          1          1          1          1          1          1          1          1          1          1          1          1          1          1          1          1          1          1          1          1          1          1          1          1          1          1          1          1          1          1          1          1          1          1          1          1          1          1          1          1          1          1          1          1          1          1          1          1          1          1          1          1          1          1          1          1          1          1          1          1          1          1          1          1          1          1          1          1          1          1          1          1          1          1          1          1          1          1          1          1          1          1          1          1          1          1          1          1          1          1          1          1          1          1          1          1          1          1          1          1          1          1          1          1          1          1          1          1          1          1          1          1          1          1          1          1          1          1          1          1          1          1          1          1          1          1          1          1          1          1          1          1          1          1          1          1          1          1          1          1          1          1          1          1          1          1          1          1          1          1          1          1          1          1          1          1          1          1          1          1          1          1          1          1          1          1          1          1          1          1          1          1          1          1          1          1          1          1          1          1          1          1          1          1          1          1          1          1          1          1          1          1          1          1          1          1          1          1          1          1          1          1          1          1          1          1          1          1          1          1          1          1          1          1          1          1          1          1          1          1          1          1          1          1          1          1          1          1          1          1          1          1          1          1          1          1          1          1          1          1          1          1          1          1          1          1          1          1          1          1          1          1          1          1          1          1          1          1          1          1          1          1          1          1          1          1          1          1          1          1          1          1          1          1          1          1          1          1          1          1          1          1          1          1          1          1          1          1          1          1          1          1          1          1          1          1          1          1          1          1          1          1          1          1          1          1          1          1          1          1          1          1          1          1          1          1          1          1          1          1          1          1          1          1          1          1          1          1          1          1          1          1          1          1          1          1          1          1          1          1          1          1          1          1          1          1          1          1          1          1          1          1          1          1          1          1          1          1          1          1          1          1          1          1          1          1          1          1          1          1          1          1          1          1          1          1          1          1          1          1          1          1          1          1          1          1          1          1          1          1          1          1          1          1          1          1          1          1          1          1          1          1          1          1          1          1          1          1          1          1          1          1          1          1          1          1          1          1          1          1          1          1          1          1          1          1          1          1          1          1          1          1          1          1          1          1          1          1          1          1          1          1          1          1          1          1          1          1          1          1          1          1          1          1          1          1          1          1          1          1          1          1          1          1          1          1          1          1          1          1          1          1          1          1          1          1          1          1          1          1          1          1          1          1          1          1          1          1          1          1          1          1          1          1          1          1          1          1          1          1          1          1          1          1          1          1          1          1          1          1          1          1          1          1          1          1          1          1          1          1          1          1          1          1          1          1          1          1          1          1          1          1          1          1          1          1          1          1          1          1          1          1          1          1          1          1          1          1          1          1          1          1          1          1          1          1          1          1          1          1          1          1          1          1          1          1          1          1          1          1          1          1          1          1          1          1          1          1          1          1          1          1          1          1          1          1          1          1          1          1          1          1          1          1          1          1          1          1          1          1          1          1          1          1          1          1          1          1          1          1          1          1          1          1          1 </DataArray>
</CellData>
<PointData>
<DataArray type="Float64"                                    Name="u"                                                      NumberOfComponents=" 3" format="ascii">
             -0.000020021               0.000000000               0.999999996              -0.000035478               0.000000000               0.999999996              -0.000043239              -0.000000000               0.999999996              -0.000048007               0.000000000               0.999999996              -0.000051779               0.000000000               0.999999996              -0.000055416              -0.000000000               0.999999996              -0.000059275              -0.000000000               0.999999996              -0.000063583              -0.000000000               0.999999996              -0.000068495              -0.000000000               0.999999996              -0.000074032              -0.000000000               0.999999996              -0.000080111              -0.000000000               0.999999996              -0.000086800               0.000000000               0.999999996              -0.000094143               0.000000000               0.999999996              -0.000102106               0.000000000               0.999999996              -0.000110640               0.000000000               0.999999996              -0.000119739               0.000000000               0.999999996              -0.000129377              -0.000000000               0.999999996              -0.000019904               0.000037973               0.999999996              -0.000034720               0.000033768               0.999999996              -0.000042101               0.000032762               0.999999996              -0.000046684               0.000033542               0.999999996              -0.000050357               0.000035326               0.999999996              -0.000054023               0.000037785               0.999999996              -0.000058017               0.000040737               0.999999996              -0.000062484               0.000044100               0.999999996              -0.000067511               0.000047735               0.999999996              -0.000073114               0.000051474               0.999999996              -0.000079282               0.000055433               0.999999996              -0.000086065               0.000059564               0.999999996              -0.000093508               0.000063829               0.999999996              -0.000101560               0.000068155               0.999999996              -0.000110206               0.000072475               0.999999996              -0.000119408               0.000076713               0.999999996              -0.000129089               0.000080703               0.999999996              -0.000019552               0.000075509               0.999999996              -0.000032519               0.000067102               0.999999996              -0.000038861               0.000065258               0.999999996              -0.000042993               0.000066911               0.999999996              -0.000046596               0.000070653               0.999999996              -0.000050397               0.000075722               0.999999996              -0.000054636               0.000081692               0.999999996              -0.000059403               0.000088426               0.999999996              -0.000064785               0.000095647               0.999999996              -0.000070735               0.000103166               0.999999996              -0.000077263               0.000111069               0.999999996              -0.000084411               0.000119383               0.999999996              -0.000092194               0.000127954               0.999999996              -0.000100563               0.000136680               0.999999996              -0.000109481               0.000145361               0.999999996              -0.000118898               0.000154006               0.999999996              -0.000128801               0.000162396               0.999999996              -0.000018956               0.000112145               0.999999996              -0.000028939               0.000099634               0.999999996              -0.000033833               0.000097259               0.999999996              -0.000037507               0.000100102               0.999999996              -0.000041112               0.000105988               0.999999996              -0.000045173               0.000113782               0.999999996              -0.000049897               0.000122889               0.999999996              -0.000055217               0.000132963               0.999999996              -0.000061172               0.000143831               0.999999996              -0.000067821               0.000155102               0.999999996              -0.000075099               0.000166933               0.999999996              -0.000082986               0.000179393               0.999999996              -0.000091462               0.000192268               0.999999996              -0.000100440               0.000205335               0.999999996              -0.000109910               0.000218482               0.999999996              -0.000119861               0.000231773               0.999999996              -0.000130364               0.000245305               0.999999996              -0.000018070               0.000147446               0.999999996              -0.000024253               0.000131122               0.999999996              -0.000027678               0.000128591               0.999999996              -0.000030930               0.000132936               0.999999996              -0.000034751               0.000141165               0.999999996              -0.000039344               0.000151790               0.999999996              -0.000044692               0.000164021               0.999999996              -0.000050879               0.000177514               0.999999996              -0.000057850               0.000192011               0.999999996              -0.000065563               0.000207163               0.999999996              -0.000073941               0.000222916               0.999999996              -0.000082899               0.000239419               0.999999996              -0.000092360               0.000256511               0.999999996              -0.000102297               0.000274002               0.999999996              -0.000112726               0.000291876               0.999999996              -0.000123733               0.000310267               0.999999996              -0.000135424               0.000329392               0.999999996              -0.000017006               0.000181048               0.999999996              -0.000018869               0.000161393               0.999999996              -0.000020910               0.000159133               0.999999996              -0.000024076               0.000165163               0.999999996              -0.000028462               0.000175865               0.999999996              -0.000033860               0.000189306               0.999999996              -0.000040302               0.000204722               0.999999996              -0.000047659               0.000221663               0.999999996              -0.000055820               0.000239829               0.999999996              -0.000064783               0.000259005               0.999999996              -0.000074466               0.000278787               0.999999996              -0.000084749               0.000299381               0.999999996              -0.000095577               0.000320758               0.999999996              -0.000106921               0.000342765               0.999999996              -0.000118878               0.000365543               0.999999996              -0.000131508               0.000389167               0.999999996              -0.000144734               0.000413870               0.999999996              -0.000015875               0.000212647               0.999999996              -0.000013113               0.000190298               0.999999996              -0.000014100               0.000188658               0.999999996              -0.000017648               0.000196546               0.999999996              -0.000022957               0.000209693               0.999999996              -0.000029516               0.000225950               0.999999996              -0.000037209               0.000244729               0.999999996              -0.000045879               0.000265208               0.999999996              -0.000055507               0.000287186               0.999999996              -0.000066027               0.000310362               0.999999996              -0.000077321               0.000334228               0.999999996              -0.000089228               0.000358920               0.999999996              -0.000101769               0.000384599               0.999999996              -0.000114886               0.000411227               0.999999996              -0.000128587               0.000438850               0.999999996              -0.000142732               0.000467379               0.999999996              -0.000157037               0.000496497               0.999999996              -0.000014615               0.000241963               0.999999996              -0.000007328               0.000217768               0.999999996              -0.000007847               0.000216956               0.999999996              -0.000012199               0.000226708               0.999999996              -0.000018680               0.000242302               0.999999996              -0.000026536               0.000261549               0.999999996              -0.000035631               0.000283721               0.999999996              -0.000045874               0.000307898               0.999999996              -0.000057259               0.000333715               0.999999996              -0.000069521               0.000360952               0.999999996              -0.000082465               0.000388990               0.999999996              -0.000096012               0.000417908               0.999999996              -0.000110078               0.000447930               0.999999996              -0.000124592               0.000479065               0.999999996              -0.000139403               0.000511147               0.999999996              -0.000154250               0.000543853               0.999999996              -0.000168872               0.000576476               0.999999996              -0.000013439               0.000268468               0.999999996              -0.000001863               0.000243738               0.999999996              -0.000002547               0.000243876               0.999999996              -0.000007956               0.000255425               0.999999996              -0.000015766               0.000273492               0.999999996              -0.000024996               0.000295843               0.999999996              -0.000035723               0.000321456               0.999999996              -0.000047731               0.000349514               0.999999996              -0.000060847               0.000379365               0.999999996              -0.000074627               0.000410559               0.999999996              -0.000088868               0.000442728               0.999999996              -0.000103538               0.000475858               0.999999996              -0.000118619               0.000510219               0.999999996              -0.000133989               0.000545543               0.999999996              -0.000149501               0.000581588               0.999999996              -0.000165034               0.000617824               0.999999996              -0.000180421               0.000653795               0.999999996              -0.000012678               0.000293104               0.999999996               0.000001874               0.000270599               0.999999996               0.000002722               0.000268295               0.999999996              -0.000001642               0.000276896               0.999999996              -0.000008455               0.000292051               0.999999996              -0.000016715               0.000311578               0.999999996              -0.000026268               0.000334398               0.999999996              -0.000037096               0.000359920               0.999999996              -0.000048794               0.000387429               0.999999996              -0.000061030               0.000416383               0.999999996              -0.000073554               0.000446312               0.999999996              -0.000086254               0.000477018               0.999999996              -0.000099163               0.000508539               0.999999996              -0.000112218               0.000540949               0.999999996              -0.000125524               0.000574220               0.999999996              -0.000139213               0.000608046               0.999999996              -0.000153262               0.000642162               0.999999996              -0.000011611               0.000315277               0.999999996               0.000004408               0.000296120               0.999999996               0.000006725               0.000292813               0.999999996               0.000003629               0.000299152               0.999999996              -0.000002009               0.000311695               0.999999996              -0.000009193               0.000328554               0.999999996              -0.000017532               0.000348780               0.999999996              -0.000026995               0.000371814               0.999999996              -0.000037195               0.000397021               0.999999996              -0.000047920               0.000423742               0.999999996              -0.000058829               0.000451573               0.999999996              -0.000069720               0.000480165               0.999999996              -0.000080578               0.000509340               0.999999996              -0.000091323               0.000539135               0.999999996              -0.000102163               0.000569676               0.999999996              -0.000113231               0.000600900               0.999999996              -0.000124710               0.000632736               0.999999996              -0.000010320               0.000334621               0.999999996               0.000005755               0.000319701               0.999999996               0.000009235               0.000316524               0.999999996               0.000007428               0.000321441               0.999999996               0.000003065               0.000331941               0.999999996              -0.000002799               0.000346609               0.999999996              -0.000009869               0.000364587               0.999999996              -0.000017881               0.000385310               0.999999996              -0.000026490               0.000408249               0.999999996              -0.000035512               0.000432962               0.999999996              -0.000044746               0.000458903               0.999999996              -0.000054079               0.000485577               0.999999996              -0.000063068               0.000512819               0.999999996              -0.000071589               0.000540548               0.999999996              -0.000079845               0.000568836               0.999999996              -0.000088046               0.000597707               0.999999996              -0.000096162               0.000627283               0.999999996              -0.000008750               0.000350898               0.999999996               0.000005995               0.000340609               0.999999996               0.000010103               0.000338372               0.999999996               0.000009437               0.000342654               0.999999996               0.000006396               0.000351817               0.999999996               0.000001844               0.000364825               0.999999996              -0.000003823               0.000381000               0.999999996              -0.000010256               0.000399911               0.999999996              -0.000017142               0.000421043               0.999999996              -0.000024293               0.000443941               0.999999996              -0.000031810               0.000468189               0.999999996              -0.000039358               0.000493416               0.999999996              -0.000046567               0.000519261               0.999999996              -0.000053171               0.000545505               0.999999996              -0.000059154               0.000572128               0.999999996              -0.000064440               0.000599244               0.999999996              -0.000069036               0.000626946               0.999999996              -0.000006911               0.000363813               0.999999996               0.000005299               0.000357970               0.999999996               0.000009346               0.000357179               0.999999996               0.000009499               0.000361480               0.999999996               0.000007579               0.000369996               0.999999996               0.000004339               0.000381927               0.999999996               0.000000180               0.000396839               0.999999996              -0.000004486               0.000414385               0.999999996              -0.000009651               0.000434132               0.999999996              -0.000015048               0.000455628               0.999999996              -0.000020557               0.000478570               0.999999996              -0.000026161               0.000502769               0.999999996              -0.000031690               0.000527713               0.999999996              -0.000036585               0.000553125               0.999999996              -0.000040579               0.000578918               0.999999996              -0.000043488               0.000605045               0.999999996              -0.000045116               0.000631529               0.999999996              -0.000004798               0.000373222               0.999999996               0.000003931               0.000371037               0.999999996               0.000007168               0.000371779               0.999999996               0.000007654               0.000376485               0.999999996               0.000006540               0.000384825               0.999999996               0.000004530               0.000396217               0.999999996               0.000001940               0.000410332               0.999999996              -0.000001055               0.000426894               0.999999996              -0.000004565               0.000445591               0.999999996              -0.000008151               0.000466113               0.999999996              -0.000011680               0.000488224               0.999999996              -0.000015485               0.000511543               0.999999996              -0.000019368               0.000535832               0.999999996              -0.000022672               0.000560881               0.999999996              -0.000024941               0.000586424               0.999999996              -0.000026147               0.000612266               0.999999996              -0.000026016               0.000638301               0.999999996              -0.000002456               0.000378954               0.999999996               0.000002087               0.000379165               0.999999996               0.000003876               0.000381033               0.999999996               0.000004257               0.000386204               0.999999996               0.000003759               0.000394597               0.999999996               0.000002829               0.000405754               0.999999996               0.000001650               0.000419406               0.999999996               0.000000144               0.000435293               0.999999996              -0.000001672               0.000453354               0.999999996              -0.000003465               0.000473350               0.999999996              -0.000005228               0.000494964               0.999999996              -0.000007197               0.000517845               0.999999996              -0.000009161               0.000541860               0.999999996              -0.000010790               0.000566787               0.999999996              -0.000011785               0.000592324               0.999999996              -0.000011989               0.000618195               0.999999996              -0.000011419               0.000644156               0.999999996               0.000000000               0.000380847               0.999999996              -0.000000000               0.000381923               0.999999996               0.000000000               0.000384267               0.999999996              -0.000000000               0.000389612               0.999999996              -0.000000000               0.000398011               0.999999996              -0.000000000               0.000409129               0.999999996              -0.000000000               0.000422606               0.999999996              -0.000000000               0.000438211               0.999999996               0.000000000               0.000456066               0.999999996              -0.000000000               0.000475873               0.999999996               0.000000000               0.000497339               0.999999996               0.000000000               0.000520245               0.999999996               0.000000000               0.000544241               0.999999996               0.000000000               0.000569136               0.999999996              -0.000000000               0.000594656               0.999999996              -0.000000000               0.000620490               0.999999996               0.000000000               0.000646444               0.999999996              -0.000020021               0.000000000               0.999999996              -0.000035478               0.000000000               0.999999996              -0.000043239              -0.000000000               0.999999996              -0.000048007               0.000000000               0.999999996              -0.000051779               0.000000000               0.999999996              -0.000055416              -0.000000000               0.999999996              -0.000059275              -0.000000000               0.999999996              -0.000063583              -0.000000000               0.999999996              -0.000068495              -0.000000000               0.999999996              -0.000074032              -0.000000000               0.999999996              -0.000080111              -0.000000000               0.999999996              -0.000086800               0.000000000               0.999999996              -0.000094143               0.000000000               0.999999996              -0.000102106               0.000000000               0.999999996              -0.000110640               0.000000000               0.999999996              -0.000119739               0.000000000               0.999999996              -0.000129377              -0.000000000               0.999999996              -0.000019904              -0.000037973               0.999999996              -0.000034720              -0.000033768               0.999999996              -0.000042101              -0.000032762               0.999999996              -0.000046684              -0.000033542               0.999999996              -0.000050357              -0.000035326               0.999999996              -0.000054023              -0.000037785               0.999999996              -0.000058017              -0.000040737               0.999999996              -0.000062484              -0.000044100               0.999999996              -0.000067511              -0.000047735               0.999999996              -0.000073114              -0.000051474               0.999999996              -0.000079282              -0.000055433               0.999999996              -0.000086065              -0.000059564               0.999999996              -0.000093508              -0.000063829               0.999999996              -0.000101560              -0.000068155               0.999999996              -0.000110206              -0.000072475               0.999999996              -0.000119408              -0.000076713               0.999999996              -0.000129089              -0.000080703               0.999999996              -0.000019552              -0.000075509               0.999999996              -0.000032519              -0.000067102               0.999999996              -0.000038861              -0.000065258               0.999999996              -0.000042993              -0.000066911               0.999999996              -0.000046596              -0.000070653               0.999999996              -0.000050397              -0.000075722               0.999999996              -0.000054636              -0.000081692               0.999999996              -0.000059403              -0.000088426               0.999999996              -0.000064785              -0.000095647               0.999999996              -0.000070735              -0.000103166               0.999999996              -0.000077263              -0.000111069               0.999999996              -0.000084411              -0.000119383               0.999999996              -0.000092194              -0.000127954               0.999999996              -0.000100563              -0.000136680               0.999999996              -0.000109481              -0.000145361               0.999999996              -0.000118898              -0.000154006               0.999999996              -0.000128801              -0.000162396               0.999999996              -0.000018956              -0.000112145               0.999999996              -0.000028939              -0.000099634               0.999999996              -0.000033833              -0.000097259               0.999999996              -0.000037507              -0.000100102               0.999999996              -0.000041112              -0.000105988               0.999999996              -0.000045173              -0.000113782               0.999999996              -0.000049897              -0.000122889               0.999999996              -0.000055217              -0.000132963               0.999999996              -0.000061172              -0.000143831               0.999999996              -0.000067821              -0.000155102               0.999999996              -0.000075099              -0.000166933               0.999999996              -0.000082986              -0.000179393               0.999999996              -0.000091462              -0.000192268               0.999999996              -0.000100440              -0.000205335               0.999999996              -0.000109910              -0.000218482               0.999999996              -0.000119861              -0.000231773               0.999999996              -0.000130364              -0.000245305               0.999999996              -0.000018070              -0.000147446               0.999999996              -0.000024253              -0.000131122               0.999999996              -0.000027678              -0.000128591               0.999999996              -0.000030930              -0.000132936               0.999999996              -0.000034751              -0.000141165               0.999999996              -0.000039344              -0.000151790               0.999999996              -0.000044692              -0.000164021               0.999999996              -0.000050879              -0.000177514               0.999999996              -0.000057850              -0.000192011               0.999999996              -0.000065563              -0.000207163               0.999999996              -0.000073941              -0.000222916               0.999999996              -0.000082899              -0.000239419               0.999999996              -0.000092360              -0.000256511               0.999999996              -0.000102297              -0.000274002               0.999999996              -0.000112726              -0.000291876               0.999999996              -0.000123733              -0.000310267               0.999999996              -0.000135424              -0.000329392               0.999999996              -0.000017006              -0.000181048               0.999999996              -0.000018869              -0.000161393               0.999999996              -0.000020910              -0.000159133               0.999999996              -0.000024076              -0.000165163               0.999999996              -0.000028462              -0.000175865               0.999999996              -0.000033860              -0.000189306               0.999999996              -0.000040302              -0.000204722               0.999999996              -0.000047659              -0.000221663               0.999999996              -0.000055820              -0.000239829               0.999999996              -0.000064783              -0.000259005               0.999999996              -0.000074466              -0.000278787               0.999999996              -0.000084749              -0.000299381               0.999999996              -0.000095577              -0.000320758               0.999999996              -0.000106921              -0.000342765               0.999999996              -0.000118878              -0.000365543               0.999999996              -0.000131508              -0.000389167               0.999999996              -0.000144734              -0.000413870               0.999999996              -0.000015875              -0.000212647               0.999999996              -0.000013113              -0.000190298               0.999999996              -0.000014100              -0.000188658               0.999999996              -0.000017648              -0.000196546               0.999999996              -0.000022957              -0.000209693               0.999999996              -0.000029516              -0.000225950               0.999999996              -0.000037209              -0.000244729               0.999999996              -0.000045879              -0.000265208               0.999999996              -0.000055507              -0.000287186               0.999999996              -0.000066027              -0.000310362               0.999999996              -0.000077321              -0.000334228               0.999999996              -0.000089228              -0.000358920               0.999999996              -0.000101769              -0.000384599               0.999999996              -0.000114886              -0.000411227               0.999999996              -0.000128587              -0.000438850               0.999999996              -0.000142732              -0.000467379               0.999999996              -0.000157037              -0.000496497               0.999999996              -0.000014615              -0.000241963               0.999999996              -0.000007328              -0.000217768               0.999999996              -0.000007847              -0.000216956               0.999999996              -0.000012199              -0.000226708               0.999999996              -0.000018680              -0.000242302               0.999999996              -0.000026536              -0.000261549               0.999999996              -0.000035631              -0.000283721               0.999999996              -0.000045874              -0.000307898               0.999999996              -0.000057259              -0.000333715               0.999999996              -0.000069521              -0.000360952               0.999999996              -0.000082465              -0.000388990               0.999999996              -0.000096012              -0.000417908               0.999999996              -0.000110078              -0.000447930               0.999999996              -0.000124592              -0.000479065               0.999999996              -0.000139403              -0.000511147               0.999999996              -0.000154250              -0.000543853               0.999999996              -0.000168872              -0.000576476               0.999999996              -0.000013439              -0.000268468               0.999999996              -0.000001863              -0.000243738               0.999999996              -0.000002547              -0.000243876               0.999999996              -0.000007956              -0.000255425               0.999999996              -0.000015766              -0.000273492               0.999999996              -0.000024996              -0.000295843               0.999999996              -0.000035723              -0.000321456               0.999999996              -0.000047731              -0.000349514               0.999999996              -0.000060847              -0.000379365               0.999999996              -0.000074627              -0.000410559               0.999999996              -0.000088868              -0.000442728               0.999999996              -0.000103538              -0.000475858               0.999999996              -0.000118619              -0.000510219               0.999999996              -0.000133989              -0.000545543               0.999999996              -0.000149501              -0.000581588               0.999999996              -0.000165034              -0.000617824               0.999999996              -0.000180421              -0.000653795               0.999999996              -0.000012678              -0.000293104               0.999999996               0.000001874              -0.000270599               0.999999996               0.000002722              -0.000268295               0.999999996              -0.000001642              -0.000276896               0.999999996              -0.000008455              -0.000292051               0.999999996              -0.000016715              -0.000311578               0.999999996              -0.000026268              -0.000334398               0.999999996              -0.000037096              -0.000359920               0.999999996              -0.000048794              -0.000387429               0.999999996              -0.000061030              -0.000416383               0.999999996              -0.000073554              -0.000446312               0.999999996              -0.000086254              -0.000477018               0.999999996              -0.000099163              -0.000508539               0.999999996              -0.000112218              -0.000540949               0.999999996              -0.000125524              -0.000574220               0.999999996              -0.000139213              -0.000608046               0.999999996              -0.000153262              -0.000642162               0.999999996              -0.000011611              -0.000315277               0.999999996               0.000004408              -0.000296120               0.999999996               0.000006725              -0.000292813               0.999999996               0.000003629              -0.000299152               0.999999996              -0.000002009              -0.000311695               0.999999996              -0.000009193              -0.000328554               0.999999996              -0.000017532              -0.000348780               0.999999996              -0.000026995              -0.000371814               0.999999996              -0.000037195              -0.000397021               0.999999996              -0.000047920              -0.000423742               0.999999996              -0.000058829              -0.000451573               0.999999996              -0.000069720              -0.000480165               0.999999996              -0.000080578              -0.000509340               0.999999996              -0.000091323              -0.000539135               0.999999996              -0.000102163              -0.000569676               0.999999996              -0.000113231              -0.000600900               0.999999996              -0.000124710              -0.000632736               0.999999996              -0.000010320              -0.000334621               0.999999996               0.000005755              -0.000319701               0.999999996               0.000009235              -0.000316524               0.999999996               0.000007428              -0.000321441               0.999999996               0.000003065              -0.000331941               0.999999996              -0.000002799              -0.000346609               0.999999996              -0.000009869              -0.000364587               0.999999996              -0.000017881              -0.000385310               0.999999996              -0.000026490              -0.000408249               0.999999996              -0.000035512              -0.000432962               0.999999996              -0.000044746              -0.000458903               0.999999996              -0.000054079              -0.000485577               0.999999996              -0.000063068              -0.000512819               0.999999996              -0.000071589              -0.000540548               0.999999996              -0.000079845              -0.000568836               0.999999996              -0.000088046              -0.000597707               0.999999996              -0.000096162              -0.000627283               0.999999996              -0.000008750              -0.000350898               0.999999996               0.000005995              -0.000340609               0.999999996               0.000010103              -0.000338372               0.999999996               0.000009437              -0.000342654               0.999999996               0.000006396              -0.000351817               0.999999996               0.000001844              -0.000364825               0.999999996              -0.000003823              -0.000381000               0.999999996              -0.000010256              -0.000399911               0.999999996              -0.000017142              -0.000421043               0.999999996              -0.000024293              -0.000443941               0.999999996              -0.000031810              -0.000468189               0.999999996              -0.000039358              -0.000493416               0.999999996              -0.000046567              -0.000519261               0.999999996              -0.000053171              -0.000545505               0.999999996              -0.000059154              -0.000572128               0.999999996              -0.000064440              -0.000599244               0.999999996              -0.000069036              -0.000626946               0.999999996              -0.000006911              -0.000363813               0.999999996               0.000005299              -0.000357970               0.999999996               0.000009346              -0.000357179               0.999999996               0.000009499              -0.000361480               0.999999996               0.000007579              -0.000369996               0.999999996               0.000004339              -0.000381927               0.999999996               0.000000180              -0.000396839               0.999999996              -0.000004486              -0.000414385               0.999999996              -0.000009651              -0.000434132               0.999999996              -0.000015048              -0.000455628               0.999999996              -0.000020557              -0.000478570               0.999999996              -0.000026161              -0.000502769               0.999999996              -0.000031690              -0.000527713               0.999999996              -0.000036585              -0.000553125               0.999999996              -0.000040579              -0.000578918               0.999999996              -0.000043488              -0.000605045               0.999999996              -0.000045116              -0.000631529               0.999999996              -0.000004798              -0.000373222               0.999999996               0.000003931              -0.000371037               0.999999996               0.000007168              -0.000371779               0.999999996               0.000007654              -0.000376485               0.999999996               0.000006540              -0.000384825               0.999999996               0.000004530              -0.000396217               0.999999996               0.000001940              -0.000410332               0.999999996              -0.000001055              -0.000426894               0.999999996              -0.000004565              -0.000445591               0.999999996              -0.000008151              -0.000466113               0.999999996              -0.000011680              -0.000488224               0.999999996              -0.000015485              -0.000511543               0.999999996              -0.000019368              -0.000535832               0.999999996              -0.000022672              -0.000560881               0.999999996              -0.000024941              -0.000586424               0.999999996              -0.000026147              -0.000612266               0.999999996              -0.000026016              -0.000638301               0.999999996              -0.000002456              -0.000378954               0.999999996               0.000002087              -0.000379165               0.999999996               0.000003876              -0.000381033               0.999999996               0.000004257              -0.000386204               0.999999996               0.000003759              -0.000394597               0.999999996               0.000002829              -0.000405754               0.999999996               0.000001650              -0.000419406               0.999999996               0.000000144              -0.000435293               0.999999996              -0.000001672              -0.000453354               0.999999996              -0.000003465              -0.000473350               0.999999996              -0.000005228              -0.000494964               0.999999996              -0.000007197              -0.000517845               0.999999996              -0.000009161              -0.000541860               0.999999996              -0.000010790              -0.000566787               0.999999996              -0.000011785              -0.000592324               0.999999996              -0.000011989              -0.000618195               0.999999996              -0.000011419              -0.000644156               0.999999996              -0.000000000              -0.000380847               0.999999996              -0.000000000              -0.000381923               0.999999996              -0.000000000              -0.000384267               0.999999996               0.000000000              -0.000389612               0.999999996              -0.000000000              -0.000398011               0.999999996               0.000000000              -0.000409129               0.999999996               0.000000000              -0.000422606               0.999999996               0.000000000              -0.000438211               0.999999996               0.000000000              -0.000456066               0.999999996               0.000000000              -0.000475873               0.999999996               0.000000000              -0.000497339               0.999999996              -0.000000000              -0.000520245               0.999999996              -0.000000000              -0.000544241               0.999999996              -0.000000000              -0.000569136               0.999999996              -0.000000000              -0.000594656               0.999999996              -0.000000000              -0.000620490               0.999999996              -0.000000000              -0.000646444               0.999999996               0.000020021              -0.000000000               0.999999996               0.000035478              -0.000000000               0.999999996               0.000043239              -0.000000000               0.999999996               0.000048007              -0.000000000               0.999999996               0.000051779               0.000000000               0.999999996               0.000055416              -0.000000000               0.999999996               0.000059275               0.000000000               0.999999996               0.000063583              -0.000000000               0.999999996               0.000068495              -0.000000000               0.999999996               0.000074032               0.000000000               0.999999996               0.000080111               0.000000000               0.999999996               0.000086800               0.000000000               0.999999996               0.000094143               0.000000000               0.999999996               0.000102106               0.000000000               0.999999996               0.000110640               0.000000000               0.999999996               0.000119739               0.000000000               0.999999996               0.000129377               0.000000000               0.999999996               0.000019904              -0.000037973               0.999999996               0.000034720              -0.000033768               0.999999996               0.000042101              -0.000032762               0.999999996               0.000046684              -0.000033542               0.999999996               0.000050357              -0.000035326               0.999999996               0.000054023              -0.000037785               0.999999996               0.000058017              -0.000040737               0.999999996               0.000062484              -0.000044100               0.999999996               0.000067511              -0.000047735               0.999999996               0.000073114              -0.000051474               0.999999996               0.000079282              -0.000055433               0.999999996               0.000086065              -0.000059564               0.999999996               0.000093508              -0.000063829               0.999999996               0.000101560              -0.000068155               0.999999996               0.000110206              -0.000072475               0.999999996               0.000119408              -0.000076713               0.999999996               0.000129089              -0.000080703               0.999999996               0.000019552              -0.000075509               0.999999996               0.000032519              -0.000067102               0.999999996               0.000038861              -0.000065258               0.999999996               0.000042993              -0.000066911               0.999999996               0.000046596              -0.000070653               0.999999996               0.000050397              -0.000075722               0.999999996               0.000054636              -0.000081692               0.999999996               0.000059403              -0.000088426               0.999999996               0.000064785              -0.000095647               0.999999996               0.000070735              -0.000103166               0.999999996               0.000077263              -0.000111069               0.999999996               0.000084411              -0.000119383               0.999999996               0.000092194              -0.000127954               0.999999996               0.000100563              -0.000136680               0.999999996               0.000109481              -0.000145361               0.999999996               0.000118898              -0.000154006               0.999999996               0.000128801              -0.000162396               0.999999996               0.000018956              -0.000112145               0.999999996               0.000028939              -0.000099634               0.999999996               0.000033833              -0.000097259               0.999999996               0.000037507              -0.000100102               0.999999996               0.000041112              -0.000105988               0.999999996               0.000045173              -0.000113782               0.999999996               0.000049897              -0.000122889               0.999999996               0.000055217              -0.000132963               0.999999996               0.000061172              -0.000143831               0.999999996               0.000067821              -0.000155102               0.999999996               0.000075099              -0.000166933               0.999999996               0.000082986              -0.000179393               0.999999996               0.000091462              -0.000192268               0.999999996               0.000100440              -0.000205335               0.999999996               0.000109910              -0.000218482               0.999999996               0.000119861              -0.000231773               0.999999996               0.000130364              -0.000245305               0.999999996               0.000018070              -0.000147446               0.999999996               0.000024253              -0.000131122               0.999999996               0.000027678              -0.000128591               0.999999996               0.000030930              -0.000132936               0.999999996               0.000034751              -0.000141165               0.999999996               0.000039344              -0.000151790               0.999999996               0.000044692              -0.000164021               0.999999996               0.000050879              -0.000177514               0.999999996               0.000057850              -0.000192011               0.999999996               0.000065563              -0.000207163               0.999999996               0.000073941              -0.000222916               0.999999996               0.000082899              -0.000239419               0.999999996               0.000092360              -0.000256511               0.999999996               0.000102297              -0.000274002               0.999999996               0.000112726              -0.000291876               0.999999996               0.000123733              -0.000310267               0.999999996               0.000135424              -0.000329392               0.999999996               0.000017006              -0.000181048               0.999999996               0.000018869              -0.000161393               0.999999996               0.000020910              -0.000159133               0.999999996               0.000024076              -0.000165163               0.999999996               0.000028462              -0.000175865               0.999999996               0.000033860              -0.000189306               0.999999996               0.000040302              -0.000204722               0.999999996               0.000047659              -0.000221663               0.999999996               0.000055820              -0.000239829               0.999999996               0.000064783              -0.000259005               0.999999996               0.000074466              -0.000278787               0.999999996               0.000084749              -0.000299381               0.999999996               0.000095577              -0.000320758               0.999999996               0.000106921              -0.000342765               0.999999996               0.000118878              -0.000365543               0.999999996               0.000131508              -0.000389167               0.999999996               0.000144734              -0.000413870               0.999999996               0.000015875              -0.000212647               0.999999996               0.000013113              -0.000190298               0.999999996               0.000014100              -0.000188658               0.999999996               0.000017648              -0.000196546               0.999999996               0.000022957              -0.000209693               0.999999996               0.000029516              -0.000225950               0.999999996               0.000037209              -0.000244729               0.999999996               0.000045879              -0.000265208               0.999999996               0.000055507              -0.000287186               0.999999996               0.000066027              -0.000310362               0.999999996               0.000077321              -0.000334228               0.999999996               0.000089228              -0.000358920               0.999999996               0.000101769              -0.000384599               0.999999996               0.000114886              -0.000411227               0.999999996               0.000128587              -0.000438850               0.999999996               0.000142732              -0.000467379               0.999999996               0.000157037              -0.000496497               0.999999996               0.000014615              -0.000241963               0.999999996               0.000007328              -0.000217768               0.999999996               0.000007847              -0.000216956               0.999999996               0.000012199              -0.000226708               0.999999996               0.000018680              -0.000242302               0.999999996               0.000026536              -0.000261549               0.999999996               0.000035631              -0.000283721               0.999999996               0.000045874              -0.000307898               0.999999996               0.000057259              -0.000333715               0.999999996               0.000069521              -0.000360952               0.999999996               0.000082465              -0.000388990               0.999999996               0.000096012              -0.000417908               0.999999996               0.000110078              -0.000447930               0.999999996               0.000124592              -0.000479065               0.999999996               0.000139403              -0.000511147               0.999999996               0.000154250              -0.000543853               0.999999996               0.000168872              -0.000576476               0.999999996               0.000013439              -0.000268468               0.999999996               0.000001863              -0.000243738               0.999999996               0.000002547              -0.000243876               0.999999996               0.000007956              -0.000255425               0.999999996               0.000015766              -0.000273492               0.999999996               0.000024996              -0.000295843               0.999999996               0.000035723              -0.000321456               0.999999996               0.000047731              -0.000349514               0.999999996               0.000060847              -0.000379365               0.999999996               0.000074627              -0.000410559               0.999999996               0.000088868              -0.000442728               0.999999996               0.000103538              -0.000475858               0.999999996               0.000118619              -0.000510219               0.999999996               0.000133989              -0.000545543               0.999999996               0.000149501              -0.000581588               0.999999996               0.000165034              -0.000617824               0.999999996               0.000180421              -0.000653795               0.999999996               0.000012678              -0.000293104               0.999999996              -0.000001874              -0.000270599               0.999999996              -0.000002722              -0.000268295               0.999999996               0.000001642              -0.000276896               0.999999996               0.000008455              -0.000292051               0.999999996               0.000016715              -0.000311578               0.999999996               0.000026268              -0.000334398               0.999999996               0.000037096              -0.000359920               0.999999996               0.000048794              -0.000387429               0.999999996               0.000061030              -0.000416383               0.999999996               0.000073554              -0.000446312               0.999999996               0.000086254              -0.000477018               0.999999996               0.000099163              -0.000508539               0.999999996               0.000112218              -0.000540949               0.999999996               0.000125524              -0.000574220               0.999999996               0.000139213              -0.000608046               0.999999996               0.000153262              -0.000642162               0.999999996               0.000011611              -0.000315277               0.999999996              -0.000004408              -0.000296120               0.999999996              -0.000006725              -0.000292813               0.999999996              -0.000003629              -0.000299152               0.999999996               0.000002009              -0.000311695               0.999999996               0.000009193              -0.000328554               0.999999996               0.000017532              -0.000348780               0.999999996               0.000026995              -0.000371814               0.999999996               0.000037195              -0.000397021               0.999999996               0.000047920              -0.000423742               0.999999996               0.000058829              -0.000451573               0.999999996               0.000069720              -0.000480165               0.999999996               0.000080578              -0.000509340               0.999999996               0.000091323              -0.000539135               0.999999996               0.000102163              -0.000569676               0.999999996               0.000113231              -0.000600900               0.999999996               0.000124710              -0.000632736               0.999999996               0.000010320              -0.000334621               0.999999996              -0.000005755              -0.000319701               0.999999996              -0.000009235              -0.000316524               0.999999996              -0.000007428              -0.000321441               0.999999996              -0.000003065              -0.000331941               0.999999996               0.000002799              -0.000346609               0.999999996               0.000009869              -0.000364587               0.999999996               0.000017881              -0.000385310               0.999999996               0.000026490              -0.000408249               0.999999996               0.000035512              -0.000432962               0.999999996               0.000044746              -0.000458903               0.999999996               0.000054079              -0.000485577               0.999999996               0.000063068              -0.000512819               0.999999996               0.000071589              -0.000540548               0.999999996               0.000079845              -0.000568836               0.999999996               0.000088046              -0.000597707               0.999999996               0.000096162              -0.000627283               0.999999996               0.000008750              -0.000350898               0.999999996              -0.000005995              -0.000340609               0.999999996              -0.000010103              -0.000338372               0.999999996              -0.000009437              -0.000342654               0.999999996              -0.000006396              -0.000351817               0.999999996              -0.000001844              -0.000364825               0.999999996               0.000003823              -0.000381000               0.999999996               0.000010256              -0.000399911               0.999999996               0.000017142              -0.000421043               0.999999996               0.000024293              -0.000443941               0.999999996               0.000031810              -0.000468189               0.999999996               0.000039358              -0.000493416               0.999999996               0.000046567              -0.000519261               0.999999996               0.000053171              -0.000545505               0.999999996               0.000059154              -0.000572128               0.999999996               0.000064440              -0.000599244               0.999999996               0.000069036              -0.000626946               0.999999996               0.000006911              -0.000363813               0.999999996              -0.000005299              -0.000357970               0.999999996              -0.000009346              -0.000357179               0.999999996              -0.000009499              -0.000361480               0.999999996              -0.000007579              -0.000369996               0.999999996              -0.000004339              -0.000381927               0.999999996              -0.000000180              -0.000396839               0.999999996               0.000004486              -0.000414385               0.999999996               0.000009651              -0.000434132               0.999999996               0.000015048              -0.000455628               0.999999996               0.000020557              -0.000478570               0.999999996               0.000026161              -0.000502769               0.999999996               0.000031690              -0.000527713               0.999999996               0.000036585              -0.000553125               0.999999996               0.000040579              -0.000578918               0.999999996               0.000043488              -0.000605045               0.999999996               0.000045116              -0.000631529               0.999999996               0.000004798              -0.000373222               0.999999996              -0.000003931              -0.000371037               0.999999996              -0.000007168              -0.000371779               0.999999996              -0.000007654              -0.000376485               0.999999996              -0.000006540              -0.000384825               0.999999996              -0.000004530              -0.000396217               0.999999996              -0.000001940              -0.000410332               0.999999996               0.000001055              -0.000426894               0.999999996               0.000004565              -0.000445591               0.999999996               0.000008151              -0.000466113               0.999999996               0.000011680              -0.000488224               0.999999996               0.000015485              -0.000511543               0.999999996               0.000019368              -0.000535832               0.999999996               0.000022672              -0.000560881               0.999999996               0.000024941              -0.000586424               0.999999996               0.000026147              -0.000612266               0.999999996               0.000026016              -0.000638301               0.999999996               0.000002456              -0.000378954               0.999999996              -0.000002087              -0.000379165               0.999999996              -0.000003876              -0.000381033               0.999999996              -0.000004257              -0.000386204               0.999999996              -0.000003759              -0.000394597               0.999999996              -0.000002829              -0.000405754               0.999999996              -0.000001650              -0.000419406               0.999999996              -0.000000144              -0.000435293               0.999999996               0.000001672              -0.000453354               0.999999996               0.000003465              -0.000473350               0.999999996               0.000005228              -0.000494964               0.999999996               0.000007197              -0.000517845               0.999999996               0.000009161              -0.000541860               0.999999996               0.000010790              -0.000566787               0.999999996               0.000011785              -0.000592324               0.999999996               0.000011989              -0.000618195               0.999999996               0.000011419              -0.000644156               0.999999996              -0.000000000              -0.000380847               0.999999996              -0.000000000              -0.000381923               0.999999996              -0.000000000              -0.000384267               0.999999996               0.000000000              -0.000389612               0.999999996              -0.000000000              -0.000398011               0.999999996               0.000000000              -0.000409129               0.999999996               0.000000000              -0.000422606               0.999999996               0.000000000              -0.000438211               0.999999996               0.000000000              -0.000456066               0.999999996               0.000000000              -0.000475873               0.999999996               0.000000000              -0.000497339               0.999999996              -0.000000000              -0.000520245               0.999999996              -0.000000000              -0.000544241               0.999999996              -0.000000000              -0.000569136               0.999999996              -0.000000000              -0.000594656               0.999999996              -0.000000000              -0.000620490               0.999999996              -0.000000000              -0.000646444               0.999999996               0.000020021              -0.000000000               0.999999996               0.000035478              -0.000000000               0.999999996               0.000043239              -0.000000000               0.999999996               0.000048007              -0.000000000               0.999999996               0.000051779               0.000000000               0.999999996               0.000055416              -0.000000000               0.999999996               0.000059275               0.000000000               0.999999996               0.000063583              -0.000000000               0.999999996               0.000068495              -0.000000000               0.999999996               0.000074032               0.000000000               0.999999996               0.000080111               0.000000000               0.999999996               0.000086800               0.000000000               0.999999996               0.000094143               0.000000000               0.999999996               0.000102106               0.000000000               0.999999996               0.000110640               0.000000000               0.999999996               0.000119739               0.000000000               0.999999996               0.000129377               0.000000000               0.999999996               0.000019904               0.000037973               0.999999996               0.000034720               0.000033768               0.999999996               0.000042101               0.000032762               0.999999996               0.000046684               0.000033542               0.999999996               0.000050357               0.000035326               0.999999996               0.000054023               0.000037785               0.999999996               0.000058017               0.000040737               0.999999996               0.000062484               0.000044100               0.999999996               0.000067511               0.000047735               0.999999996               0.000073114               0.000051474               0.999999996               0.000079282               0.000055433               0.999999996               0.000086065               0.000059564               0.999999996               0.000093508               0.000063829               0.999999996               0.000101560               0.000068155               0.999999996               0.000110206               0.000072475               0.999999996               0.000119408               0.000076713               0.999999996               0.000129089               0.000080703               0.999999996               0.000019552               0.000075509               0.999999996               0.000032519               0.000067102               0.999999996               0.000038861               0.000065258               0.999999996               0.000042993               0.000066911               0.999999996               0.000046596               0.000070653               0.999999996               0.000050397               0.000075722               0.999999996               0.000054636               0.000081692               0.999999996               0.000059403               0.000088426               0.999999996               0.000064785               0.000095647               0.999999996               0.000070735               0.000103166               0.999999996               0.000077263               0.000111069               0.999999996               0.000084411               0.000119383               0.999999996               0.000092194               0.000127954               0.999999996               0.000100563               0.000136680               0.999999996               0.000109481               0.000145361               0.999999996               0.000118898               0.000154006               0.999999996               0.000128801               0.000162396               0.999999996               0.000018956               0.000112145               0.999999996               0.000028939               0.000099634               0.999999996               0.000033833               0.000097259               0.999999996               0.000037507               0.000100102               0.999999996               0.000041112               0.000105988               0.999999996               0.000045173               0.000113782               0.999999996               0.000049897               0.000122889               0.999999996               0.000055217               0.000132963               0.999999996               0.000061172               0.000143831               0.999999996               0.000067821               0.000155102               0.999999996               0.000075099               0.000166933               0.999999996               0.000082986               0.000179393               0.999999996               0.000091462               0.000192268               0.999999996               0.000100440               0.000205335               0.999999996               0.000109910               0.000218482               0.999999996               0.000119861               0.000231773               0.999999996               0.000130364               0.000245305               0.999999996               0.000018070               0.000147446               0.999999996               0.000024253               0.000131122               0.999999996               0.000027678               0.000128591               0.999999996               0.000030930               0.000132936               0.999999996               0.000034751               0.000141165               0.999999996               0.000039344               0.000151790               0.999999996               0.000044692               0.000164021               0.999999996               0.000050879               0.000177514               0.999999996               0.000057850               0.000192011               0.999999996               0.000065563               0.000207163               0.999999996               0.000073941               0.000222916               0.999999996               0.000082899               0.000239419               0.999999996               0.000092360               0.000256511               0.999999996               0.000102297               0.000274002               0.999999996               0.000112726               0.000291876               0.999999996               0.000123733               0.000310267               0.999999996               0.000135424               0.000329392               0.999999996               0.000017006               0.000181048               0.999999996               0.000018869               0.000161393               0.999999996               0.000020910               0.000159133               0.999999996               0.000024076               0.000165163               0.999999996               0.000028462               0.000175865               0.999999996               0.000033860               0.000189306               0.999999996               0.000040302               0.000204722               0.999999996               0.000047659               0.000221663               0.999999996               0.000055820               0.000239829               0.999999996               0.000064783               0.000259005               0.999999996               0.000074466               0.000278787               0.999999996               0.000084749               0.000299381               0.999999996               0.000095577               0.000320758               0.999999996               0.000106921               0.000342765               0.999999996               0.000118878               0.000365543               0.999999996               0.000131508               0.000389167               0.999999996               0.000144734               0.000413870               0.999999996               0.000015875               0.000212647               0.999999996               0.000013113               0.000190298               0.999999996               0.000014100               0.000188658               0.999999996               0.000017648               0.000196546               0.999999996               0.000022957               0.000209693               0.999999996               0.000029516               0.000225950               0.999999996               0.000037209               0.000244729               0.999999996               0.000045879               0.000265208               0.999999996               0.000055507               0.000287186               0.999999996               0.000066027               0.000310362               0.999999996               0.000077321               0.000334228               0.999999996               0.000089228               0.000358920               0.999999996               0.000101769               0.000384599               0.999999996               0.000114886               0.000411227               0.999999996               0.000128587               0.000438850               0.999999996               0.000142732               0.000467379               0.999999996               0.000157037               0.000496497               0.999999996               0.000014615               0.000241963               0.999999996               0.000007328               0.000217768               0.999999996               0.000007847               0.000216956               0.999999996               0.000012199               0.000226708               0.999999996               0.000018680               0.000242302               0.999999996               0.000026536               0.000261549               0.999999996               0.000035631               0.000283721               0.999999996               0.000045874               0.000307898               0.999999996               0.000057259               0.000333715               0.999999996               0.000069521               0.000360952               0.999999996               0.000082465               0.000388990               0.999999996               0.000096012               0.000417908               0.999999996               0.000110078               0.000447930               0.999999996               0.000124592               0.000479065               0.999999996               0.000139403               0.000511147               0.999999996               0.000154250               0.000543853               0.999999996               0.000168872               0.000576476               0.999999996               0.000013439               0.000268468               0.999999996               0.000001863               0.000243738               0.999999996               0.000002547               0.000243876               0.999999996               0.000007956               0.000255425               0.999999996               0.000015766               0.000273492               0.999999996               0.000024996               0.000295843               0.999999996               0.000035723               0.000321456               0.999999996               0.000047731               0.000349514               0.999999996               0.000060847               0.000379365               0.999999996               0.000074627               0.000410559               0.999999996               0.000088868               0.000442728               0.999999996               0.000103538               0.000475858               0.999999996               0.000118619               0.000510219               0.999999996               0.000133989               0.000545543               0.999999996               0.000149501               0.000581588               0.999999996               0.000165034               0.000617824               0.999999996               0.000180421               0.000653795               0.999999996               0.000012678               0.000293104               0.999999996              -0.000001874               0.000270599               0.999999996              -0.000002722               0.000268295               0.999999996               0.000001642               0.000276896               0.999999996               0.000008455               0.000292051               0.999999996               0.000016715               0.000311578               0.999999996               0.000026268               0.000334398               0.999999996               0.000037096               0.000359920               0.999999996               0.000048794               0.000387429               0.999999996               0.000061030               0.000416383               0.999999996               0.000073554               0.000446312               0.999999996               0.000086254               0.000477018               0.999999996               0.000099163               0.000508539               0.999999996               0.000112218               0.000540949               0.999999996               0.000125524               0.000574220               0.999999996               0.000139213               0.000608046               0.999999996               0.000153262               0.000642162               0.999999996               0.000011611               0.000315277               0.999999996              -0.000004408               0.000296120               0.999999996              -0.000006725               0.000292813               0.999999996              -0.000003629               0.000299152               0.999999996               0.000002009               0.000311695               0.999999996               0.000009193               0.000328554               0.999999996               0.000017532               0.000348780               0.999999996               0.000026995               0.000371814               0.999999996               0.000037195               0.000397021               0.999999996               0.000047920               0.000423742               0.999999996               0.000058829               0.000451573               0.999999996               0.000069720               0.000480165               0.999999996               0.000080578               0.000509340               0.999999996               0.000091323               0.000539135               0.999999996               0.000102163               0.000569676               0.999999996               0.000113231               0.000600900               0.999999996               0.000124710               0.000632736               0.999999996               0.000010320               0.000334621               0.999999996              -0.000005755               0.000319701               0.999999996              -0.000009235               0.000316524               0.999999996              -0.000007428               0.000321441               0.999999996              -0.000003065               0.000331941               0.999999996               0.000002799               0.000346609               0.999999996               0.000009869               0.000364587               0.999999996               0.000017881               0.000385310               0.999999996               0.000026490               0.000408249               0.999999996               0.000035512               0.000432962               0.999999996               0.000044746               0.000458903               0.999999996               0.000054079               0.000485577               0.999999996               0.000063068               0.000512819               0.999999996               0.000071589               0.000540548               0.999999996               0.000079845               0.000568836               0.999999996               0.000088046               0.000597707               0.999999996               0.000096162               0.000627283               0.999999996               0.000008750               0.000350898               0.999999996              -0.000005995               0.000340609               0.999999996              -0.000010103               0.000338372               0.999999996              -0.000009437               0.000342654               0.999999996              -0.000006396               0.000351817               0.999999996              -0.000001844               0.000364825               0.999999996               0.000003823               0.000381000               0.999999996               0.000010256               0.000399911               0.999999996               0.000017142               0.000421043               0.999999996               0.000024293               0.000443941               0.999999996               0.000031810               0.000468189               0.999999996               0.000039358               0.000493416               0.999999996               0.000046567               0.000519261               0.999999996               0.000053171               0.000545505               0.999999996               0.000059154               0.000572128               0.999999996               0.000064440               0.000599244               0.999999996               0.000069036               0.000626946               0.999999996               0.000006911               0.000363813               0.999999996              -0.000005299               0.000357970               0.999999996              -0.000009346               0.000357179               0.999999996              -0.000009499               0.000361480               0.999999996              -0.000007579               0.000369996               0.999999996              -0.000004339               0.000381927               0.999999996              -0.000000180               0.000396839               0.999999996               0.000004486               0.000414385               0.999999996               0.000009651               0.000434132               0.999999996               0.000015048               0.000455628               0.999999996               0.000020557               0.000478570               0.999999996               0.000026161               0.000502769               0.999999996               0.000031690               0.000527713               0.999999996               0.000036585               0.000553125               0.999999996               0.000040579               0.000578918               0.999999996               0.000043488               0.000605045               0.999999996               0.000045116               0.000631529               0.999999996               0.000004798               0.000373222               0.999999996              -0.000003931               0.000371037               0.999999996              -0.000007168               0.000371779               0.999999996              -0.000007654               0.000376485               0.999999996              -0.000006540               0.000384825               0.999999996              -0.000004530               0.000396217               0.999999996              -0.000001940               0.000410332               0.999999996               0.000001055               0.000426894               0.999999996               0.000004565               0.000445591               0.999999996               0.000008151               0.000466113               0.999999996               0.000011680               0.000488224               0.999999996               0.000015485               0.000511543               0.999999996               0.000019368               0.000535832               0.999999996               0.000022672               0.000560881               0.999999996               0.000024941               0.000586424               0.999999996               0.000026147               0.000612266               0.999999996               0.000026016               0.000638301               0.999999996               0.000002456               0.000378954               0.999999996              -0.000002087               0.000379165               0.999999996              -0.000003876               0.000381033               0.999999996              -0.000004257               0.000386204               0.999999996              -0.000003759               0.000394597               0.999999996              -0.000002829               0.000405754               0.999999996              -0.000001650               0.000419406               0.999999996              -0.000000144               0.000435293               0.999999996               0.000001672               0.000453354               0.999999996               0.000003465               0.000473350               0.999999996               0.000005228               0.000494964               0.999999996               0.000007197               0.000517845               0.999999996               0.000009161               0.000541860               0.999999996               0.000010790               0.000566787               0.999999996               0.000011785               0.000592324               0.999999996               0.000011989               0.000618195               0.999999996               0.000011419               0.000644156               0.999999996               0.000000000               0.000380847               0.999999996              -0.000000000               0.000381923               0.999999996               0.000000000               0.000384267               0.999999996              -0.000000000               0.000389612               0.999999996              -0.000000000               0.000398011               0.999999996              -0.000000000               0.000409129               0.999999996              -0.000000000               0.000422606               0.999999996              -0.000000000               0.000438211               0.999999996               0.000000000               0.000456066               0.999999996              -0.000000000               0.000475873               0.999999996               0.000000000               0.000497339               0.999999996               0.000000000               0.000520245               0.999999996               0.000000000               0.000544241               0.999999996               0.000000000               0.000569136               0.999999996              -0.000000000               0.000594656               0.999999996              -0.000000000               0.000620490               0.999999996               0.000000000               0.000646444               0.999999996 </DataArray>
<DataArray type="Float64"                                    Name="defo"                                                      NumberOfComponents=" 3" format="ascii">
             -0.000020021               0.000000000               0.999999996              -0.000035478               0.000000000               0.999999996              -0.000043239              -0.000000000               0.999999996              -0.000048007               0.000000000               0.999999996              -0.000051779               0.000000000               0.999999996              -0.000055416              -0.000000000               0.999999996              -0.000059275              -0.000000000               0.999999996              -0.000063583              -0.000000000               0.999999996              -0.000068495              -0.000000000               0.999999996              -0.000074032              -0.000000000               0.999999996              -0.000080111              -0.000000000               0.999999996              -0.000086800               0.000000000               0.999999996              -0.000094143               0.000000000               0.999999996              -0.000102106               0.000000000               0.999999996              -0.000110640               0.000000000               0.999999996              -0.000119739               0.000000000               0.999999996              -0.000129377              -0.000000000               0.999999996              -0.000019904               0.000037973               0.999999996              -0.000034720               0.000033768               0.999999996              -0.000042101               0.000032762               0.999999996              -0.000046684               0.000033542               0.999999996              -0.000050357               0.000035326               0.999999996              -0.000054023               0.000037785               0.999999996              -0.000058017               0.000040737               0.999999996              -0.000062484               0.000044100               0.999999996              -0.000067511               0.000047735               0.999999996              -0.000073114               0.000051474               0.999999996              -0.000079282               0.000055433               0.999999996              -0.000086065               0.000059564               0.999999996              -0.000093508               0.000063829               0.999999996              -0.000101560               0.000068155               0.999999996              -0.000110206               0.000072475               0.999999996              -0.000119408               0.000076713               0.999999996              -0.000129089               0.000080703               0.999999996              -0.000019552               0.000075509               0.999999996              -0.000032519               0.000067102               0.999999996              -0.000038861               0.000065258               0.999999996              -0.000042993               0.000066911               0.999999996              -0.000046596               0.000070653               0.999999996              -0.000050397               0.000075722               0.999999996              -0.000054636               0.000081692               0.999999996              -0.000059403               0.000088426               0.999999996              -0.000064785               0.000095647               0.999999996              -0.000070735               0.000103166               0.999999996              -0.000077263               0.000111069               0.999999996              -0.000084411               0.000119383               0.999999996              -0.000092194               0.000127954               0.999999996              -0.000100563               0.000136680               0.999999996              -0.000109481               0.000145361               0.999999996              -0.000118898               0.000154006               0.999999996              -0.000128801               0.000162396               0.999999996              -0.000018956               0.000112145               0.999999996              -0.000028939               0.000099634               0.999999996              -0.000033833               0.000097259               0.999999996              -0.000037507               0.000100102               0.999999996              -0.000041112               0.000105988               0.999999996              -0.000045173               0.000113782               0.999999996              -0.000049897               0.000122889               0.999999996              -0.000055217               0.000132963               0.999999996              -0.000061172               0.000143831               0.999999996              -0.000067821               0.000155102               0.999999996              -0.000075099               0.000166933               0.999999996              -0.000082986               0.000179393               0.999999996              -0.000091462               0.000192268               0.999999996              -0.000100440               0.000205335               0.999999996              -0.000109910               0.000218482               0.999999996              -0.000119861               0.000231773               0.999999996              -0.000130364               0.000245305               0.999999996              -0.000018070               0.000147446               0.999999996              -0.000024253               0.000131122               0.999999996              -0.000027678               0.000128591               0.999999996              -0.000030930               0.000132936               0.999999996              -0.000034751               0.000141165               0.999999996              -0.000039344               0.000151790               0.999999996              -0.000044692               0.000164021               0.999999996              -0.000050879               0.000177514               0.999999996              -0.000057850               0.000192011               0.999999996              -0.000065563               0.000207163               0.999999996              -0.000073941               0.000222916               0.999999996              -0.000082899               0.000239419               0.999999996              -0.000092360               0.000256511               0.999999996              -0.000102297               0.000274002               0.999999996              -0.000112726               0.000291876               0.999999996              -0.000123733               0.000310267               0.999999996              -0.000135424               0.000329392               0.999999996              -0.000017006               0.000181048               0.999999996              -0.000018869               0.000161393               0.999999996              -0.000020910               0.000159133               0.999999996              -0.000024076               0.000165163               0.999999996              -0.000028462               0.000175865               0.999999996              -0.000033860               0.000189306               0.999999996              -0.000040302               0.000204722               0.999999996              -0.000047659               0.000221663               0.999999996              -0.000055820               0.000239829               0.999999996              -0.000064783               0.000259005               0.999999996              -0.000074466               0.000278787               0.999999996              -0.000084749               0.000299381               0.999999996              -0.000095577               0.000320758               0.999999996              -0.000106921               0.000342765               0.999999996              -0.000118878               0.000365543               0.999999996              -0.000131508               0.000389167               0.999999996              -0.000144734               0.000413870               0.999999996              -0.000015875               0.000212647               0.999999996              -0.000013113               0.000190298               0.999999996              -0.000014100               0.000188658               0.999999996              -0.000017648               0.000196546               0.999999996              -0.000022957               0.000209693               0.999999996              -0.000029516               0.000225950               0.999999996              -0.000037209               0.000244729               0.999999996              -0.000045879               0.000265208               0.999999996              -0.000055507               0.000287186               0.999999996              -0.000066027               0.000310362               0.999999996              -0.000077321               0.000334228               0.999999996              -0.000089228               0.000358920               0.999999996              -0.000101769               0.000384599               0.999999996              -0.000114886               0.000411227               0.999999996              -0.000128587               0.000438850               0.999999996              -0.000142732               0.000467379               0.999999996              -0.000157037               0.000496497               0.999999996              -0.000014615               0.000241963               0.999999996              -0.000007328               0.000217768               0.999999996              -0.000007847               0.000216956               0.999999996              -0.000012199               0.000226708               0.999999996              -0.000018680               0.000242302               0.999999996              -0.000026536               0.000261549               0.999999996              -0.000035631               0.000283721               0.999999996              -0.000045874               0.000307898               0.999999996              -0.000057259               0.000333715               0.999999996              -0.000069521               0.000360952               0.999999996              -0.000082465               0.000388990               0.999999996              -0.000096012               0.000417908               0.999999996              -0.000110078               0.000447930               0.999999996              -0.000124592               0.000479065               0.999999996              -0.000139403               0.000511147               0.999999996              -0.000154250               0.000543853               0.999999996              -0.000168872               0.000576476               0.999999996              -0.000013439               0.000268468               0.999999996              -0.000001863               0.000243738               0.999999996              -0.000002547               0.000243876               0.999999996              -0.000007956               0.000255425               0.999999996              -0.000015766               0.000273492               0.999999996              -0.000024996               0.000295843               0.999999996              -0.000035723               0.000321456               0.999999996              -0.000047731               0.000349514               0.999999996              -0.000060847               0.000379365               0.999999996              -0.000074627               0.000410559               0.999999996              -0.000088868               0.000442728               0.999999996              -0.000103538               0.000475858               0.999999996              -0.000118619               0.000510219               0.999999996              -0.000133989               0.000545543               0.999999996              -0.000149501               0.000581588               0.999999996              -0.000165034               0.000617824               0.999999996              -0.000180421               0.000653795               0.999999996              -0.000012678               0.000293104               0.999999996               0.000001874               0.000270599               0.999999996               0.000002722               0.000268295               0.999999996              -0.000001642               0.000276896               0.999999996              -0.000008455               0.000292051               0.999999996              -0.000016715               0.000311578               0.999999996              -0.000026268               0.000334398               0.999999996              -0.000037096               0.000359920               0.999999996              -0.000048794               0.000387429               0.999999996              -0.000061030               0.000416383               0.999999996              -0.000073554               0.000446312               0.999999996              -0.000086254               0.000477018               0.999999996              -0.000099163               0.000508539               0.999999996              -0.000112218               0.000540949               0.999999996              -0.000125524               0.000574220               0.999999996              -0.000139213               0.000608046               0.999999996              -0.000153262               0.000642162               0.999999996              -0.000011611               0.000315277               0.999999996               0.000004408               0.000296120               0.999999996               0.000006725               0.000292813               0.999999996               0.000003629               0.000299152               0.999999996              -0.000002009               0.000311695               0.999999996              -0.000009193               0.000328554               0.999999996              -0.000017532               0.000348780               0.999999996              -0.000026995               0.000371814               0.999999996              -0.000037195               0.000397021               0.999999996              -0.000047920               0.000423742               0.999999996              -0.000058829               0.000451573               0.999999996              -0.000069720               0.000480165               0.999999996              -0.000080578               0.000509340               0.999999996              -0.000091323               0.000539135               0.999999996              -0.000102163               0.000569676               0.999999996              -0.000113231               0.000600900               0.999999996              -0.000124710               0.000632736               0.999999996              -0.000010320               0.000334621               0.999999996               0.000005755               0.000319701               0.999999996               0.000009235               0.000316524               0.999999996               0.000007428               0.000321441               0.999999996               0.000003065               0.000331941               0.999999996              -0.000002799               0.000346609               0.999999996              -0.000009869               0.000364587               0.999999996              -0.000017881               0.000385310               0.999999996              -0.000026490               0.000408249               0.999999996              -0.000035512               0.000432962               0.999999996              -0.000044746               0.000458903               0.999999996              -0.000054079               0.000485577               0.999999996              -0.000063068               0.000512819               0.999999996              -0.000071589               0.000540548               0.999999996              -0.000079845               0.000568836               0.999999996              -0.000088046               0.000597707               0.999999996              -0.000096162               0.000627283               0.999999996              -0.000008750               0.000350898               0.999999996               0.000005995               0.000340609               0.999999996               0.000010103               0.000338372               0.999999996               0.000009437               0.000342654               0.999999996               0.000006396               0.000351817               0.999999996               0.000001844               0.000364825               0.999999996              -0.000003823               0.000381000               0.999999996              -0.000010256               0.000399911               0.999999996              -0.000017142               0.000421043               0.999999996              -0.000024293               0.000443941               0.999999996              -0.000031810               0.000468189               0.999999996              -0.000039358               0.000493416               0.999999996              -0.000046567               0.000519261               0.999999996              -0.000053171               0.000545505               0.999999996              -0.000059154               0.000572128               0.999999996              -0.000064440               0.000599244               0.999999996              -0.000069036               0.000626946               0.999999996              -0.000006911               0.000363813               0.999999996               0.000005299               0.000357970               0.999999996               0.000009346               0.000357179               0.999999996               0.000009499               0.000361480               0.999999996               0.000007579               0.000369996               0.999999996               0.000004339               0.000381927               0.999999996               0.000000180               0.000396839               0.999999996              -0.000004486               0.000414385               0.999999996              -0.000009651               0.000434132               0.999999996              -0.000015048               0.000455628               0.999999996              -0.000020557               0.000478570               0.999999996              -0.000026161               0.000502769               0.999999996              -0.000031690               0.000527713               0.999999996              -0.000036585               0.000553125               0.999999996              -0.000040579               0.000578918               0.999999996              -0.000043488               0.000605045               0.999999996              -0.000045116               0.000631529               0.999999996              -0.000004798               0.000373222               0.999999996               0.000003931               0.000371037               0.999999996               0.000007168               0.000371779               0.999999996               0.000007654               0.000376485               0.999999996               0.000006540               0.000384825               0.999999996               0.000004530               0.000396217               0.999999996               0.000001940               0.000410332               0.999999996              -0.000001055               0.000426894               0.999999996              -0.000004565               0.000445591               0.999999996              -0.000008151               0.000466113               0.999999996              -0.000011680               0.000488224               0.999999996              -0.000015485               0.000511543               0.999999996              -0.000019368               0.000535832               0.999999996              -0.000022672               0.000560881               0.999999996              -0.000024941               0.000586424               0.999999996              -0.000026147               0.000612266               0.999999996              -0.000026016               0.000638301               0.999999996              -0.000002456               0.000378954               0.999999996               0.000002087               0.000379165               0.999999996               0.000003876               0.000381033               0.999999996               0.000004257               0.000386204               0.999999996               0.000003759               0.000394597               0.999999996               0.000002829               0.000405754               0.999999996               0.000001650               0.000419406               0.999999996               0.000000144               0.000435293               0.999999996              -0.000001672               0.000453354               0.999999996              -0.000003465               0.000473350               0.999999996              -0.000005228               0.000494964               0.999999996              -0.000007197               0.000517845               0.999999996              -0.000009161               0.000541860               0.999999996              -0.000010790               0.000566787               0.999999996              -0.000011785               0.000592324               0.999999996              -0.000011989               0.000618195               0.999999996              -0.000011419               0.000644156               0.999999996               0.000000000               0.000380847               0.999999996              -0.000000000               0.000381923               0.999999996               0.000000000               0.000384267               0.999999996              -0.000000000               0.000389612               0.999999996              -0.000000000               0.000398011               0.999999996              -0.000000000               0.000409129               0.999999996              -0.000000000               0.000422606               0.999999996              -0.000000000               0.000438211               0.999999996               0.000000000               0.000456066               0.999999996              -0.000000000               0.000475873               0.999999996               0.000000000               0.000497339               0.999999996               0.000000000               0.000520245               0.999999996               0.000000000               0.000544241               0.999999996               0.000000000               0.000569136               0.999999996              -0.000000000               0.000594656               0.999999996              -0.000000000               0.000620490               0.999999996               0.000000000               0.000646444               0.999999996              -0.000020021               0.000000000               0.999999996              -0.000035478               0.000000000               0.999999996              -0.000043239              -0.000000000               0.999999996              -0.000048007               0.000000000               0.999999996              -0.000051779               0.000000000               0.999999996              -0.000055416              -0.000000000               0.999999996              -0.000059275              -0.000000000               0.999999996              -0.000063583              -0.000000000               0.999999996              -0.000068495              -0.000000000               0.999999996              -0.000074032              -0.000000000               0.999999996              -0.000080111              -0.000000000               0.999999996              -0.000086800               0.000000000               0.999999996              -0.000094143               0.000000000               0.999999996              -0.000102106               0.000000000               0.999999996              -0.000110640               0.000000000               0.999999996              -0.000119739               0.000000000               0.999999996              -0.000129377              -0.000000000               0.999999996              -0.000019904              -0.000037973               0.999999996              -0.000034720              -0.000033768               0.999999996              -0.000042101              -0.000032762               0.999999996              -0.000046684              -0.000033542               0.999999996              -0.000050357              -0.000035326               0.999999996              -0.000054023              -0.000037785               0.999999996              -0.000058017              -0.000040737               0.999999996              -0.000062484              -0.000044100               0.999999996              -0.000067511              -0.000047735               0.999999996              -0.000073114              -0.000051474               0.999999996              -0.000079282              -0.000055433               0.999999996              -0.000086065              -0.000059564               0.999999996              -0.000093508              -0.000063829               0.999999996              -0.000101560              -0.000068155               0.999999996              -0.000110206              -0.000072475               0.999999996              -0.000119408              -0.000076713               0.999999996              -0.000129089              -0.000080703               0.999999996              -0.000019552              -0.000075509               0.999999996              -0.000032519              -0.000067102               0.999999996              -0.000038861              -0.000065258               0.999999996              -0.000042993              -0.000066911               0.999999996              -0.000046596              -0.000070653               0.999999996              -0.000050397              -0.000075722               0.999999996              -0.000054636              -0.000081692               0.999999996              -0.000059403              -0.000088426               0.999999996              -0.000064785              -0.000095647               0.999999996              -0.000070735              -0.000103166               0.999999996              -0.000077263              -0.000111069               0.999999996              -0.000084411              -0.000119383               0.999999996              -0.000092194              -0.000127954               0.999999996              -0.000100563              -0.000136680               0.999999996              -0.000109481              -0.000145361               0.999999996              -0.000118898              -0.000154006               0.999999996              -0.000128801              -0.000162396               0.999999996              -0.000018956              -0.000112145               0.999999996              -0.000028939              -0.000099634               0.999999996              -0.000033833              -0.000097259               0.999999996              -0.000037507              -0.000100102               0.999999996              -0.000041112              -0.000105988               0.999999996              -0.000045173              -0.000113782               0.999999996              -0.000049897              -0.000122889               0.999999996              -0.000055217              -0.000132963               0.999999996              -0.000061172              -0.000143831               0.999999996              -0.000067821              -0.000155102               0.999999996              -0.000075099              -0.000166933               0.999999996              -0.000082986              -0.000179393               0.999999996              -0.000091462              -0.000192268               0.999999996              -0.000100440              -0.000205335               0.999999996              -0.000109910              -0.000218482               0.999999996              -0.000119861              -0.000231773               0.999999996              -0.000130364              -0.000245305               0.999999996              -0.000018070              -0.000147446               0.999999996              -0.000024253              -0.000131122               0.999999996              -0.000027678              -0.000128591               0.999999996              -0.000030930              -0.000132936               0.999999996              -0.000034751              -0.000141165               0.999999996              -0.000039344              -0.000151790               0.999999996              -0.000044692              -0.000164021               0.999999996              -0.000050879              -0.000177514               0.999999996              -0.000057850              -0.000192011               0.999999996              -0.000065563              -0.000207163               0.999999996              -0.000073941              -0.000222916               0.999999996              -0.000082899              -0.000239419               0.999999996              -0.000092360              -0.000256511               0.999999996              -0.000102297              -0.000274002               0.999999996              -0.000112726              -0.000291876               0.999999996              -0.000123733              -0.000310267               0.999999996              -0.000135424              -0.000329392               0.999999996              -0.000017006              -0.000181048               0.999999996              -0.000018869              -0.000161393               0.999999996              -0.000020910              -0.000159133               0.999999996              -0.000024076              -0.000165163               0.999999996              -0.000028462              -0.000175865               0.999999996              -0.000033860              -0.000189306               0.999999996              -0.000040302              -0.000204722               0.999999996              -0.000047659              -0.000221663               0.999999996              -0.000055820              -0.000239829               0.999999996              -0.000064783              -0.000259005               0.999999996              -0.000074466              -0.000278787               0.999999996              -0.000084749              -0.000299381               0.999999996              -0.000095577              -0.000320758               0.999999996              -0.000106921              -0.000342765               0.999999996              -0.000118878              -0.000365543               0.999999996              -0.000131508              -0.000389167               0.999999996              -0.000144734              -0.000413870               0.999999996              -0.000015875              -0.000212647               0.999999996              -0.000013113              -0.000190298               0.999999996              -0.000014100              -0.000188658               0.999999996              -0.000017648              -0.000196546               0.999999996              -0.000022957              -0.000209693               0.999999996              -0.000029516              -0.000225950               0.999999996              -0.000037209              -0.000244729               0.999999996              -0.000045879              -0.000265208               0.999999996              -0.000055507              -0.000287186               0.999999996              -0.000066027              -0.000310362               0.999999996              -0.000077321              -0.000334228               0.999999996              -0.000089228              -0.000358920               0.999999996              -0.000101769              -0.000384599               0.999999996              -0.000114886              -0.000411227               0.999999996              -0.000128587              -0.000438850               0.999999996              -0.000142732              -0.000467379               0.999999996              -0.000157037              -0.000496497               0.999999996              -0.000014615              -0.000241963               0.999999996              -0.000007328              -0.000217768               0.999999996              -0.000007847              -0.000216956               0.999999996              -0.000012199              -0.000226708               0.999999996              -0.000018680              -0.000242302               0.999999996              -0.000026536              -0.000261549               0.999999996              -0.000035631              -0.000283721               0.999999996              -0.000045874              -0.000307898               0.999999996              -0.000057259              -0.000333715               0.999999996              -0.000069521              -0.000360952               0.999999996              -0.000082465              -0.000388990               0.999999996              -0.000096012              -0.000417908               0.999999996              -0.000110078              -0.000447930               0.999999996              -0.000124592              -0.000479065               0.999999996              -0.000139403              -0.000511147               0.999999996              -0.000154250              -0.000543853               0.999999996              -0.000168872              -0.000576476               0.999999996              -0.000013439              -0.000268468               0.999999996              -0.000001863              -0.000243738               0.999999996              -0.000002547              -0.000243876               0.999999996              -0.000007956              -0.000255425               0.999999996              -0.000015766              -0.000273492               0.999999996              -0.000024996              -0.000295843               0.999999996              -0.000035723              -0.000321456               0.999999996              -0.000047731              -0.000349514               0.999999996              -0.000060847              -0.000379365               0.999999996              -0.000074627              -0.000410559               0.999999996              -0.000088868              -0.000442728               0.999999996              -0.000103538              -0.000475858               0.999999996              -0.000118619              -0.000510219               0.999999996              -0.000133989              -0.000545543               0.999999996              -0.000149501              -0.000581588               0.999999996              -0.000165034              -0.000617824               0.999999996              -0.000180421              -0.000653795               0.999999996              -0.000012678              -0.000293104               0.999999996               0.000001874              -0.000270599               0.999999996               0.000002722              -0.000268295               0.999999996              -0.000001642              -0.000276896               0.999999996              -0.000008455              -0.000292051               0.999999996              -0.000016715              -0.000311578               0.999999996              -0.000026268              -0.000334398               0.999999996              -0.000037096              -0.000359920               0.999999996              -0.000048794              -0.000387429               0.999999996              -0.000061030              -0.000416383               0.999999996              -0.000073554              -0.000446312               0.999999996              -0.000086254              -0.000477018               0.999999996              -0.000099163              -0.000508539               0.999999996              -0.000112218              -0.000540949               0.999999996              -0.000125524              -0.000574220               0.999999996              -0.000139213              -0.000608046               0.999999996              -0.000153262              -0.000642162               0.999999996              -0.000011611              -0.000315277               0.999999996               0.000004408              -0.000296120               0.999999996               0.000006725              -0.000292813               0.999999996               0.000003629              -0.000299152               0.999999996              -0.000002009              -0.000311695               0.999999996              -0.000009193              -0.000328554               0.999999996              -0.000017532              -0.000348780               0.999999996              -0.000026995              -0.000371814               0.999999996              -0.000037195              -0.000397021               0.999999996              -0.000047920              -0.000423742               0.999999996              -0.000058829              -0.000451573               0.999999996              -0.000069720              -0.000480165               0.999999996              -0.000080578              -0.000509340               0.999999996              -0.000091323              -0.000539135               0.999999996              -0.000102163              -0.000569676               0.999999996              -0.000113231              -0.000600900               0.999999996              -0.000124710              -0.000632736               0.999999996              -0.000010320              -0.000334621               0.999999996               0.000005755              -0.000319701               0.999999996               0.000009235              -0.000316524               0.999999996               0.000007428              -0.000321441               0.999999996               0.000003065              -0.000331941               0.999999996              -0.000002799              -0.000346609               0.999999996              -0.000009869              -0.000364587               0.999999996              -0.000017881              -0.000385310               0.999999996              -0.000026490              -0.000408249               0.999999996              -0.000035512              -0.000432962               0.999999996              -0.000044746              -0.000458903               0.999999996              -0.000054079              -0.000485577               0.999999996              -0.000063068              -0.000512819               0.999999996              -0.000071589              -0.000540548               0.999999996              -0.000079845              -0.000568836               0.999999996              -0.000088046              -0.000597707               0.999999996              -0.000096162              -0.000627283               0.999999996              -0.000008750              -0.000350898               0.999999996               0.000005995              -0.000340609               0.999999996               0.000010103              -0.000338372               0.999999996               0.000009437              -0.000342654               0.999999996               0.000006396              -0.000351817               0.999999996               0.000001844              -0.000364825               0.999999996              -0.000003823              -0.000381000               0.999999996              -0.000010256              -0.000399911               0.999999996              -0.000017142              -0.000421043               0.999999996              -0.000024293              -0.000443941               0.999999996              -0.000031810              -0.000468189               0.999999996              -0.000039358              -0.000493416               0.999999996              -0.000046567              -0.000519261               0.999999996              -0.000053171              -0.000545505               0.999999996              -0.000059154              -0.000572128               0.999999996              -0.000064440              -0.000599244               0.999999996              -0.000069036              -0.000626946               0.999999996              -0.000006911              -0.000363813               0.999999996               0.000005299              -0.000357970               0.999999996               0.000009346              -0.000357179               0.999999996               0.000009499              -0.000361480               0.999999996               0.000007579              -0.000369996               0.999999996               0.000004339              -0.000381927               0.999999996               0.000000180              -0.000396839               0.999999996              -0.000004486              -0.000414385               0.999999996              -0.000009651              -0.000434132               0.999999996              -0.000015048              -0.000455628               0.999999996              -0.000020557              -0.000478570               0.999999996              -0.000026161              -0.000502769               0.999999996              -0.000031690              -0.000527713               0.999999996              -0.000036585              -0.000553125               0.999999996              -0.000040579              -0.000578918               0.999999996              -0.000043488              -0.000605045               0.999999996              -0.000045116              -0.000631529               0.999999996              -0.000004798              -0.000373222               0.999999996               0.000003931              -0.000371037               0.999999996               0.000007168              -0.000371779               0.999999996               0.000007654              -0.000376485               0.999999996               0.000006540              -0.000384825               0.999999996               0.000004530              -0.000396217               0.999999996               0.000001940              -0.000410332               0.999999996              -0.000001055              -0.000426894               0.999999996              -0.000004565              -0.000445591               0.999999996              -0.000008151              -0.000466113               0.999999996              -0.000011680              -0.000488224               0.999999996              -0.000015485              -0.000511543               0.999999996              -0.000019368              -0.000535832               0.999999996              -0.000022672              -0.000560881               0.999999996              -0.000024941              -0.000586424               0.999999996              -0.000026147              -0.000612266               0.999999996              -0.000026016              -0.000638301               0.999999996              -0.000002456              -0.000378954               0.999999996               0.000002087              -0.000379165               0.999999996               0.000003876              -0.000381033               0.999999996               0.000004257              -0.000386204               0.999999996               0.000003759              -0.000394597               0.999999996               0.000002829              -0.000405754               0.999999996               0.000001650              -0.000419406               0.999999996               0.000000144              -0.000435293               0.999999996              -0.000001672              -0.000453354               0.999999996              -0.000003465              -0.000473350               0.999999996              -0.000005228              -0.000494964               0.999999996              -0.000007197              -0.000517845               0.999999996              -0.000009161              -0.000541860               0.999999996              -0.000010790              -0.000566787               0.999999996              -0.000011785              -0.000592324               0.999999996              -0.000011989              -0.000618195               0.999999996              -0.000011419              -0.000644156               0.999999996              -0.000000000              -0.000380847               0.999999996              -0.000000000              -0.000381923               0.999999996              -0.000000000              -0.000384267               0.999999996               0.000000000              -0.000389612               0.999999996              -0.000000000              -0.000398011               0.999999996               0.000000000              -0.000409129               0.999999996               0.000000000              -0.000422606               0.999999996               0.000000000              -0.000438211               0.999999996               0.000000000              -0.000456066               0.999999996               0.000000000              -0.000475873               0.999999996               0.000000000              -0.000497339               0.999999996              -0.000000000              -0.000520245               0.999999996              -0.000000000              -0.000544241               0.999999996              -0.000000000              -0.000569136               0.999999996              -0.000000000              -0.000594656               0.999999996              -0.000000000              -0.000620490               0.999999996              -0.000000000              -0.000646444               0.999999996               0.000020021              -0.000000000               0.999999996               0.000035478              -0.000000000               0.999999996               0.000043239              -0.000000000               0.999999996               0.000048007              -0.000000000               0.999999996               0.000051779               0.000000000               0.999999996               0.000055416              -0.000000000               0.999999996               0.000059275               0.000000000               0.999999996               0.000063583              -0.000000000               0.999999996               0.000068495              -0.000000000               0.999999996               0.000074032               0.000000000               0.999999996               0.000080111               0.000000000               0.999999996               0.000086800               0.000000000               0.999999996               0.000094143               0.000000000               0.999999996               0.000102106               0.000000000               0.999999996               0.000110640               0.000000000               0.999999996               0.000119739               0.000000000               0.999999996               0.000129377               0.000000000               0.999999996               0.000019904              -0.000037973               0.999999996               0.000034720              -0.000033768               0.999999996               0.000042101              -0.000032762               0.999999996               0.000046684              -0.000033542               0.999999996               0.000050357              -0.000035326               0.999999996               0.000054023              -0.000037785               0.999999996               0.000058017              -0.000040737               0.999999996               0.000062484              -0.000044100               0.999999996               0.000067511              -0.000047735               0.999999996               0.000073114              -0.000051474               0.999999996               0.000079282              -0.000055433               0.999999996               0.000086065              -0.000059564               0.999999996               0.000093508              -0.000063829               0.999999996               0.000101560              -0.000068155               0.999999996               0.000110206              -0.000072475               0.999999996               0.000119408              -0.000076713               0.999999996               0.000129089              -0.000080703               0.999999996               0.000019552              -0.000075509               0.999999996               0.000032519              -0.000067102               0.999999996               0.000038861              -0.000065258               0.999999996               0.000042993              -0.000066911               0.999999996               0.000046596              -0.000070653               0.999999996               0.000050397              -0.000075722               0.999999996               0.000054636              -0.000081692               0.999999996               0.000059403              -0.000088426               0.999999996               0.000064785              -0.000095647               0.999999996               0.000070735              -0.000103166               0.999999996               0.000077263              -0.000111069               0.999999996               0.000084411              -0.000119383               0.999999996               0.000092194              -0.000127954               0.999999996               0.000100563              -0.000136680               0.999999996               0.000109481              -0.000145361               0.999999996               0.000118898              -0.000154006               0.999999996               0.000128801              -0.000162396               0.999999996               0.000018956              -0.000112145               0.999999996               0.000028939              -0.000099634               0.999999996               0.000033833              -0.000097259               0.999999996               0.000037507              -0.000100102               0.999999996               0.000041112              -0.000105988               0.999999996               0.000045173              -0.000113782               0.999999996               0.000049897              -0.000122889               0.999999996               0.000055217              -0.000132963               0.999999996               0.000061172              -0.000143831               0.999999996               0.000067821              -0.000155102               0.999999996               0.000075099              -0.000166933               0.999999996               0.000082986              -0.000179393               0.999999996               0.000091462              -0.000192268               0.999999996               0.000100440              -0.000205335               0.999999996               0.000109910              -0.000218482               0.999999996               0.000119861              -0.000231773               0.999999996               0.000130364              -0.000245305               0.999999996               0.000018070              -0.000147446               0.999999996               0.000024253              -0.000131122               0.999999996               0.000027678              -0.000128591               0.999999996               0.000030930              -0.000132936               0.999999996               0.000034751              -0.000141165               0.999999996               0.000039344              -0.000151790               0.999999996               0.000044692              -0.000164021               0.999999996               0.000050879              -0.000177514               0.999999996               0.000057850              -0.000192011               0.999999996               0.000065563              -0.000207163               0.999999996               0.000073941              -0.000222916               0.999999996               0.000082899              -0.000239419               0.999999996               0.000092360              -0.000256511               0.999999996               0.000102297              -0.000274002               0.999999996               0.000112726              -0.000291876               0.999999996               0.000123733              -0.000310267               0.999999996               0.000135424              -0.000329392               0.999999996               0.000017006              -0.000181048               0.999999996               0.000018869              -0.000161393               0.999999996               0.000020910              -0.000159133               0.999999996               0.000024076              -0.000165163               0.999999996               0.000028462              -0.000175865               0.999999996               0.000033860              -0.000189306               0.999999996               0.000040302              -0.000204722               0.999999996               0.000047659              -0.000221663               0.999999996               0.000055820              -0.000239829               0.999999996               0.000064783              -0.000259005               0.999999996               0.000074466              -0.000278787               0.999999996               0.000084749              -0.000299381               0.999999996               0.000095577              -0.000320758               0.999999996               0.000106921              -0.000342765               0.999999996               0.000118878              -0.000365543               0.999999996               0.000131508              -0.000389167               0.999999996               0.000144734              -0.000413870               0.999999996               0.000015875              -0.000212647               0.999999996               0.000013113              -0.000190298               0.999999996               0.000014100              -0.000188658               0.999999996               0.000017648              -0.000196546               0.999999996               0.000022957              -0.000209693               0.999999996               0.000029516              -0.000225950               0.999999996               0.000037209              -0.000244729               0.999999996               0.000045879              -0.000265208               0.999999996               0.000055507              -0.000287186               0.999999996               0.000066027              -0.000310362               0.999999996               0.000077321              -0.000334228               0.999999996               0.000089228              -0.000358920               0.999999996               0.000101769              -0.000384599               0.999999996               0.000114886              -0.000411227               0.999999996               0.000128587              -0.000438850               0.999999996               0.000142732              -0.000467379               0.999999996               0.000157037              -0.000496497               0.999999996               0.000014615              -0.000241963               0.999999996               0.000007328              -0.000217768               0.999999996               0.000007847              -0.000216956               0.999999996               0.000012199              -0.000226708               0.999999996               0.000018680              -0.000242302               0.999999996               0.000026536              -0.000261549               0.999999996               0.000035631              -0.000283721               0.999999996               0.000045874              -0.000307898               0.999999996               0.000057259              -0.000333715               0.999999996               0.000069521              -0.000360952               0.999999996               0.000082465              -0.000388990               0.999999996               0.000096012              -0.000417908               0.999999996               0.000110078              -0.000447930               0.999999996               0.000124592              -0.000479065               0.999999996               0.000139403              -0.000511147               0.999999996               0.000154250              -0.000543853               0.999999996               0.000168872              -0.000576476               0.999999996               0.000013439              -0.000268468               0.999999996               0.000001863              -0.000243738               0.999999996               0.000002547              -0.000243876               0.999999996               0.000007956              -0.000255425               0.999999996               0.000015766              -0.000273492               0.999999996               0.000024996              -0.000295843               0.999999996               0.000035723              -0.000321456               0.999999996               0.000047731              -0.000349514               0.999999996               0.000060847              -0.000379365               0.999999996               0.000074627              -0.000410559               0.999999996               0.000088868              -0.000442728               0.999999996               0.000103538              -0.000475858               0.999999996               0.000118619              -0.000510219               0.999999996               0.000133989              -0.000545543               0.999999996               0.000149501              -0.000581588               0.999999996               0.000165034              -0.000617824               0.999999996               0.000180421              -0.000653795               0.999999996               0.000012678              -0.000293104               0.999999996              -0.000001874              -0.000270599               0.999999996              -0.000002722              -0.000268295               0.999999996               0.000001642              -0.000276896               0.999999996               0.000008455              -0.000292051               0.999999996               0.000016715              -0.000311578               0.999999996               0.000026268              -0.000334398               0.999999996               0.000037096              -0.000359920               0.999999996               0.000048794              -0.000387429               0.999999996               0.000061030              -0.000416383               0.999999996               0.000073554              -0.000446312               0.999999996               0.000086254              -0.000477018               0.999999996               0.000099163              -0.000508539               0.999999996               0.000112218              -0.000540949               0.999999996               0.000125524              -0.000574220               0.999999996               0.000139213              -0.000608046               0.999999996               0.000153262              -0.000642162               0.999999996               0.000011611              -0.000315277               0.999999996              -0.000004408              -0.000296120               0.999999996              -0.000006725              -0.000292813               0.999999996              -0.000003629              -0.000299152               0.999999996               0.000002009              -0.000311695               0.999999996               0.000009193              -0.000328554               0.999999996               0.000017532              -0.000348780               0.999999996               0.000026995              -0.000371814               0.999999996               0.000037195              -0.000397021               0.999999996               0.000047920              -0.000423742               0.999999996               0.000058829              -0.000451573               0.999999996               0.000069720              -0.000480165               0.999999996               0.000080578              -0.000509340               0.999999996               0.000091323              -0.000539135               0.999999996               0.000102163              -0.000569676               0.999999996               0.000113231              -0.000600900               0.999999996               0.000124710              -0.000632736               0.999999996               0.000010320              -0.000334621               0.999999996              -0.000005755              -0.000319701               0.999999996              -0.000009235              -0.000316524               0.999999996              -0.000007428              -0.000321441               0.999999996              -0.000003065              -0.000331941               0.999999996               0.000002799              -0.000346609               0.999999996               0.000009869              -0.000364587               0.999999996               0.000017881              -0.000385310               0.999999996               0.000026490              -0.000408249               0.999999996               0.000035512              -0.000432962               0.999999996               0.000044746              -0.000458903               0.999999996               0.000054079              -0.000485577               0.999999996               0.000063068              -0.000512819               0.999999996               0.000071589              -0.000540548               0.999999996               0.000079845              -0.000568836               0.999999996               0.000088046              -0.000597707               0.999999996               0.000096162              -0.000627283               0.999999996               0.000008750              -0.000350898               0.999999996              -0.000005995              -0.000340609               0.999999996              -0.000010103              -0.000338372               0.999999996              -0.000009437              -0.000342654               0.999999996              -0.000006396              -0.000351817               0.999999996              -0.000001844              -0.000364825               0.999999996               0.000003823              -0.000381000               0.999999996               0.000010256              -0.000399911               0.999999996               0.000017142              -0.000421043               0.999999996               0.000024293              -0.000443941               0.999999996               0.000031810              -0.000468189               0.999999996               0.000039358              -0.000493416               0.999999996               0.000046567              -0.000519261               0.999999996               0.000053171              -0.000545505               0.999999996               0.000059154              -0.000572128               0.999999996               0.000064440              -0.000599244               0.999999996               0.000069036              -0.000626946               0.999999996               0.000006911              -0.000363813               0.999999996              -0.000005299              -0.000357970               0.999999996              -0.000009346              -0.000357179               0.999999996              -0.000009499              -0.000361480               0.999999996              -0.000007579              -0.000369996               0.999999996              -0.000004339              -0.000381927               0.999999996              -0.000000180              -0.000396839               0.999999996               0.000004486              -0.000414385               0.999999996               0.000009651              -0.000434132               0.999999996               0.000015048              -0.000455628               0.999999996               0.000020557              -0.000478570               0.999999996               0.000026161              -0.000502769               0.999999996               0.000031690              -0.000527713               0.999999996               0.000036585              -0.000553125               0.999999996               0.000040579              -0.000578918               0.999999996               0.000043488              -0.000605045               0.999999996               0.000045116              -0.000631529               0.999999996               0.000004798              -0.000373222               0.999999996              -0.000003931              -0.000371037               0.999999996              -0.000007168              -0.000371779               0.999999996              -0.000007654              -0.000376485               0.999999996              -0.000006540              -0.000384825               0.999999996              -0.000004530              -0.000396217               0.999999996              -0.000001940              -0.000410332               0.999999996               0.000001055              -0.000426894               0.999999996               0.000004565              -0.000445591               0.999999996               0.000008151              -0.000466113               0.999999996               0.000011680              -0.000488224               0.999999996               0.000015485              -0.000511543               0.999999996               0.000019368              -0.000535832               0.999999996               0.000022672              -0.000560881               0.999999996               0.000024941              -0.000586424               0.999999996               0.000026147              -0.000612266               0.999999996               0.000026016              -0.000638301               0.999999996               0.000002456              -0.000378954               0.999999996              -0.000002087              -0.000379165               0.999999996              -0.000003876              -0.000381033               0.999999996              -0.000004257              -0.000386204               0.999999996              -0.000003759              -0.000394597               0.999999996              -0.000002829              -0.000405754               0.999999996              -0.000001650              -0.000419406               0.999999996              -0.000000144              -0.000435293               0.999999996               0.000001672              -0.000453354               0.999999996               0.000003465              -0.000473350               0.999999996               0.000005228              -0.000494964               0.999999996               0.000007197              -0.000517845               0.999999996               0.000009161              -0.000541860               0.999999996               0.000010790              -0.000566787               0.999999996               0.000011785              -0.000592324               0.999999996               0.000011989              -0.000618195               0.999999996               0.000011419              -0.000644156               0.999999996              -0.000000000              -0.000380847               0.999999996              -0.000000000              -0.000381923               0.999999996              -0.000000000              -0.000384267               0.999999996               0.000000000              -0.000389612               0.999999996              -0.000000000              -0.000398011               0.999999996               0.000000000              -0.000409129               0.999999996               0.000000000              -0.000422606               0.999999996               0.000000000              -0.000438211               0.999999996               0.000000000              -0.000456066               0.999999996               0.000000000              -0.000475873               0.999999996               0.000000000              -0.000497339               0.999999996              -0.000000000              -0.000520245               0.999999996              -0.000000000              -0.000544241               0.999999996              -0.000000000              -0.000569136               0.999999996              -0.000000000              -0.000594656               0.999999996              -0.000000000              -0.000620490               0.999999996              -0.000000000              -0.000646444               0.999999996               0.000020021              -0.000000000               0.999999996               0.000035478              -0.000000000               0.999999996               0.000043239              -0.000000000               0.999999996               0.000048007              -0.000000000               0.999999996               0.000051779               0.000000000               0.999999996               0.000055416              -0.000000000               0.999999996               0.000059275               0.000000000               0.999999996               0.000063583              -0.000000000               0.999999996               0.000068495              -0.000000000               0.999999996               0.000074032               0.000000000               0.999999996               0.000080111               0.000000000               0.999999996               0.000086800               0.000000000               0.999999996               0.000094143               0.000000000               0.999999996               0.000102106               0.000000000               0.999999996               0.000110640               0.000000000               0.999999996               0.000119739               0.000000000               0.999999996               0.000129377               0.000000000               0.999999996               0.000019904               0.000037973               0.999999996               0.000034720               0.000033768               0.999999996               0.000042101               0.000032762               0.999999996               0.000046684               0.000033542               0.999999996               0.000050357               0.000035326               0.999999996               0.000054023               0.000037785               0.999999996               0.000058017               0.000040737               0.999999996               0.000062484               0.000044100               0.999999996               0.000067511               0.000047735               0.999999996               0.000073114               0.000051474               0.999999996               0.000079282               0.000055433               0.999999996               0.000086065               0.000059564               0.999999996               0.000093508               0.000063829               0.999999996               0.000101560               0.000068155               0.999999996               0.000110206               0.000072475               0.999999996               0.000119408               0.000076713               0.999999996               0.000129089               0.000080703               0.999999996               0.000019552               0.000075509               0.999999996               0.000032519               0.000067102               0.999999996               0.000038861               0.000065258               0.999999996               0.000042993               0.000066911               0.999999996               0.000046596               0.000070653               0.999999996               0.000050397               0.000075722               0.999999996               0.000054636               0.000081692               0.999999996               0.000059403               0.000088426               0.999999996               0.000064785               0.000095647               0.999999996               0.000070735               0.000103166               0.999999996               0.000077263               0.000111069               0.999999996               0.000084411               0.000119383               0.999999996               0.000092194               0.000127954               0.999999996               0.000100563               0.000136680               0.999999996               0.000109481               0.000145361               0.999999996               0.000118898               0.000154006               0.999999996               0.000128801               0.000162396               0.999999996               0.000018956               0.000112145               0.999999996               0.000028939               0.000099634               0.999999996               0.000033833               0.000097259               0.999999996               0.000037507               0.000100102               0.999999996               0.000041112               0.000105988               0.999999996               0.000045173               0.000113782               0.999999996               0.000049897               0.000122889               0.999999996               0.000055217               0.000132963               0.999999996               0.000061172               0.000143831               0.999999996               0.000067821               0.000155102               0.999999996               0.000075099               0.000166933               0.999999996               0.000082986               0.000179393               0.999999996               0.000091462               0.000192268               0.999999996               0.000100440               0.000205335               0.999999996               0.000109910               0.000218482               0.999999996               0.000119861               0.000231773               0.999999996               0.000130364               0.000245305               0.999999996               0.000018070               0.000147446               0.999999996               0.000024253               0.000131122               0.999999996               0.000027678               0.000128591               0.999999996               0.000030930               0.000132936               0.999999996               0.000034751               0.000141165               0.999999996               0.000039344               0.000151790               0.999999996               0.000044692               0.000164021               0.999999996               0.000050879               0.000177514               0.999999996               0.000057850               0.000192011               0.999999996               0.000065563               0.000207163               0.999999996               0.000073941               0.000222916               0.999999996               0.000082899               0.000239419               0.999999996               0.000092360               0.000256511               0.999999996               0.000102297               0.000274002               0.999999996               0.000112726               0.000291876               0.999999996               0.000123733               0.000310267               0.999999996               0.000135424               0.000329392               0.999999996               0.000017006               0.000181048               0.999999996               0.000018869               0.000161393               0.999999996               0.000020910               0.000159133               0.999999996               0.000024076               0.000165163               0.999999996               0.000028462               0.000175865               0.999999996               0.000033860               0.000189306               0.999999996               0.000040302               0.000204722               0.999999996               0.000047659               0.000221663               0.999999996               0.000055820               0.000239829               0.999999996               0.000064783               0.000259005               0.999999996               0.000074466               0.000278787               0.999999996               0.000084749               0.000299381               0.999999996               0.000095577               0.000320758               0.999999996               0.000106921               0.000342765               0.999999996               0.000118878               0.000365543               0.999999996               0.000131508               0.000389167               0.999999996               0.000144734               0.000413870               0.999999996               0.000015875               0.000212647               0.999999996               0.000013113               0.000190298               0.999999996               0.000014100               0.000188658               0.999999996               0.000017648               0.000196546               0.999999996               0.000022957               0.000209693               0.999999996               0.000029516               0.000225950               0.999999996               0.000037209               0.000244729               0.999999996               0.000045879               0.000265208               0.999999996               0.000055507               0.000287186               0.999999996               0.000066027               0.000310362               0.999999996               0.000077321               0.000334228               0.999999996               0.000089228               0.000358920               0.999999996               0.000101769               0.000384599               0.999999996               0.000114886               0.000411227               0.999999996               0.000128587               0.000438850               0.999999996               0.000142732               0.000467379               0.999999996               0.000157037               0.000496497               0.999999996               0.000014615               0.000241963               0.999999996               0.000007328               0.000217768               0.999999996               0.000007847               0.000216956               0.999999996               0.000012199               0.000226708               0.999999996               0.000018680               0.000242302               0.999999996               0.000026536               0.000261549               0.999999996               0.000035631               0.000283721               0.999999996               0.000045874               0.000307898               0.999999996               0.000057259               0.000333715               0.999999996               0.000069521               0.000360952               0.999999996               0.000082465               0.000388990               0.999999996               0.000096012               0.000417908               0.999999996               0.000110078               0.000447930               0.999999996               0.000124592               0.000479065               0.999999996               0.000139403               0.000511147               0.999999996               0.000154250               0.000543853               0.999999996               0.000168872               0.000576476               0.999999996               0.000013439               0.000268468               0.999999996               0.000001863               0.000243738               0.999999996               0.000002547               0.000243876               0.999999996               0.000007956               0.000255425               0.999999996               0.000015766               0.000273492               0.999999996               0.000024996               0.000295843               0.999999996               0.000035723               0.000321456               0.999999996               0.000047731               0.000349514               0.999999996               0.000060847               0.000379365               0.999999996               0.000074627               0.000410559               0.999999996               0.000088868               0.000442728               0.999999996               0.000103538               0.000475858               0.999999996               0.000118619               0.000510219               0.999999996               0.000133989               0.000545543               0.999999996               0.000149501               0.000581588               0.999999996               0.000165034               0.000617824               0.999999996               0.000180421               0.000653795               0.999999996               0.000012678               0.000293104               0.999999996              -0.000001874               0.000270599               0.999999996              -0.000002722               0.000268295               0.999999996               0.000001642               0.000276896               0.999999996               0.000008455               0.000292051               0.999999996               0.000016715               0.000311578               0.999999996               0.000026268               0.000334398               0.999999996               0.000037096               0.000359920               0.999999996               0.000048794               0.000387429               0.999999996               0.000061030               0.000416383               0.999999996               0.000073554               0.000446312               0.999999996               0.000086254               0.000477018               0.999999996               0.000099163               0.000508539               0.999999996               0.000112218               0.000540949               0.999999996               0.000125524               0.000574220               0.999999996               0.000139213               0.000608046               0.999999996               0.000153262               0.000642162               0.999999996               0.000011611               0.000315277               0.999999996              -0.000004408               0.000296120               0.999999996              -0.000006725               0.000292813               0.999999996              -0.000003629               0.000299152               0.999999996               0.000002009               0.000311695               0.999999996               0.000009193               0.000328554               0.999999996               0.000017532               0.000348780               0.999999996               0.000026995               0.000371814               0.999999996               0.000037195               0.000397021               0.999999996               0.000047920               0.000423742               0.999999996               0.000058829               0.000451573               0.999999996               0.000069720               0.000480165               0.999999996               0.000080578               0.000509340               0.999999996               0.000091323               0.000539135               0.999999996               0.000102163               0.000569676               0.999999996               0.000113231               0.000600900               0.999999996               0.000124710               0.000632736               0.999999996               0.000010320               0.000334621               0.999999996              -0.000005755               0.000319701               0.999999996              -0.000009235               0.000316524               0.999999996              -0.000007428               0.000321441               0.999999996              -0.000003065               0.000331941               0.999999996               0.000002799               0.000346609               0.999999996               0.000009869               0.000364587               0.999999996               0.000017881               0.000385310               0.999999996               0.000026490               0.000408249               0.999999996               0.000035512               0.000432962               0.999999996               0.000044746               0.000458903               0.999999996               0.000054079               0.000485577               0.999999996               0.000063068               0.000512819               0.999999996               0.000071589               0.000540548               0.999999996               0.000079845               0.000568836               0.999999996               0.000088046               0.000597707               0.999999996               0.000096162               0.000627283               0.999999996               0.000008750               0.000350898               0.999999996              -0.000005995               0.000340609               0.999999996              -0.000010103               0.000338372               0.999999996              -0.000009437               0.000342654               0.999999996              -0.000006396               0.000351817               0.999999996              -0.000001844               0.000364825               0.999999996               0.000003823               0.000381000               0.999999996               0.000010256               0.000399911               0.999999996               0.000017142               0.000421043               0.999999996               0.000024293               0.000443941               0.999999996               0.000031810               0.000468189               0.999999996               0.000039358               0.000493416               0.999999996               0.000046567               0.000519261               0.999999996               0.000053171               0.000545505               0.999999996               0.000059154               0.000572128               0.999999996               0.000064440               0.000599244               0.999999996               0.000069036               0.000626946               0.999999996               0.000006911               0.000363813               0.999999996              -0.000005299               0.000357970               0.999999996              -0.000009346               0.000357179               0.999999996              -0.000009499               0.000361480               0.999999996              -0.000007579               0.000369996               0.999999996              -0.000004339               0.000381927               0.999999996              -0.000000180               0.000396839               0.999999996               0.000004486               0.000414385               0.999999996               0.000009651               0.000434132               0.999999996               0.000015048               0.000455628               0.999999996               0.000020557               0.000478570               0.999999996               0.000026161               0.000502769               0.999999996               0.000031690               0.000527713               0.999999996               0.000036585               0.000553125               0.999999996               0.000040579               0.000578918               0.999999996               0.000043488               0.000605045               0.999999996               0.000045116               0.000631529               0.999999996               0.000004798               0.000373222               0.999999996              -0.000003931               0.000371037               0.999999996              -0.000007168               0.000371779               0.999999996              -0.000007654               0.000376485               0.999999996              -0.000006540               0.000384825               0.999999996              -0.000004530               0.000396217               0.999999996              -0.000001940               0.000410332               0.999999996               0.000001055               0.000426894               0.999999996               0.000004565               0.000445591               0.999999996               0.000008151               0.000466113               0.999999996               0.000011680               0.000488224               0.999999996               0.000015485               0.000511543               0.999999996               0.000019368               0.000535832               0.999999996               0.000022672               0.000560881               0.999999996               0.000024941               0.000586424               0.999999996               0.000026147               0.000612266               0.999999996               0.000026016               0.000638301               0.999999996               0.000002456               0.000378954               0.999999996              -0.000002087               0.000379165               0.999999996              -0.000003876               0.000381033               0.999999996              -0.000004257               0.000386204               0.999999996              -0.000003759               0.000394597               0.999999996              -0.000002829               0.000405754               0.999999996              -0.000001650               0.000419406               0.999999996              -0.000000144               0.000435293               0.999999996               0.000001672               0.000453354               0.999999996               0.000003465               0.000473350               0.999999996               0.000005228               0.000494964               0.999999996               0.000007197               0.000517845               0.999999996               0.000009161               0.000541860               0.999999996               0.000010790               0.000566787               0.999999996               0.000011785               0.000592324               0.999999996               0.000011989               0.000618195               0.999999996               0.000011419               0.000644156               0.999999996               0.000000000               0.000380847               0.999999996              -0.000000000               0.000381923               0.999999996               0.000000000               0.000384267               0.999999996              -0.000000000               0.000389612               0.999999996              -0.000000000               0.000398011               0.999999996              -0.000000000               0.000409129               0.999999996              -0.000000000               0.000422606               0.999999996              -0.000000000               0.000438211               0.999999996               0.000000000               0.000456066               0.999999996              -0.000000000               0.000475873               0.999999996               0.000000000               0.000497339               0.999999996               0.000000000               0.000520245               0.999999996               0.000000000               0.000544241               0.999999996               0.000000000               0.000569136               0.999999996              -0.000000000               0.000594656               0.999999996              -0.000000000               0.000620490               0.999999996               0.000000000               0.000646444               0.999999996 </DataArray>
<DataArray type="Float64"                                    Name="stress"                                                      NumberOfComponents="10" format="ascii">
              0.000600277               0.007111916              -0.000000000              -0.000663884               0.002591910               0.001928025               0.000000000               0.000000000               0.000000000               0.000000000               0.000654898               0.005876632              -0.000000000              -0.000488991               0.002121855               0.001632864               0.000000000               0.000000000               0.000000000               0.000000000               0.000914886               0.004885914              -0.000000000              -0.000267656               0.001717840               0.001450184               0.000000000               0.000000000               0.000000000               0.000000000               0.000953439               0.004343854               0.000000000              -0.000185442               0.001509751               0.001324309               0.000000000               0.000000000               0.000000000               0.000000000               0.000905016               0.004020356               0.000000000              -0.000163163               0.001394493               0.001231330               0.000000000               0.000000000               0.000000000               0.000000000               0.000828412               0.003819246               0.000000000              -0.000166751               0.001328653               0.001161902               0.000000000               0.000000000               0.000000000               0.000000000               0.000745579               0.003693275               0.000000000              -0.000182067               0.001291768               0.001109702               0.000000000               0.000000000               0.000000000               0.000000000               0.000659301               0.003614457              -0.000000000              -0.000204569               0.001272997               0.001068428               0.000000000               0.000000000               0.000000000               0.000000000               0.000573157               0.003562629              -0.000000000              -0.000230394               0.001264329               0.001033935               0.000000000               0.000000000               0.000000000               0.000000000               0.000494413               0.003526630               0.000000000              -0.000255423               0.001260673               0.001005250               0.000000000               0.000000000               0.000000000               0.000000000               0.000420149               0.003505184               0.000000000              -0.000280591               0.001261914               0.000981322               0.000000000               0.000000000               0.000000000               0.000000000               0.000342492               0.003491981               0.000000000              -0.000308062               0.001266670               0.000958607               0.000000000               0.000000000               0.000000000               0.000000000               0.000266528               0.003484581               0.000000000              -0.000335624               0.001273390               0.000937766               0.000000000               0.000000000               0.000000000               0.000000000               0.000195943               0.003479996              -0.000000000              -0.000361520               0.001280494               0.000918974               0.000000000               0.000000000               0.000000000               0.000000000               0.000127962               0.003473836              -0.000000000              -0.000386243               0.001286682               0.000900439               0.000000000               0.000000000               0.000000000               0.000000000               0.000061483               0.003462098              -0.000000000              -0.000409705               0.001290589               0.000880884               0.000000000               0.000000000               0.000000000               0.000000000               0.000028861               0.003453018              -0.000000000              -0.000420803               0.001291262               0.000870459               0.000000000               0.000000000               0.000000000               0.000000000               0.000638700               0.006988992              -0.000533201              -0.000634110               0.002541011               0.001906901               0.000000000               0.000000000               0.000000000               0.000000000               0.000666376               0.005789215              -0.000337637              -0.000473760               0.002087639               0.001613879               0.000000000               0.000000000               0.000000000               0.000000000               0.000896422               0.004837270              -0.000135366              -0.000268500               0.001701907               0.001433407               0.000000000               0.000000000               0.000000000               0.000000000               0.000921890               0.004314958              -0.000042415              -0.000193661               0.001502858               0.001309198               0.000000000               0.000000000               0.000000000               0.000000000               0.000869322               0.004005780               0.000001087              -0.000174727               0.001393489               0.001218762               0.000000000               0.000000000               0.000000000               0.000000000               0.000790338               0.003813403               0.000021627              -0.000180298               0.001331221               0.001150923               0.000000000               0.000000000               0.000000000               0.000000000               0.000708205               0.003691421               0.000031763              -0.000195850               0.001295745               0.001099895               0.000000000               0.000000000               0.000000000               0.000000000               0.000626315               0.003614140               0.000036057              -0.000216899               0.001277001               0.001060102               0.000000000               0.000000000               0.000000000               0.000000000               0.000546477               0.003562847               0.000034931              -0.000240427               0.001267746               0.001027320               0.000000000               0.000000000               0.000000000               0.000000000               0.000472149               0.003528174               0.000034132              -0.000263965               0.001264035               0.001000069               0.000000000               0.000000000               0.000000000               0.000000000               0.000399838               0.003506865               0.000035107              -0.000288418               0.001265083               0.000976665               0.000000000               0.000000000               0.000000000               0.000000000               0.000325029               0.003495004               0.000034775              -0.000314989               0.001269986               0.000954997               0.000000000               0.000000000               0.000000000               0.000000000               0.000252280               0.003489172               0.000032695              -0.000341541               0.001276892               0.000935352               0.000000000               0.000000000               0.000000000               0.000000000               0.000184230               0.003486170               0.000028407              -0.000366684               0.001284273               0.000917589               0.000000000               0.000000000               0.000000000               0.000000000               0.000118676               0.003481554               0.000022325              -0.000390690               0.001290736               0.000900047               0.000000000               0.000000000               0.000000000               0.000000000               0.000057372               0.003474906               0.000012996              -0.000412848               0.001295906               0.000883059               0.000000000               0.000000000               0.000000000               0.000000000               0.000028914               0.003471626               0.000006792              -0.000423110               0.001298234               0.000875124               0.000000000               0.000000000               0.000000000               0.000000000               0.000740671               0.006632427              -0.001008162              -0.000551301               0.002394554               0.001843253               0.000000000               0.000000000               0.000000000               0.000000000               0.000693379               0.005538830              -0.000639645              -0.000432336               0.001990370               0.001558034               0.000000000               0.000000000               0.000000000               0.000000000               0.000841036               0.004701125              -0.000262863              -0.000272251               0.001657776               0.001385525               0.000000000               0.000000000               0.000000000               0.000000000               0.000831891               0.004239482              -0.000093455              -0.000217976               0.001485805               0.001267830               0.000000000               0.000000000               0.000000000               0.000000000               0.000770197               0.003966164              -0.000013874              -0.000206946               0.001391023               0.001184077               0.000000000               0.000000000               0.000000000               0.000000000               0.000692181               0.003794688               0.000024000              -0.000214768               0.001336472               0.001121705               0.000000000               0.000000000               0.000000000               0.000000000               0.000616737               0.003684280               0.000043097              -0.000229258               0.001304500               0.001075243               0.000000000               0.000000000               0.000000000               0.000000000               0.000542951               0.003610196               0.000052230              -0.000247667               0.001285942               0.001038275               0.000000000               0.000000000               0.000000000               0.000000000               0.000472116               0.003560782               0.000051776              -0.000268054               0.001276267               0.001008213               0.000000000               0.000000000               0.000000000               0.000000000               0.000406758               0.003527585               0.000049538              -0.000288413               0.001271988               0.000983574               0.000000000               0.000000000               0.000000000               0.000000000               0.000342481               0.003506872               0.000050679              -0.000309928               0.001272255               0.000962327               0.000000000               0.000000000               0.000000000               0.000000000               0.000277382               0.003496891               0.000050259              -0.000333092               0.001276649               0.000943557               0.000000000               0.000000000               0.000000000               0.000000000               0.000215058               0.003493518               0.000046142              -0.000356042               0.001283175               0.000927133               0.000000000               0.000000000               0.000000000               0.000000000               0.000156701               0.003492882               0.000038187              -0.000377847               0.001290231               0.000912385               0.000000000               0.000000000               0.000000000               0.000000000               0.000101492               0.003493930               0.000028700              -0.000398681               0.001297525               0.000898844               0.000000000               0.000000000               0.000000000               0.000000000               0.000049800               0.003499676               0.000016710              -0.000418783               0.001306141               0.000887358               0.000000000               0.000000000               0.000000000               0.000000000               0.000028182               0.003511203               0.000007575              -0.000428331               0.001313166               0.000884835               0.000000000               0.000000000               0.000000000               0.000000000               0.000878245               0.006085002              -0.001377332              -0.000431283               0.002172074               0.001740791               0.000000000               0.000000000               0.000000000               0.000000000               0.000723876               0.005162246              -0.000880851              -0.000373827               0.001845340               0.001471514               0.000000000               0.000000000               0.000000000               0.000000000               0.000755045               0.004500426              -0.000377420              -0.000279411               0.001593264               0.001313853               0.000000000               0.000000000               0.000000000               0.000000000               0.000704068               0.004130126              -0.000154997              -0.000252240               0.001460775               0.001208535               0.000000000               0.000000000               0.000000000               0.000000000               0.000635658               0.003904963              -0.000050297              -0.000249748               0.001384891               0.001135143               0.000000000               0.000000000               0.000000000               0.000000000               0.000561150               0.003757737               0.000000516              -0.000259285               0.001338995               0.001079709               0.000000000               0.000000000               0.000000000               0.000000000               0.000492614               0.003659163               0.000026388              -0.000272665               0.001310597               0.001037932               0.000000000               0.000000000               0.000000000               0.000000000               0.000431731               0.003592880               0.000038950              -0.000287210               0.001293351               0.001006141               0.000000000               0.000000000               0.000000000               0.000000000               0.000372064               0.003548435               0.000039176              -0.000304030               0.001284143               0.000980114               0.000000000               0.000000000               0.000000000               0.000000000               0.000316212               0.003519068               0.000035145              -0.000321303               0.001280112               0.000958809               0.000000000               0.000000000               0.000000000               0.000000000               0.000264675               0.003500184               0.000036795              -0.000338269               0.001279473               0.000941204               0.000000000               0.000000000               0.000000000               0.000000000               0.000214675               0.003490167               0.000038168              -0.000355767               0.001281966               0.000926200               0.000000000               0.000000000               0.000000000               0.000000000               0.000168748               0.003488149               0.000033896              -0.000372737               0.001286950               0.000914213               0.000000000               0.000000000               0.000000000               0.000000000               0.000126264               0.003492425               0.000025258              -0.000389203               0.001293864               0.000904661               0.000000000               0.000000000               0.000000000               0.000000000               0.000085043               0.003504846               0.000016459              -0.000406214               0.001303675               0.000897461               0.000000000               0.000000000               0.000000000               0.000000000               0.000043158               0.003527850               0.000009435              -0.000424796               0.001317537               0.000892741               0.000000000               0.000000000               0.000000000               0.000000000               0.000028223               0.003555071               0.000002678              -0.000433799               0.001329612               0.000895812               0.000000000               0.000000000               0.000000000               0.000000000               0.001016369               0.005411648              -0.001620019              -0.000295318               0.001902304               0.001606985               0.000000000               0.000000000               0.000000000               0.000000000               0.000745984               0.004708050              -0.001053635              -0.000308762               0.001672255               0.001363493               0.000000000               0.000000000               0.000000000               0.000000000               0.000654009               0.004262265              -0.000478978              -0.000287529               0.001516584               0.001229055               0.000000000               0.000000000               0.000000000               0.000000000               0.000566397               0.003992521              -0.000228233              -0.000286665               0.001426382               0.001139717               0.000000000               0.000000000               0.000000000               0.000000000               0.000494145               0.003818253              -0.000110883              -0.000291976               0.001370064               0.001078087               0.000000000               0.000000000               0.000000000               0.000000000               0.000430472               0.003696665              -0.000052388              -0.000300655               0.001332428               0.001031773               0.000000000               0.000000000               0.000000000               0.000000000               0.000372553               0.003612430              -0.000021462              -0.000311846               0.001308080               0.000996234               0.000000000               0.000000000               0.000000000               0.000000000               0.000320201               0.003556015              -0.000005032              -0.000324426               0.001293468               0.000969043               0.000000000               0.000000000               0.000000000               0.000000000               0.000271970               0.003519430              -0.000000351              -0.000337939               0.001285778               0.000947839               0.000000000               0.000000000               0.000000000               0.000000000               0.000229025               0.003500385              -0.000003177              -0.000351663               0.001284004               0.000932341               0.000000000               0.000000000               0.000000000               0.000000000               0.000191658               0.003487784              -0.000001564              -0.000364100               0.001283950               0.000919849               0.000000000               0.000000000               0.000000000               0.000000000               0.000159130               0.003481216               0.000002801              -0.000375477               0.001285553               0.000910076               0.000000000               0.000000000               0.000000000               0.000000000               0.000130587               0.003483266               0.000001899              -0.000386437               0.001289890               0.000903452               0.000000000               0.000000000               0.000000000               0.000000000               0.000102835               0.003495098              -0.000002722              -0.000398323               0.001297795               0.000899472               0.000000000               0.000000000               0.000000000               0.000000000               0.000072428               0.003518711              -0.000006528              -0.000412677               0.001310451               0.000897774               0.000000000               0.000000000               0.000000000               0.000000000               0.000037068               0.003553015              -0.000005545              -0.000430225               0.001327735               0.000897510               0.000000000               0.000000000               0.000000000               0.000000000               0.000026035               0.003585997              -0.000007858              -0.000438485               0.001341482               0.000902997               0.000000000               0.000000000               0.000000000               0.000000000               0.001130588               0.004681860              -0.001736084              -0.000161264               0.001614359               0.001453095               0.000000000               0.000000000               0.000000000               0.000000000               0.000756654               0.004221311              -0.001156618              -0.000243919               0.001488396               0.001244477               0.000000000               0.000000000               0.000000000               0.000000000               0.000549349               0.004004568              -0.000566998              -0.000294565               0.001433031               0.001138466               0.000000000               0.000000000               0.000000000               0.000000000               0.000437930               0.003834757              -0.000312499              -0.000315120               0.001383280               0.001068159               0.000000000               0.000000000               0.000000000               0.000000000               0.000371303               0.003707611              -0.000190733              -0.000324212               0.001343928               0.001019717               0.000000000               0.000000000               0.000000000               0.000000000               0.000319869               0.003612455              -0.000126260              -0.000331605               0.001314675               0.000983069               0.000000000               0.000000000               0.000000000               0.000000000               0.000276063               0.003551770              -0.000089867              -0.000340447               0.001297394               0.000956947               0.000000000               0.000000000               0.000000000               0.000000000               0.000238017               0.003511561              -0.000067433              -0.000349688               0.001287071               0.000937383               0.000000000               0.000000000               0.000000000               0.000000000               0.000202647               0.003487934              -0.000054772              -0.000359998               0.001282632               0.000922634               0.000000000               0.000000000               0.000000000               0.000000000               0.000170418               0.003477115              -0.000053719              -0.000370732               0.001282604               0.000911872               0.000000000               0.000000000               0.000000000               0.000000000               0.000144751               0.003471170              -0.000052949              -0.000379614               0.001283583               0.000903969               0.000000000               0.000000000               0.000000000               0.000000000               0.000123615               0.003469208              -0.000045994              -0.000387295               0.001285489               0.000898195               0.000000000               0.000000000               0.000000000               0.000000000               0.000105898               0.003475929              -0.000042033              -0.000394778               0.001290224               0.000895446               0.000000000               0.000000000               0.000000000               0.000000000               0.000086315               0.003492717              -0.000039617              -0.000404220               0.001298968               0.000894747               0.000000000               0.000000000               0.000000000               0.000000000               0.000060185               0.003517251              -0.000034364              -0.000417086               0.001311434               0.000894348               0.000000000               0.000000000               0.000000000               0.000000000               0.000031205               0.003543985              -0.000022093              -0.000431295               0.001325082               0.000893786               0.000000000               0.000000000               0.000000000               0.000000000               0.000020387               0.003561800              -0.000015306              -0.000437579               0.001333114               0.000895536               0.000000000               0.000000000               0.000000000               0.000000000               0.001197477               0.003952376              -0.001735064              -0.000044995               0.001332444               0.001287448               0.000000000               0.000000000               0.000000000               0.000000000               0.000751556               0.003738317              -0.001198149              -0.000185457               0.001307912               0.001122455               0.000000000               0.000000000               0.000000000               0.000000000               0.000455596               0.003740232              -0.000645300              -0.000296680               0.001345625               0.001048945               0.000000000               0.000000000               0.000000000               0.000000000               0.000335713               0.003661917              -0.000402143              -0.000331846               0.001331242               0.000999396               0.000000000               0.000000000               0.000000000               0.000000000               0.000280832               0.003581036              -0.000278035              -0.000342317               0.001307772               0.000965456               0.000000000               0.000000000               0.000000000               0.000000000               0.000246133               0.003521864              -0.000204663              -0.000347932               0.001289920               0.000941988               0.000000000               0.000000000               0.000000000               0.000000000               0.000216227               0.003487866              -0.000159118              -0.000354897               0.001280910               0.000926012               0.000000000               0.000000000               0.000000000               0.000000000               0.000188317               0.003466160              -0.000131949              -0.000362650               0.001276258               0.000913608               0.000000000               0.000000000               0.000000000               0.000000000               0.000162759               0.003454748              -0.000114361              -0.000370808               0.001275174               0.000904366               0.000000000               0.000000000               0.000000000               0.000000000               0.000140438               0.003450288              -0.000109479              -0.000378621               0.001276292               0.000897671               0.000000000               0.000000000               0.000000000               0.000000000               0.000122878               0.003449771              -0.000107266              -0.000385141               0.001278292               0.000893151               0.000000000               0.000000000               0.000000000               0.000000000               0.000105629               0.003451511              -0.000095902              -0.000391827               0.001281101               0.000889274               0.000000000               0.000000000               0.000000000               0.000000000               0.000086279               0.003458164              -0.000080907              -0.000399915               0.001286015               0.000886100               0.000000000               0.000000000               0.000000000               0.000000000               0.000064719               0.003470874              -0.000064711              -0.000409589               0.001293476               0.000883887               0.000000000               0.000000000               0.000000000               0.000000000               0.000039624               0.003482419              -0.000045037              -0.000420443               0.001300942               0.000880500               0.000000000               0.000000000               0.000000000               0.000000000               0.000018148               0.003484580              -0.000023677              -0.000428766               0.001304437               0.000875671               0.000000000               0.000000000               0.000000000               0.000000000               0.000004953               0.003474950              -0.000010468              -0.000432510               0.001302475               0.000869965               0.000000000               0.000000000               0.000000000               0.000000000               0.001209085               0.003257170              -0.001637409               0.000046258               0.001070292               0.001116551               0.000000000               0.000000000               0.000000000               0.000000000               0.000731087               0.003285285              -0.001193448              -0.000136504               0.001140585               0.001004081               0.000000000               0.000000000               0.000000000               0.000000000               0.000384971               0.003483214              -0.000717487              -0.000291038               0.001258072               0.000967035               0.000000000               0.000000000               0.000000000               0.000000000               0.000271185               0.003484424              -0.000488292              -0.000333858               0.001272749               0.000938891               0.000000000               0.000000000               0.000000000               0.000000000               0.000232740               0.003453493              -0.000358551              -0.000344409               0.001265956               0.000921547               0.000000000               0.000000000               0.000000000               0.000000000               0.000211409               0.003432923              -0.000275567              -0.000349836               0.001260908               0.000911072               0.000000000               0.000000000               0.000000000               0.000000000               0.000190295               0.003422266              -0.000222504              -0.000356422               0.001259551               0.000903130               0.000000000               0.000000000               0.000000000               0.000000000               0.000168401               0.003419814              -0.000192558              -0.000364326               0.001261369               0.000897043               0.000000000               0.000000000               0.000000000               0.000000000               0.000148469               0.003419992              -0.000170073              -0.000371822               0.001263927               0.000892104               0.000000000               0.000000000               0.000000000               0.000000000               0.000131278               0.003418565              -0.000154951              -0.000378090               0.001265540               0.000887450               0.000000000               0.000000000               0.000000000               0.000000000               0.000110870               0.003417880              -0.000142462              -0.000385658               0.001267835               0.000882177               0.000000000               0.000000000               0.000000000               0.000000000               0.000086218               0.003418863              -0.000119871              -0.000395025               0.001271285               0.000876259               0.000000000               0.000000000               0.000000000               0.000000000               0.000058726               0.003421020              -0.000090163              -0.000405604               0.001275530               0.000869926               0.000000000               0.000000000               0.000000000               0.000000000               0.000030610               0.003419343              -0.000058648              -0.000415938               0.001278415               0.000862478               0.000000000               0.000000000               0.000000000               0.000000000               0.000007343               0.003409091              -0.000028451              -0.000423382               0.001277480               0.000854098               0.000000000               0.000000000               0.000000000               0.000000000              -0.000003443               0.003386611              -0.000007639              -0.000424616               0.001270398               0.000845781               0.000000000               0.000000000               0.000000000               0.000000000              -0.000010067               0.003363472               0.000002270              -0.000424208               0.001262549               0.000838341               0.000000000               0.000000000               0.000000000               0.000000000               0.001187628               0.002647589              -0.001478131               0.000114409               0.000844384               0.000958793               0.000000000               0.000000000               0.000000000               0.000000000               0.000720325               0.002881595              -0.001165416              -0.000090079               0.000990548               0.000900469               0.000000000               0.000000000               0.000000000               0.000000000               0.000358299               0.003249279              -0.000796968              -0.000271798               0.001173681               0.000901884               0.000000000               0.000000000               0.000000000               0.000000000               0.000253420               0.003331177              -0.000580129              -0.000321364               0.001217502               0.000896138               0.000000000               0.000000000               0.000000000               0.000000000               0.000222315               0.003350764              -0.000440649              -0.000335476               0.001228736               0.000893259               0.000000000               0.000000000               0.000000000               0.000000000               0.000206364               0.003362079              -0.000347970              -0.000342873               0.001234973               0.000892100               0.000000000               0.000000000               0.000000000               0.000000000               0.000188668               0.003373449              -0.000287284              -0.000350930               0.001241448               0.000890518               0.000000000               0.000000000               0.000000000               0.000000000               0.000175017               0.003389274              -0.000250048              -0.000358027               0.001249089               0.000891062               0.000000000               0.000000000               0.000000000               0.000000000               0.000160478               0.003399671              -0.000220402              -0.000364779               0.001254805               0.000890026               0.000000000               0.000000000               0.000000000               0.000000000               0.000143098               0.003398044              -0.000192198              -0.000371093               0.001256368               0.000885275               0.000000000               0.000000000               0.000000000               0.000000000               0.000117226               0.003391179              -0.000164301              -0.000379937               0.001257027               0.000877091               0.000000000               0.000000000               0.000000000               0.000000000               0.000083664               0.003388437              -0.000130044              -0.000392180               0.001260194               0.000868015               0.000000000               0.000000000               0.000000000               0.000000000               0.000045579               0.003383653              -0.000090577              -0.000405863               0.001263161               0.000857297               0.000000000               0.000000000               0.000000000               0.000000000               0.000006161               0.003369193              -0.000051384              -0.000418838               0.001262666               0.000843828               0.000000000               0.000000000               0.000000000               0.000000000              -0.000027825               0.003341660              -0.000019289              -0.000428141               0.001256589               0.000828448               0.000000000               0.000000000               0.000000000               0.000000000              -0.000047780               0.003300220              -0.000000496              -0.000430444               0.001243544               0.000813100               0.000000000               0.000000000               0.000000000               0.000000000              -0.000052370               0.003274238               0.000005857              -0.000428917               0.001234374               0.000805457               0.000000000               0.000000000               0.000000000               0.000000000               0.001122358               0.002064661              -0.001289915               0.000162799               0.000633946               0.000796745               0.000000000               0.000000000               0.000000000               0.000000000               0.000724258               0.002417757              -0.001127033              -0.000030624               0.000816119               0.000785494               0.000000000               0.000000000               0.000000000               0.000000000               0.000382752               0.002909446              -0.000890628              -0.000220149               0.001043188               0.000823039               0.000000000               0.000000000               0.000000000               0.000000000               0.000280410               0.003091757              -0.000693034              -0.000281316               0.001124347               0.000843031               0.000000000               0.000000000               0.000000000               0.000000000               0.000244693               0.003171493              -0.000546021              -0.000304676               0.001158713               0.000854036               0.000000000               0.000000000               0.000000000               0.000000000               0.000230450               0.003221119              -0.000442113              -0.000316220               0.001179102               0.000862882               0.000000000               0.000000000               0.000000000               0.000000000               0.000217572               0.003268374              -0.000370969              -0.000326957               0.001198433               0.000871476               0.000000000               0.000000000               0.000000000               0.000000000               0.000206554               0.003312645              -0.000320430              -0.000336622               0.001216411               0.000879789               0.000000000               0.000000000               0.000000000               0.000000000               0.000190331               0.003339636              -0.000277377              -0.000346080               0.001228561               0.000882481               0.000000000               0.000000000               0.000000000               0.000000000               0.000168646               0.003345304              -0.000237068              -0.000354920               0.001233397               0.000878477               0.000000000               0.000000000               0.000000000               0.000000000               0.000138955               0.003335860              -0.000197388              -0.000364873               0.001233567               0.000868693               0.000000000               0.000000000               0.000000000               0.000000000               0.000100728               0.003323525              -0.000156674              -0.000377667               0.001233720               0.000856053               0.000000000               0.000000000               0.000000000               0.000000000               0.000055191               0.003310480              -0.000111981              -0.000393112               0.001234520               0.000841407               0.000000000               0.000000000               0.000000000               0.000000000               0.000006082               0.003298547              -0.000067690              -0.000410037               0.001236183               0.000826147               0.000000000               0.000000000               0.000000000               0.000000000              -0.000042173               0.003279626              -0.000032667              -0.000425767               0.001235120               0.000809353               0.000000000               0.000000000               0.000000000               0.000000000              -0.000084450               0.003250366              -0.000009972              -0.000437963               0.001229432               0.000791469               0.000000000               0.000000000               0.000000000               0.000000000              -0.000105731               0.003230128               0.000000300              -0.000443414               0.001224503               0.000781089               0.000000000               0.000000000               0.000000000               0.000000000               0.000991641               0.001524584              -0.001076568               0.000181290               0.000447759               0.000629049               0.000000000               0.000000000               0.000000000               0.000000000               0.000723585               0.001957619              -0.001059273               0.000026640               0.000643652               0.000670293               0.000000000               0.000000000               0.000000000               0.000000000               0.000442126               0.002534208              -0.000960140              -0.000150979               0.000895054               0.000744074               0.000000000               0.000000000               0.000000000               0.000000000               0.000342508               0.002807527              -0.000800254              -0.000222501               0.001010000               0.000787499               0.000000000               0.000000000               0.000000000               0.000000000               0.000298636               0.002951002              -0.000657971              -0.000256887               0.001069286               0.000812400               0.000000000               0.000000000               0.000000000               0.000000000               0.000277206               0.003049822              -0.000547560              -0.000277275               0.001109022               0.000831747               0.000000000               0.000000000               0.000000000               0.000000000               0.000264856               0.003139517              -0.000466354              -0.000293118               0.001144201               0.000851083               0.000000000               0.000000000               0.000000000               0.000000000               0.000249954               0.003215121              -0.000401434              -0.000308157               0.001174415               0.000866258               0.000000000               0.000000000               0.000000000               0.000000000               0.000228741               0.003264089              -0.000345556              -0.000322232               0.001195430               0.000873197               0.000000000               0.000000000               0.000000000               0.000000000               0.000203666               0.003288600              -0.000296355              -0.000334699               0.001207755               0.000873056               0.000000000               0.000000000               0.000000000               0.000000000               0.000175899               0.003292707              -0.000249938              -0.000345625               0.001212767               0.000867141               0.000000000               0.000000000               0.000000000               0.000000000               0.000142849               0.003280971              -0.000204387              -0.000356552               0.001212497               0.000855945               0.000000000               0.000000000               0.000000000               0.000000000               0.000099109               0.003264350              -0.000155265              -0.000370877               0.001211731               0.000840854               0.000000000               0.000000000               0.000000000               0.000000000               0.000046250               0.003252436              -0.000106062              -0.000389210               0.001213871               0.000824661               0.000000000               0.000000000               0.000000000               0.000000000              -0.000013929               0.003241261              -0.000063139              -0.000410380               0.001217203               0.000806823               0.000000000               0.000000000               0.000000000               0.000000000              -0.000079383               0.003227811              -0.000028165              -0.000433244               0.001220341               0.000787097               0.000000000               0.000000000               0.000000000               0.000000000              -0.000127318               0.003210171              -0.000006735              -0.000449014               0.001219718               0.000770703               0.000000000               0.000000000               0.000000000               0.000000000               0.000798744               0.001053945              -0.000845184               0.000167784               0.000295383               0.000463167               0.000000000               0.000000000               0.000000000               0.000000000               0.000694375               0.001521489              -0.000946284               0.000070203               0.000483756               0.000553959               0.000000000               0.000000000               0.000000000               0.000000000               0.000512699               0.002122958              -0.000966078              -0.000073109               0.000732015               0.000658906               0.000000000               0.000000000               0.000000000               0.000000000               0.000429486               0.002461740              -0.000856538              -0.000146661               0.000869458               0.000722798               0.000000000               0.000000000               0.000000000               0.000000000               0.000382210               0.002671315              -0.000733445              -0.000190586               0.000953958               0.000763372               0.000000000               0.000000000               0.000000000               0.000000000               0.000353720               0.002827661              -0.000629040              -0.000220812               0.001016148               0.000795336               0.000000000               0.000000000               0.000000000               0.000000000               0.000335346               0.002961141              -0.000545821              -0.000244388               0.001068500               0.000824112               0.000000000               0.000000000               0.000000000               0.000000000               0.000314556               0.003072253              -0.000473683              -0.000266073               0.001112765               0.000846692               0.000000000               0.000000000               0.000000000               0.000000000               0.000287496               0.003156135              -0.000409245              -0.000286705               0.001147603               0.000860898               0.000000000               0.000000000               0.000000000               0.000000000               0.000254661               0.003210772              -0.000353665              -0.000305848               0.001172196               0.000866348               0.000000000               0.000000000               0.000000000               0.000000000               0.000222169               0.003233858              -0.000305737              -0.000320918               0.001184915               0.000863997               0.000000000               0.000000000               0.000000000               0.000000000               0.000189292               0.003235822              -0.000257113              -0.000333493               0.001189761               0.000856268               0.000000000               0.000000000               0.000000000               0.000000000               0.000150647               0.003228803              -0.000202344              -0.000347107               0.001191959               0.000844852               0.000000000               0.000000000               0.000000000               0.000000000               0.000102721               0.003220954              -0.000147767              -0.000364098               0.001195007               0.000830909               0.000000000               0.000000000               0.000000000               0.000000000               0.000042549               0.003214905              -0.000097180              -0.000385906               0.001200260               0.000814353               0.000000000               0.000000000               0.000000000               0.000000000              -0.000031389               0.003213042              -0.000047783              -0.000413400               0.001208803               0.000795403               0.000000000               0.000000000               0.000000000               0.000000000              -0.000092125               0.003200476              -0.000015263              -0.000434605               0.001211683               0.000777078               0.000000000               0.000000000               0.000000000               0.000000000               0.000558569               0.000672817              -0.000615276               0.000125360               0.000182483               0.000307843               0.000000000               0.000000000               0.000000000               0.000000000               0.000634870               0.001124448              -0.000793299               0.000097518               0.000342306               0.000439824               0.000000000               0.000000000               0.000000000               0.000000000               0.000584507               0.001701675              -0.000899479               0.000006479               0.000565059               0.000571538               0.000000000               0.000000000               0.000000000               0.000000000               0.000535613               0.002082961              -0.000841378              -0.000059516               0.000714152               0.000654636               0.000000000               0.000000000               0.000000000               0.000000000               0.000494324               0.002349350              -0.000749062              -0.000108298               0.000819208               0.000710910               0.000000000               0.000000000               0.000000000               0.000000000               0.000461668               0.002557743              -0.000660925              -0.000146593               0.000901437               0.000754844               0.000000000               0.000000000               0.000000000               0.000000000               0.000432655               0.002736865              -0.000582171              -0.000179862               0.000972233               0.000792371               0.000000000               0.000000000               0.000000000               0.000000000               0.000400782               0.002888658              -0.000510509              -0.000210789               0.001033139               0.000822350               0.000000000               0.000000000               0.000000000               0.000000000               0.000367852               0.003007881              -0.000446020              -0.000238040               0.001081964               0.000843923               0.000000000               0.000000000               0.000000000               0.000000000               0.000330453               0.003093496              -0.000391008              -0.000262767               0.001118744               0.000855977               0.000000000               0.000000000               0.000000000               0.000000000               0.000290520               0.003150617              -0.000343930              -0.000284881               0.001145156               0.000860274               0.000000000               0.000000000               0.000000000               0.000000000               0.000251909               0.003183258              -0.000296948              -0.000303441               0.001162222               0.000858782               0.000000000               0.000000000               0.000000000               0.000000000               0.000216749               0.003194699              -0.000244919              -0.000318056               0.001170908               0.000852852               0.000000000               0.000000000               0.000000000               0.000000000               0.000178327               0.003196957              -0.000189352              -0.000332746               0.001176557               0.000843811               0.000000000               0.000000000               0.000000000               0.000000000               0.000128992               0.003200334              -0.000131167              -0.000351669               0.001183990               0.000832321               0.000000000               0.000000000               0.000000000               0.000000000               0.000063040               0.003207514              -0.000067904              -0.000377298               0.001194927               0.000817628               0.000000000               0.000000000               0.000000000               0.000000000               0.000005662               0.003199820              -0.000028477              -0.000397853               0.001199214               0.000801361               0.000000000               0.000000000               0.000000000               0.000000000               0.000301726               0.000389512              -0.000408154               0.000064457               0.000108350               0.000172807               0.000000000               0.000000000               0.000000000               0.000000000               0.000551550               0.000788211              -0.000610546               0.000108303               0.000226633               0.000334936               0.000000000               0.000000000               0.000000000               0.000000000               0.000647493               0.001310226              -0.000758572               0.000079030               0.000410394               0.000489424               0.000000000               0.000000000               0.000000000               0.000000000               0.000651777               0.001714234              -0.000744154               0.000030136               0.000561360               0.000591496               0.000000000               0.000000000               0.000000000               0.000000000               0.000627981               0.002021814              -0.000685663              -0.000017235               0.000679676               0.000662441               0.000000000               0.000000000               0.000000000               0.000000000               0.000590929               0.002269655              -0.000618267              -0.000062109               0.000777247               0.000715138               0.000000000               0.000000000               0.000000000               0.000000000               0.000549328               0.002485717              -0.000549861              -0.000104717               0.000863470               0.000758753               0.000000000               0.000000000               0.000000000               0.000000000               0.000507657               0.002671441              -0.000487263              -0.000143558               0.000938324               0.000794766               0.000000000               0.000000000               0.000000000               0.000000000               0.000470869               0.002822953              -0.000431965              -0.000176293               0.000999739               0.000823446               0.000000000               0.000000000               0.000000000               0.000000000               0.000431811               0.002943301              -0.000380995              -0.000205983               0.001049752               0.000843768               0.000000000               0.000000000               0.000000000               0.000000000               0.000388135               0.003040682              -0.000338212              -0.000234534               0.001091728               0.000857194               0.000000000               0.000000000               0.000000000               0.000000000               0.000349591               0.003109127              -0.000301050              -0.000257544               0.001122213               0.000864670               0.000000000               0.000000000               0.000000000               0.000000000               0.000317914               0.003148099              -0.000257930              -0.000274294               0.001140787               0.000866493               0.000000000               0.000000000               0.000000000               0.000000000               0.000287238               0.003172829              -0.000204672              -0.000288889               0.001153895               0.000865007               0.000000000               0.000000000               0.000000000               0.000000000               0.000249680               0.003189563              -0.000144999              -0.000305065               0.001164865               0.000859801               0.000000000               0.000000000               0.000000000               0.000000000               0.000204856               0.003202016              -0.000077481              -0.000323430               0.001175138               0.000851708               0.000000000               0.000000000               0.000000000               0.000000000               0.000167484               0.003200266              -0.000037582              -0.000337226               0.001179153               0.000841927               0.000000000               0.000000000               0.000000000               0.000000000               0.000068932               0.000200050              -0.000239096               0.000000843               0.000066402               0.000067244               0.000000000               0.000000000               0.000000000               0.000000000               0.000466016               0.000534224              -0.000411873               0.000107977               0.000142080               0.000250057               0.000000000               0.000000000               0.000000000               0.000000000               0.000697990               0.000991353              -0.000550158               0.000137826               0.000284506               0.000422331               0.000000000               0.000000000               0.000000000               0.000000000               0.000758786               0.001399586              -0.000561306               0.000109595               0.000429992               0.000539587               0.000000000               0.000000000               0.000000000               0.000000000               0.000752293               0.001729436              -0.000529912               0.000065929               0.000554496               0.000620426               0.000000000               0.000000000               0.000000000               0.000000000               0.000714488               0.002000869              -0.000483045               0.000017824               0.000661008               0.000678832               0.000000000               0.000000000               0.000000000               0.000000000               0.000666286               0.002238499              -0.000432725              -0.000029955               0.000756144               0.000726189               0.000000000               0.000000000               0.000000000               0.000000000               0.000622464               0.002449811              -0.000388526              -0.000072803               0.000840863               0.000768060               0.000000000               0.000000000               0.000000000               0.000000000               0.000581935               0.002633504              -0.000347354              -0.000110962               0.000914813               0.000803851               0.000000000               0.000000000               0.000000000               0.000000000               0.000541466               0.002790559              -0.000305606              -0.000145770               0.000978767               0.000832997               0.000000000               0.000000000               0.000000000               0.000000000               0.000500205               0.002917749              -0.000275282              -0.000177141               0.001031620               0.000854479               0.000000000               0.000000000               0.000000000               0.000000000               0.000461440               0.003014523              -0.000252580              -0.000203775               0.001072756               0.000868981               0.000000000               0.000000000               0.000000000               0.000000000               0.000427812               0.003089592              -0.000220521              -0.000225769               0.001105110               0.000879341               0.000000000               0.000000000               0.000000000               0.000000000               0.000400867               0.003144323              -0.000174302              -0.000242715               0.001129002               0.000886287               0.000000000               0.000000000               0.000000000               0.000000000               0.000378144               0.003178376              -0.000122135              -0.000255492               0.001144612               0.000889120               0.000000000               0.000000000               0.000000000               0.000000000               0.000360811               0.003197986              -0.000065264              -0.000264444               0.001154133               0.000889689               0.000000000               0.000000000               0.000000000               0.000000000               0.000352752               0.003203675              -0.000033678              -0.000268177               0.001157273               0.000889096               0.000000000               0.000000000               0.000000000               0.000000000              -0.000093178               0.000092556              -0.000107122              -0.000046511               0.000046355              -0.000000156               0.000000000               0.000000000               0.000000000               0.000000000               0.000403816               0.000376071              -0.000206949               0.000104421               0.000090549               0.000194970               0.000000000               0.000000000               0.000000000               0.000000000               0.000731491               0.000782588              -0.000290367               0.000176484               0.000202032               0.000378516               0.000000000               0.000000000               0.000000000               0.000000000               0.000833770               0.001185274              -0.000303401               0.000164503               0.000340253               0.000504756               0.000000000               0.000000000               0.000000000               0.000000000               0.000837432               0.001521430              -0.000289789               0.000123857               0.000465853               0.000589710               0.000000000               0.000000000               0.000000000               0.000000000               0.000803163               0.001802964              -0.000264994               0.000075815               0.000575710               0.000651525               0.000000000               0.000000000               0.000000000               0.000000000               0.000757407               0.002049848              -0.000238903               0.000027796               0.000674011               0.000701807               0.000000000               0.000000000               0.000000000               0.000000000               0.000711296               0.002279141              -0.000216434              -0.000018157               0.000765758               0.000747601               0.000000000               0.000000000               0.000000000               0.000000000               0.000664907               0.002491085              -0.000193690              -0.000062046               0.000851035               0.000788990               0.000000000               0.000000000               0.000000000               0.000000000               0.000622814               0.002674273              -0.000170160              -0.000100728               0.000924991               0.000824263               0.000000000               0.000000000               0.000000000               0.000000000               0.000582991               0.002823196              -0.000155594              -0.000134278               0.000985815               0.000851538               0.000000000               0.000000000               0.000000000               0.000000000               0.000539738               0.002942588              -0.000146110              -0.000165421               0.001035993               0.000870572               0.000000000               0.000000000               0.000000000               0.000000000               0.000499938               0.003041114              -0.000128908              -0.000192662               0.001077915               0.000885253               0.000000000               0.000000000               0.000000000               0.000000000               0.000474468               0.003116074              -0.000101877              -0.000211583               0.001109209               0.000897625               0.000000000               0.000000000               0.000000000               0.000000000               0.000468872               0.003165975              -0.000069504              -0.000219919               0.001128621               0.000908702               0.000000000               0.000000000               0.000000000               0.000000000               0.000483146               0.003194929              -0.000035744              -0.000218186               0.001137694               0.000919509               0.000000000               0.000000000               0.000000000               0.000000000               0.000503908               0.003207601              -0.000018942              -0.000211984               0.001139851               0.000927867               0.000000000               0.000000000               0.000000000               0.000000000              -0.000150417               0.000059704              -0.000000000              -0.000063869               0.000041191              -0.000022679               0.000000000               0.000000000               0.000000000               0.000000000               0.000381647               0.000324788              -0.000000000               0.000102518               0.000074089               0.000176607               0.000000000               0.000000000               0.000000000               0.000000000               0.000742727               0.000710604               0.000000000               0.000189695               0.000173634               0.000363329               0.000000000               0.000000000               0.000000000               0.000000000               0.000859778               0.001107173               0.000000000               0.000184018               0.000307714               0.000491733               0.000000000               0.000000000               0.000000000               0.000000000               0.000867964               0.001445312               0.000000000               0.000144821               0.000433492               0.000578313               0.000000000               0.000000000               0.000000000               0.000000000               0.000836740               0.001730078               0.000000000               0.000097517               0.000544181               0.000641698               0.000000000               0.000000000               0.000000000               0.000000000               0.000793300               0.001978001              -0.000000000               0.000050237               0.000642581               0.000692818               0.000000000               0.000000000               0.000000000               0.000000000               0.000744650               0.002214601               0.000000000               0.000002419               0.000737387               0.000739805               0.000000000               0.000000000               0.000000000               0.000000000               0.000694332               0.002437964              -0.000000000              -0.000044371               0.000827437               0.000783066               0.000000000               0.000000000               0.000000000               0.000000000               0.000650524               0.002630214              -0.000000000              -0.000084830               0.000905006               0.000820176               0.000000000               0.000000000               0.000000000               0.000000000               0.000610951               0.002791664               0.000000000              -0.000119851               0.000970496               0.000850645               0.000000000               0.000000000               0.000000000               0.000000000               0.000565185               0.002920077              -0.000000000              -0.000153065               0.001024371               0.000871306               0.000000000               0.000000000               0.000000000               0.000000000               0.000522848               0.003021980              -0.000000000              -0.000181679               0.001067876               0.000886197               0.000000000               0.000000000               0.000000000               0.000000000               0.000498536               0.003101730              -0.000000000              -0.000200765               0.001100821               0.000900056               0.000000000               0.000000000               0.000000000               0.000000000               0.000500303               0.003156339              -0.000000000              -0.000206928               0.001121079               0.000914151               0.000000000               0.000000000               0.000000000               0.000000000               0.000531400               0.003191271               0.000000000              -0.000199634               0.001130291               0.000930657               0.000000000               0.000000000               0.000000000               0.000000000               0.000566072               0.003209036               0.000000000              -0.000188852               0.001132619               0.000943766               0.000000000               0.000000000               0.000000000               0.000000000               0.000000000               0.000000000               0.000000000               0.000000000               0.000000000               0.000000000               0.000000000               0.000000000               0.000000000               0.000000000               0.000000000               0.000000000               0.000000000               0.000000000               0.000000000               0.000000000               0.000000000               0.000000000               0.000000000               0.000000000               0.000000000               0.000000000               0.000000000               0.000000000               0.000000000               0.000000000               0.000000000               0.000000000               0.000000000               0.000000000               0.000000000               0.000000000               0.000000000               0.000000000               0.000000000               0.000000000               0.000000000               0.000000000               0.000000000               0.000000000               0.000000000               0.000000000               0.000000000               0.000000000               0.000000000               0.000000000               0.000000000               0.000000000               0.000000000               0.000000000               0.000000000               0.000000000               0.000000000               0.000000000               0.000000000               0.000000000               0.000000000               0.000000000               0.000000000               0.000000000               0.000000000               0.000000000               0.000000000               0.000000000               0.000000000               0.000000000               0.000000000               0.000000000               0.000000000               0.000000000               0.000000000               0.000000000               0.000000000               0.000000000               0.000000000               0.000000000               0.000000000               0.000000000               0.000000000               0.000000000               0.000000000               0.000000000               0.000000000               0.000000000               0.000000000               0.000000000               0.000000000               0.000000000               0.000000000               0.000000000               0.000000000               0.000000000               0.000000000               0.000000000               0.000000000               0.000000000               0.000000000               0.000000000               0.000000000               0.000000000               0.000000000               0.000000000               0.000000000               0.000000000               0.000000000               0.000000000               0.000000000               0.000000000               0.000000000               0.000000000               0.000000000               0.000000000               0.000000000               0.000000000               0.000000000               0.000000000               0.000000000               0.000000000               0.000000000               0.000000000               0.000000000               0.000000000               0.000000000               0.000000000               0.000000000               0.000000000               0.000000000               0.000000000               0.000000000               0.000000000               0.000000000               0.000000000               0.000000000               0.000000000               0.000000000               0.000000000               0.000000000               0.000000000               0.000000000               0.000000000               0.000000000               0.000000000               0.000000000               0.000000000               0.000000000               0.000000000               0.000000000               0.000000000               0.000000000               0.000000000               0.000000000               0.000000000               0.000000000               0.000000000               0.000000000               0.000000000               0.000000000               0.000000000               0.000000000               0.000000000               0.000000000               0.000000000               0.000000000               0.000000000               0.000000000               0.000000000               0.000000000               0.000000000               0.000000000               0.000000000               0.000638700               0.006988992               0.000533201              -0.000634110               0.002541011               0.001906901               0.000000000               0.000000000               0.000000000               0.000000000               0.000666376               0.005789215               0.000337637              -0.000473760               0.002087639               0.001613879               0.000000000               0.000000000               0.000000000               0.000000000               0.000896422               0.004837270               0.000135366              -0.000268500               0.001701907               0.001433407               0.000000000               0.000000000               0.000000000               0.000000000               0.000921890               0.004314958               0.000042415              -0.000193661               0.001502858               0.001309198               0.000000000               0.000000000               0.000000000               0.000000000               0.000869322               0.004005780              -0.000001087              -0.000174727               0.001393489               0.001218762               0.000000000               0.000000000               0.000000000               0.000000000               0.000790338               0.003813403              -0.000021627              -0.000180298               0.001331221               0.001150923               0.000000000               0.000000000               0.000000000               0.000000000               0.000708205               0.003691421              -0.000031763              -0.000195850               0.001295745               0.001099895               0.000000000               0.000000000               0.000000000               0.000000000               0.000626315               0.003614140              -0.000036057              -0.000216899               0.001277001               0.001060102               0.000000000               0.000000000               0.000000000               0.000000000               0.000546477               0.003562847              -0.000034931              -0.000240427               0.001267746               0.001027320               0.000000000               0.000000000               0.000000000               0.000000000               0.000472149               0.003528174              -0.000034132              -0.000263965               0.001264035               0.001000069               0.000000000               0.000000000               0.000000000               0.000000000               0.000399838               0.003506865              -0.000035107              -0.000288418               0.001265083               0.000976665               0.000000000               0.000000000               0.000000000               0.000000000               0.000325029               0.003495004              -0.000034775              -0.000314989               0.001269986               0.000954997               0.000000000               0.000000000               0.000000000               0.000000000               0.000252280               0.003489172              -0.000032695              -0.000341541               0.001276892               0.000935352               0.000000000               0.000000000               0.000000000               0.000000000               0.000184230               0.003486170              -0.000028407              -0.000366684               0.001284273               0.000917589               0.000000000               0.000000000               0.000000000               0.000000000               0.000118676               0.003481554              -0.000022325              -0.000390690               0.001290736               0.000900047               0.000000000               0.000000000               0.000000000               0.000000000               0.000057372               0.003474906              -0.000012996              -0.000412848               0.001295906               0.000883059               0.000000000               0.000000000               0.000000000               0.000000000               0.000028914               0.003471626              -0.000006792              -0.000423110               0.001298234               0.000875124               0.000000000               0.000000000               0.000000000               0.000000000               0.000740671               0.006632427               0.001008162              -0.000551301               0.002394554               0.001843253               0.000000000               0.000000000               0.000000000               0.000000000               0.000693379               0.005538830               0.000639645              -0.000432336               0.001990370               0.001558034               0.000000000               0.000000000               0.000000000               0.000000000               0.000841036               0.004701125               0.000262863              -0.000272251               0.001657776               0.001385525               0.000000000               0.000000000               0.000000000               0.000000000               0.000831891               0.004239482               0.000093455              -0.000217976               0.001485805               0.001267830               0.000000000               0.000000000               0.000000000               0.000000000               0.000770197               0.003966164               0.000013874              -0.000206946               0.001391023               0.001184077               0.000000000               0.000000000               0.000000000               0.000000000               0.000692181               0.003794688              -0.000024000              -0.000214768               0.001336472               0.001121705               0.000000000               0.000000000               0.000000000               0.000000000               0.000616737               0.003684280              -0.000043097              -0.000229258               0.001304500               0.001075243               0.000000000               0.000000000               0.000000000               0.000000000               0.000542951               0.003610196              -0.000052230              -0.000247667               0.001285942               0.001038275               0.000000000               0.000000000               0.000000000               0.000000000               0.000472116               0.003560782              -0.000051776              -0.000268054               0.001276267               0.001008213               0.000000000               0.000000000               0.000000000               0.000000000               0.000406758               0.003527585              -0.000049538              -0.000288413               0.001271988               0.000983574               0.000000000               0.000000000               0.000000000               0.000000000               0.000342481               0.003506872              -0.000050679              -0.000309928               0.001272255               0.000962327               0.000000000               0.000000000               0.000000000               0.000000000               0.000277382               0.003496891              -0.000050259              -0.000333092               0.001276649               0.000943557               0.000000000               0.000000000               0.000000000               0.000000000               0.000215058               0.003493518              -0.000046142              -0.000356042               0.001283175               0.000927133               0.000000000               0.000000000               0.000000000               0.000000000               0.000156701               0.003492882              -0.000038187              -0.000377847               0.001290231               0.000912385               0.000000000               0.000000000               0.000000000               0.000000000               0.000101492               0.003493930              -0.000028700              -0.000398681               0.001297525               0.000898844               0.000000000               0.000000000               0.000000000               0.000000000               0.000049800               0.003499676              -0.000016710              -0.000418783               0.001306141               0.000887358               0.000000000               0.000000000               0.000000000               0.000000000               0.000028182               0.003511203              -0.000007575              -0.000428331               0.001313166               0.000884835               0.000000000               0.000000000               0.000000000               0.000000000               0.000878245               0.006085002               0.001377332              -0.000431283               0.002172074               0.001740791               0.000000000               0.000000000               0.000000000               0.000000000               0.000723876               0.005162246               0.000880851              -0.000373827               0.001845340               0.001471514               0.000000000               0.000000000               0.000000000               0.000000000               0.000755045               0.004500426               0.000377420              -0.000279411               0.001593264               0.001313853               0.000000000               0.000000000               0.000000000               0.000000000               0.000704068               0.004130126               0.000154997              -0.000252240               0.001460775               0.001208535               0.000000000               0.000000000               0.000000000               0.000000000               0.000635658               0.003904963               0.000050297              -0.000249748               0.001384891               0.001135143               0.000000000               0.000000000               0.000000000               0.000000000               0.000561150               0.003757737              -0.000000516              -0.000259285               0.001338995               0.001079709               0.000000000               0.000000000               0.000000000               0.000000000               0.000492614               0.003659163              -0.000026388              -0.000272665               0.001310597               0.001037932               0.000000000               0.000000000               0.000000000               0.000000000               0.000431731               0.003592880              -0.000038950              -0.000287210               0.001293351               0.001006141               0.000000000               0.000000000               0.000000000               0.000000000               0.000372064               0.003548435              -0.000039176              -0.000304030               0.001284143               0.000980114               0.000000000               0.000000000               0.000000000               0.000000000               0.000316212               0.003519068              -0.000035145              -0.000321303               0.001280112               0.000958809               0.000000000               0.000000000               0.000000000               0.000000000               0.000264675               0.003500184              -0.000036795              -0.000338269               0.001279473               0.000941204               0.000000000               0.000000000               0.000000000               0.000000000               0.000214675               0.003490167              -0.000038168              -0.000355767               0.001281966               0.000926200               0.000000000               0.000000000               0.000000000               0.000000000               0.000168748               0.003488149              -0.000033896              -0.000372737               0.001286950               0.000914213               0.000000000               0.000000000               0.000000000               0.000000000               0.000126264               0.003492425              -0.000025258              -0.000389203               0.001293864               0.000904661               0.000000000               0.000000000               0.000000000               0.000000000               0.000085043               0.003504846              -0.000016459              -0.000406214               0.001303675               0.000897461               0.000000000               0.000000000               0.000000000               0.000000000               0.000043158               0.003527850              -0.000009435              -0.000424796               0.001317537               0.000892741               0.000000000               0.000000000               0.000000000               0.000000000               0.000028223               0.003555071              -0.000002678              -0.000433799               0.001329612               0.000895812               0.000000000               0.000000000               0.000000000               0.000000000               0.001016369               0.005411648               0.001620019              -0.000295318               0.001902304               0.001606985               0.000000000               0.000000000               0.000000000               0.000000000               0.000745984               0.004708050               0.001053635              -0.000308762               0.001672255               0.001363493               0.000000000               0.000000000               0.000000000               0.000000000               0.000654009               0.004262265               0.000478978              -0.000287529               0.001516584               0.001229055               0.000000000               0.000000000               0.000000000               0.000000000               0.000566397               0.003992521               0.000228233              -0.000286665               0.001426382               0.001139717               0.000000000               0.000000000               0.000000000               0.000000000               0.000494145               0.003818253               0.000110883              -0.000291976               0.001370064               0.001078087               0.000000000               0.000000000               0.000000000               0.000000000               0.000430472               0.003696665               0.000052388              -0.000300655               0.001332428               0.001031773               0.000000000               0.000000000               0.000000000               0.000000000               0.000372553               0.003612430               0.000021462              -0.000311846               0.001308080               0.000996234               0.000000000               0.000000000               0.000000000               0.000000000               0.000320201               0.003556015               0.000005032              -0.000324426               0.001293468               0.000969043               0.000000000               0.000000000               0.000000000               0.000000000               0.000271970               0.003519430               0.000000351              -0.000337939               0.001285778               0.000947839               0.000000000               0.000000000               0.000000000               0.000000000               0.000229025               0.003500385               0.000003177              -0.000351663               0.001284004               0.000932341               0.000000000               0.000000000               0.000000000               0.000000000               0.000191658               0.003487784               0.000001564              -0.000364100               0.001283950               0.000919849               0.000000000               0.000000000               0.000000000               0.000000000               0.000159130               0.003481216              -0.000002801              -0.000375477               0.001285553               0.000910076               0.000000000               0.000000000               0.000000000               0.000000000               0.000130587               0.003483266              -0.000001899              -0.000386437               0.001289890               0.000903452               0.000000000               0.000000000               0.000000000               0.000000000               0.000102835               0.003495098               0.000002722              -0.000398323               0.001297795               0.000899472               0.000000000               0.000000000               0.000000000               0.000000000               0.000072428               0.003518711               0.000006528              -0.000412677               0.001310451               0.000897774               0.000000000               0.000000000               0.000000000               0.000000000               0.000037068               0.003553015               0.000005545              -0.000430225               0.001327735               0.000897510               0.000000000               0.000000000               0.000000000               0.000000000               0.000026035               0.003585997               0.000007858              -0.000438485               0.001341482               0.000902997               0.000000000               0.000000000               0.000000000               0.000000000               0.001130588               0.004681860               0.001736084              -0.000161264               0.001614359               0.001453095               0.000000000               0.000000000               0.000000000               0.000000000               0.000756654               0.004221311               0.001156618              -0.000243919               0.001488396               0.001244477               0.000000000               0.000000000               0.000000000               0.000000000               0.000549349               0.004004568               0.000566998              -0.000294565               0.001433031               0.001138466               0.000000000               0.000000000               0.000000000               0.000000000               0.000437930               0.003834757               0.000312499              -0.000315120               0.001383280               0.001068159               0.000000000               0.000000000               0.000000000               0.000000000               0.000371303               0.003707611               0.000190733              -0.000324212               0.001343928               0.001019717               0.000000000               0.000000000               0.000000000               0.000000000               0.000319869               0.003612455               0.000126260              -0.000331605               0.001314675               0.000983069               0.000000000               0.000000000               0.000000000               0.000000000               0.000276063               0.003551770               0.000089867              -0.000340447               0.001297394               0.000956947               0.000000000               0.000000000               0.000000000               0.000000000               0.000238017               0.003511561               0.000067433              -0.000349688               0.001287071               0.000937383               0.000000000               0.000000000               0.000000000               0.000000000               0.000202647               0.003487934               0.000054772              -0.000359998               0.001282632               0.000922634               0.000000000               0.000000000               0.000000000               0.000000000               0.000170418               0.003477115               0.000053719              -0.000370732               0.001282604               0.000911872               0.000000000               0.000000000               0.000000000               0.000000000               0.000144751               0.003471170               0.000052949              -0.000379614               0.001283583               0.000903969               0.000000000               0.000000000               0.000000000               0.000000000               0.000123615               0.003469208               0.000045994              -0.000387295               0.001285489               0.000898195               0.000000000               0.000000000               0.000000000               0.000000000               0.000105898               0.003475929               0.000042033              -0.000394778               0.001290224               0.000895446               0.000000000               0.000000000               0.000000000               0.000000000               0.000086315               0.003492717               0.000039617              -0.000404220               0.001298968               0.000894747               0.000000000               0.000000000               0.000000000               0.000000000               0.000060185               0.003517251               0.000034364              -0.000417086               0.001311434               0.000894348               0.000000000               0.000000000               0.000000000               0.000000000               0.000031205               0.003543985               0.000022093              -0.000431295               0.001325082               0.000893786               0.000000000               0.000000000               0.000000000               0.000000000               0.000020387               0.003561800               0.000015306              -0.000437579               0.001333114               0.000895536               0.000000000               0.000000000               0.000000000               0.000000000               0.001197477               0.003952376               0.001735064              -0.000044995               0.001332444               0.001287448               0.000000000               0.000000000               0.000000000               0.000000000               0.000751556               0.003738317               0.001198149              -0.000185457               0.001307912               0.001122455               0.000000000               0.000000000               0.000000000               0.000000000               0.000455596               0.003740232               0.000645300              -0.000296680               0.001345625               0.001048945               0.000000000               0.000000000               0.000000000               0.000000000               0.000335713               0.003661917               0.000402143              -0.000331846               0.001331242               0.000999396               0.000000000               0.000000000               0.000000000               0.000000000               0.000280832               0.003581036               0.000278035              -0.000342317               0.001307772               0.000965456               0.000000000               0.000000000               0.000000000               0.000000000               0.000246133               0.003521864               0.000204663              -0.000347932               0.001289920               0.000941988               0.000000000               0.000000000               0.000000000               0.000000000               0.000216227               0.003487866               0.000159118              -0.000354897               0.001280910               0.000926012               0.000000000               0.000000000               0.000000000               0.000000000               0.000188317               0.003466160               0.000131949              -0.000362650               0.001276258               0.000913608               0.000000000               0.000000000               0.000000000               0.000000000               0.000162759               0.003454748               0.000114361              -0.000370808               0.001275174               0.000904366               0.000000000               0.000000000               0.000000000               0.000000000               0.000140438               0.003450288               0.000109479              -0.000378621               0.001276292               0.000897671               0.000000000               0.000000000               0.000000000               0.000000000               0.000122878               0.003449771               0.000107266              -0.000385141               0.001278292               0.000893151               0.000000000               0.000000000               0.000000000               0.000000000               0.000105629               0.003451511               0.000095902              -0.000391827               0.001281101               0.000889274               0.000000000               0.000000000               0.000000000               0.000000000               0.000086279               0.003458164               0.000080907              -0.000399915               0.001286015               0.000886100               0.000000000               0.000000000               0.000000000               0.000000000               0.000064719               0.003470874               0.000064711              -0.000409589               0.001293476               0.000883887               0.000000000               0.000000000               0.000000000               0.000000000               0.000039624               0.003482419               0.000045037              -0.000420443               0.001300942               0.000880500               0.000000000               0.000000000               0.000000000               0.000000000               0.000018148               0.003484580               0.000023677              -0.000428766               0.001304437               0.000875671               0.000000000               0.000000000               0.000000000               0.000000000               0.000004953               0.003474950               0.000010468              -0.000432510               0.001302475               0.000869965               0.000000000               0.000000000               0.000000000               0.000000000               0.001209085               0.003257170               0.001637409               0.000046258               0.001070292               0.001116551               0.000000000               0.000000000               0.000000000               0.000000000               0.000731087               0.003285285               0.001193448              -0.000136504               0.001140585               0.001004081               0.000000000               0.000000000               0.000000000               0.000000000               0.000384971               0.003483214               0.000717487              -0.000291038               0.001258072               0.000967035               0.000000000               0.000000000               0.000000000               0.000000000               0.000271185               0.003484424               0.000488292              -0.000333858               0.001272749               0.000938891               0.000000000               0.000000000               0.000000000               0.000000000               0.000232740               0.003453493               0.000358551              -0.000344409               0.001265956               0.000921547               0.000000000               0.000000000               0.000000000               0.000000000               0.000211409               0.003432923               0.000275567              -0.000349836               0.001260908               0.000911072               0.000000000               0.000000000               0.000000000               0.000000000               0.000190295               0.003422266               0.000222504              -0.000356422               0.001259551               0.000903130               0.000000000               0.000000000               0.000000000               0.000000000               0.000168401               0.003419814               0.000192558              -0.000364326               0.001261369               0.000897043               0.000000000               0.000000000               0.000000000               0.000000000               0.000148469               0.003419992               0.000170073              -0.000371822               0.001263927               0.000892104               0.000000000               0.000000000               0.000000000               0.000000000               0.000131278               0.003418565               0.000154951              -0.000378090               0.001265540               0.000887450               0.000000000               0.000000000               0.000000000               0.000000000               0.000110870               0.003417880               0.000142462              -0.000385658               0.001267835               0.000882177               0.000000000               0.000000000               0.000000000               0.000000000               0.000086218               0.003418863               0.000119871              -0.000395025               0.001271285               0.000876259               0.000000000               0.000000000               0.000000000               0.000000000               0.000058726               0.003421020               0.000090163              -0.000405604               0.001275530               0.000869926               0.000000000               0.000000000               0.000000000               0.000000000               0.000030610               0.003419343               0.000058648              -0.000415938               0.001278415               0.000862478               0.000000000               0.000000000               0.000000000               0.000000000               0.000007343               0.003409091               0.000028451              -0.000423382               0.001277480               0.000854098               0.000000000               0.000000000               0.000000000               0.000000000              -0.000003443               0.003386611               0.000007639              -0.000424616               0.001270398               0.000845781               0.000000000               0.000000000               0.000000000               0.000000000              -0.000010067               0.003363472              -0.000002270              -0.000424208               0.001262549               0.000838341               0.000000000               0.000000000               0.000000000               0.000000000               0.001187628               0.002647589               0.001478131               0.000114409               0.000844384               0.000958793               0.000000000               0.000000000               0.000000000               0.000000000               0.000720325               0.002881595               0.001165416              -0.000090079               0.000990548               0.000900469               0.000000000               0.000000000               0.000000000               0.000000000               0.000358299               0.003249279               0.000796968              -0.000271798               0.001173681               0.000901884               0.000000000               0.000000000               0.000000000               0.000000000               0.000253420               0.003331177               0.000580129              -0.000321364               0.001217502               0.000896138               0.000000000               0.000000000               0.000000000               0.000000000               0.000222315               0.003350764               0.000440649              -0.000335476               0.001228736               0.000893259               0.000000000               0.000000000               0.000000000               0.000000000               0.000206364               0.003362079               0.000347970              -0.000342873               0.001234973               0.000892100               0.000000000               0.000000000               0.000000000               0.000000000               0.000188668               0.003373449               0.000287284              -0.000350930               0.001241448               0.000890518               0.000000000               0.000000000               0.000000000               0.000000000               0.000175017               0.003389274               0.000250048              -0.000358027               0.001249089               0.000891062               0.000000000               0.000000000               0.000000000               0.000000000               0.000160478               0.003399671               0.000220402              -0.000364779               0.001254805               0.000890026               0.000000000               0.000000000               0.000000000               0.000000000               0.000143098               0.003398044               0.000192198              -0.000371093               0.001256368               0.000885275               0.000000000               0.000000000               0.000000000               0.000000000               0.000117226               0.003391179               0.000164301              -0.000379937               0.001257027               0.000877091               0.000000000               0.000000000               0.000000000               0.000000000               0.000083664               0.003388437               0.000130044              -0.000392180               0.001260194               0.000868015               0.000000000               0.000000000               0.000000000               0.000000000               0.000045579               0.003383653               0.000090577              -0.000405863               0.001263161               0.000857297               0.000000000               0.000000000               0.000000000               0.000000000               0.000006161               0.003369193               0.000051384              -0.000418838               0.001262666               0.000843828               0.000000000               0.000000000               0.000000000               0.000000000              -0.000027825               0.003341660               0.000019289              -0.000428141               0.001256589               0.000828448               0.000000000               0.000000000               0.000000000               0.000000000              -0.000047780               0.003300220               0.000000496              -0.000430444               0.001243544               0.000813100               0.000000000               0.000000000               0.000000000               0.000000000              -0.000052370               0.003274238              -0.000005857              -0.000428917               0.001234374               0.000805457               0.000000000               0.000000000               0.000000000               0.000000000               0.001122358               0.002064661               0.001289915               0.000162799               0.000633946               0.000796745               0.000000000               0.000000000               0.000000000               0.000000000               0.000724258               0.002417757               0.001127033              -0.000030624               0.000816119               0.000785494               0.000000000               0.000000000               0.000000000               0.000000000               0.000382752               0.002909446               0.000890628              -0.000220149               0.001043188               0.000823039               0.000000000               0.000000000               0.000000000               0.000000000               0.000280410               0.003091757               0.000693034              -0.000281316               0.001124347               0.000843031               0.000000000               0.000000000               0.000000000               0.000000000               0.000244693               0.003171493               0.000546021              -0.000304676               0.001158713               0.000854036               0.000000000               0.000000000               0.000000000               0.000000000               0.000230450               0.003221119               0.000442113              -0.000316220               0.001179102               0.000862882               0.000000000               0.000000000               0.000000000               0.000000000               0.000217572               0.003268374               0.000370969              -0.000326957               0.001198433               0.000871476               0.000000000               0.000000000               0.000000000               0.000000000               0.000206554               0.003312645               0.000320430              -0.000336622               0.001216411               0.000879789               0.000000000               0.000000000               0.000000000               0.000000000               0.000190331               0.003339636               0.000277377              -0.000346080               0.001228561               0.000882481               0.000000000               0.000000000               0.000000000               0.000000000               0.000168646               0.003345304               0.000237068              -0.000354920               0.001233397               0.000878477               0.000000000               0.000000000               0.000000000               0.000000000               0.000138955               0.003335860               0.000197388              -0.000364873               0.001233567               0.000868693               0.000000000               0.000000000               0.000000000               0.000000000               0.000100728               0.003323525               0.000156674              -0.000377667               0.001233720               0.000856053               0.000000000               0.000000000               0.000000000               0.000000000               0.000055191               0.003310480               0.000111981              -0.000393112               0.001234520               0.000841407               0.000000000               0.000000000               0.000000000               0.000000000               0.000006082               0.003298547               0.000067690              -0.000410037               0.001236183               0.000826147               0.000000000               0.000000000               0.000000000               0.000000000              -0.000042173               0.003279626               0.000032667              -0.000425767               0.001235120               0.000809353               0.000000000               0.000000000               0.000000000               0.000000000              -0.000084450               0.003250366               0.000009972              -0.000437963               0.001229432               0.000791469               0.000000000               0.000000000               0.000000000               0.000000000              -0.000105731               0.003230128              -0.000000300              -0.000443414               0.001224503               0.000781089               0.000000000               0.000000000               0.000000000               0.000000000               0.000991641               0.001524584               0.001076568               0.000181290               0.000447759               0.000629049               0.000000000               0.000000000               0.000000000               0.000000000               0.000723585               0.001957619               0.001059273               0.000026640               0.000643652               0.000670293               0.000000000               0.000000000               0.000000000               0.000000000               0.000442126               0.002534208               0.000960140              -0.000150979               0.000895054               0.000744074               0.000000000               0.000000000               0.000000000               0.000000000               0.000342508               0.002807527               0.000800254              -0.000222501               0.001010000               0.000787499               0.000000000               0.000000000               0.000000000               0.000000000               0.000298636               0.002951002               0.000657971              -0.000256887               0.001069286               0.000812400               0.000000000               0.000000000               0.000000000               0.000000000               0.000277206               0.003049822               0.000547560              -0.000277275               0.001109022               0.000831747               0.000000000               0.000000000               0.000000000               0.000000000               0.000264856               0.003139517               0.000466354              -0.000293118               0.001144201               0.000851083               0.000000000               0.000000000               0.000000000               0.000000000               0.000249954               0.003215121               0.000401434              -0.000308157               0.001174415               0.000866258               0.000000000               0.000000000               0.000000000               0.000000000               0.000228741               0.003264089               0.000345556              -0.000322232               0.001195430               0.000873197               0.000000000               0.000000000               0.000000000               0.000000000               0.000203666               0.003288600               0.000296355              -0.000334699               0.001207755               0.000873056               0.000000000               0.000000000               0.000000000               0.000000000               0.000175899               0.003292707               0.000249938              -0.000345625               0.001212767               0.000867141               0.000000000               0.000000000               0.000000000               0.000000000               0.000142849               0.003280971               0.000204387              -0.000356552               0.001212497               0.000855945               0.000000000               0.000000000               0.000000000               0.000000000               0.000099109               0.003264350               0.000155265              -0.000370877               0.001211731               0.000840854               0.000000000               0.000000000               0.000000000               0.000000000               0.000046250               0.003252436               0.000106062              -0.000389210               0.001213871               0.000824661               0.000000000               0.000000000               0.000000000               0.000000000              -0.000013929               0.003241261               0.000063139              -0.000410380               0.001217203               0.000806823               0.000000000               0.000000000               0.000000000               0.000000000              -0.000079383               0.003227811               0.000028165              -0.000433244               0.001220341               0.000787097               0.000000000               0.000000000               0.000000000               0.000000000              -0.000127318               0.003210171               0.000006735              -0.000449014               0.001219718               0.000770703               0.000000000               0.000000000               0.000000000               0.000000000               0.000798744               0.001053945               0.000845184               0.000167784               0.000295383               0.000463167               0.000000000               0.000000000               0.000000000               0.000000000               0.000694375               0.001521489               0.000946284               0.000070203               0.000483756               0.000553959               0.000000000               0.000000000               0.000000000               0.000000000               0.000512699               0.002122958               0.000966078              -0.000073109               0.000732015               0.000658906               0.000000000               0.000000000               0.000000000               0.000000000               0.000429486               0.002461740               0.000856538              -0.000146661               0.000869458               0.000722798               0.000000000               0.000000000               0.000000000               0.000000000               0.000382210               0.002671315               0.000733445              -0.000190586               0.000953958               0.000763372               0.000000000               0.000000000               0.000000000               0.000000000               0.000353720               0.002827661               0.000629040              -0.000220812               0.001016148               0.000795336               0.000000000               0.000000000               0.000000000               0.000000000               0.000335346               0.002961141               0.000545821              -0.000244388               0.001068500               0.000824112               0.000000000               0.000000000               0.000000000               0.000000000               0.000314556               0.003072253               0.000473683              -0.000266073               0.001112765               0.000846692               0.000000000               0.000000000               0.000000000               0.000000000               0.000287496               0.003156135               0.000409245              -0.000286705               0.001147603               0.000860898               0.000000000               0.000000000               0.000000000               0.000000000               0.000254661               0.003210772               0.000353665              -0.000305848               0.001172196               0.000866348               0.000000000               0.000000000               0.000000000               0.000000000               0.000222169               0.003233858               0.000305737              -0.000320918               0.001184915               0.000863997               0.000000000               0.000000000               0.000000000               0.000000000               0.000189292               0.003235822               0.000257113              -0.000333493               0.001189761               0.000856268               0.000000000               0.000000000               0.000000000               0.000000000               0.000150647               0.003228803               0.000202344              -0.000347107               0.001191959               0.000844852               0.000000000               0.000000000               0.000000000               0.000000000               0.000102721               0.003220954               0.000147767              -0.000364098               0.001195007               0.000830909               0.000000000               0.000000000               0.000000000               0.000000000               0.000042549               0.003214905               0.000097180              -0.000385906               0.001200260               0.000814353               0.000000000               0.000000000               0.000000000               0.000000000              -0.000031389               0.003213042               0.000047783              -0.000413400               0.001208803               0.000795403               0.000000000               0.000000000               0.000000000               0.000000000              -0.000092125               0.003200476               0.000015263              -0.000434605               0.001211683               0.000777078               0.000000000               0.000000000               0.000000000               0.000000000               0.000558569               0.000672817               0.000615276               0.000125360               0.000182483               0.000307843               0.000000000               0.000000000               0.000000000               0.000000000               0.000634870               0.001124448               0.000793299               0.000097518               0.000342306               0.000439824               0.000000000               0.000000000               0.000000000               0.000000000               0.000584507               0.001701675               0.000899479               0.000006479               0.000565059               0.000571538               0.000000000               0.000000000               0.000000000               0.000000000               0.000535613               0.002082961               0.000841378              -0.000059516               0.000714152               0.000654636               0.000000000               0.000000000               0.000000000               0.000000000               0.000494324               0.002349350               0.000749062              -0.000108298               0.000819208               0.000710910               0.000000000               0.000000000               0.000000000               0.000000000               0.000461668               0.002557743               0.000660925              -0.000146593               0.000901437               0.000754844               0.000000000               0.000000000               0.000000000               0.000000000               0.000432655               0.002736865               0.000582171              -0.000179862               0.000972233               0.000792371               0.000000000               0.000000000               0.000000000               0.000000000               0.000400782               0.002888658               0.000510509              -0.000210789               0.001033139               0.000822350               0.000000000               0.000000000               0.000000000               0.000000000               0.000367852               0.003007881               0.000446020              -0.000238040               0.001081964               0.000843923               0.000000000               0.000000000               0.000000000               0.000000000               0.000330453               0.003093496               0.000391008              -0.000262767               0.001118744               0.000855977               0.000000000               0.000000000               0.000000000               0.000000000               0.000290520               0.003150617               0.000343930              -0.000284881               0.001145156               0.000860274               0.000000000               0.000000000               0.000000000               0.000000000               0.000251909               0.003183258               0.000296948              -0.000303441               0.001162222               0.000858782               0.000000000               0.000000000               0.000000000               0.000000000               0.000216749               0.003194699               0.000244919              -0.000318056               0.001170908               0.000852852               0.000000000               0.000000000               0.000000000               0.000000000               0.000178327               0.003196957               0.000189352              -0.000332746               0.001176557               0.000843811               0.000000000               0.000000000               0.000000000               0.000000000               0.000128992               0.003200334               0.000131167              -0.000351669               0.001183990               0.000832321               0.000000000               0.000000000               0.000000000               0.000000000               0.000063040               0.003207514               0.000067904              -0.000377298               0.001194927               0.000817628               0.000000000               0.000000000               0.000000000               0.000000000               0.000005662               0.003199820               0.000028477              -0.000397853               0.001199214               0.000801361               0.000000000               0.000000000               0.000000000               0.000000000               0.000301726               0.000389512               0.000408154               0.000064457               0.000108350               0.000172807               0.000000000               0.000000000               0.000000000               0.000000000               0.000551550               0.000788211               0.000610546               0.000108303               0.000226633               0.000334936               0.000000000               0.000000000               0.000000000               0.000000000               0.000647493               0.001310226               0.000758572               0.000079030               0.000410394               0.000489424               0.000000000               0.000000000               0.000000000               0.000000000               0.000651777               0.001714234               0.000744154               0.000030136               0.000561360               0.000591496               0.000000000               0.000000000               0.000000000               0.000000000               0.000627981               0.002021814               0.000685663              -0.000017235               0.000679676               0.000662441               0.000000000               0.000000000               0.000000000               0.000000000               0.000590929               0.002269655               0.000618267              -0.000062109               0.000777247               0.000715138               0.000000000               0.000000000               0.000000000               0.000000000               0.000549328               0.002485717               0.000549861              -0.000104717               0.000863470               0.000758753               0.000000000               0.000000000               0.000000000               0.000000000               0.000507657               0.002671441               0.000487263              -0.000143558               0.000938324               0.000794766               0.000000000               0.000000000               0.000000000               0.000000000               0.000470869               0.002822953               0.000431965              -0.000176293               0.000999739               0.000823446               0.000000000               0.000000000               0.000000000               0.000000000               0.000431811               0.002943301               0.000380995              -0.000205983               0.001049752               0.000843768               0.000000000               0.000000000               0.000000000               0.000000000               0.000388135               0.003040682               0.000338212              -0.000234534               0.001091728               0.000857194               0.000000000               0.000000000               0.000000000               0.000000000               0.000349591               0.003109127               0.000301050              -0.000257544               0.001122213               0.000864670               0.000000000               0.000000000               0.000000000               0.000000000               0.000317914               0.003148099               0.000257930              -0.000274294               0.001140787               0.000866493               0.000000000               0.000000000               0.000000000               0.000000000               0.000287238               0.003172829               0.000204672              -0.000288889               0.001153895               0.000865007               0.000000000               0.000000000               0.000000000               0.000000000               0.000249680               0.003189563               0.000144999              -0.000305065               0.001164865               0.000859801               0.000000000               0.000000000               0.000000000               0.000000000               0.000204856               0.003202016               0.000077481              -0.000323430               0.001175138               0.000851708               0.000000000               0.000000000               0.000000000               0.000000000               0.000167484               0.003200266               0.000037582              -0.000337226               0.001179153               0.000841927               0.000000000               0.000000000               0.000000000               0.000000000               0.000068932               0.000200050               0.000239096               0.000000843               0.000066402               0.000067244               0.000000000               0.000000000               0.000000000               0.000000000               0.000466016               0.000534224               0.000411873               0.000107977               0.000142080               0.000250057               0.000000000               0.000000000               0.000000000               0.000000000               0.000697990               0.000991353               0.000550158               0.000137826               0.000284506               0.000422331               0.000000000               0.000000000               0.000000000               0.000000000               0.000758786               0.001399586               0.000561306               0.000109595               0.000429992               0.000539587               0.000000000               0.000000000               0.000000000               0.000000000               0.000752293               0.001729436               0.000529912               0.000065929               0.000554496               0.000620426               0.000000000               0.000000000               0.000000000               0.000000000               0.000714488               0.002000869               0.000483045               0.000017824               0.000661008               0.000678832               0.000000000               0.000000000               0.000000000               0.000000000               0.000666286               0.002238499               0.000432725              -0.000029955               0.000756144               0.000726189               0.000000000               0.000000000               0.000000000               0.000000000               0.000622464               0.002449811               0.000388526              -0.000072803               0.000840863               0.000768060               0.000000000               0.000000000               0.000000000               0.000000000               0.000581935               0.002633504               0.000347354              -0.000110962               0.000914813               0.000803851               0.000000000               0.000000000               0.000000000               0.000000000               0.000541466               0.002790559               0.000305606              -0.000145770               0.000978767               0.000832997               0.000000000               0.000000000               0.000000000               0.000000000               0.000500205               0.002917749               0.000275282              -0.000177141               0.001031620               0.000854479               0.000000000               0.000000000               0.000000000               0.000000000               0.000461440               0.003014523               0.000252580              -0.000203775               0.001072756               0.000868981               0.000000000               0.000000000               0.000000000               0.000000000               0.000427812               0.003089592               0.000220521              -0.000225769               0.001105110               0.000879341               0.000000000               0.000000000               0.000000000               0.000000000               0.000400867               0.003144323               0.000174302              -0.000242715               0.001129002               0.000886287               0.000000000               0.000000000               0.000000000               0.000000000               0.000378144               0.003178376               0.000122135              -0.000255492               0.001144612               0.000889120               0.000000000               0.000000000               0.000000000               0.000000000               0.000360811               0.003197986               0.000065264              -0.000264444               0.001154133               0.000889689               0.000000000               0.000000000               0.000000000               0.000000000               0.000352752               0.003203675               0.000033678              -0.000268177               0.001157273               0.000889096               0.000000000               0.000000000               0.000000000               0.000000000              -0.000093178               0.000092556               0.000107122              -0.000046511               0.000046355              -0.000000156               0.000000000               0.000000000               0.000000000               0.000000000               0.000403816               0.000376071               0.000206949               0.000104421               0.000090549               0.000194970               0.000000000               0.000000000               0.000000000               0.000000000               0.000731491               0.000782588               0.000290367               0.000176484               0.000202032               0.000378516               0.000000000               0.000000000               0.000000000               0.000000000               0.000833770               0.001185274               0.000303401               0.000164503               0.000340253               0.000504756               0.000000000               0.000000000               0.000000000               0.000000000               0.000837432               0.001521430               0.000289789               0.000123857               0.000465853               0.000589710               0.000000000               0.000000000               0.000000000               0.000000000               0.000803163               0.001802964               0.000264994               0.000075815               0.000575710               0.000651525               0.000000000               0.000000000               0.000000000               0.000000000               0.000757407               0.002049848               0.000238903               0.000027796               0.000674011               0.000701807               0.000000000               0.000000000               0.000000000               0.000000000               0.000711296               0.002279141               0.000216434              -0.000018157               0.000765758               0.000747601               0.000000000               0.000000000               0.000000000               0.000000000               0.000664907               0.002491085               0.000193690              -0.000062046               0.000851035               0.000788990               0.000000000               0.000000000               0.000000000               0.000000000               0.000622814               0.002674273               0.000170160              -0.000100728               0.000924991               0.000824263               0.000000000               0.000000000               0.000000000               0.000000000               0.000582991               0.002823196               0.000155594              -0.000134278               0.000985815               0.000851538               0.000000000               0.000000000               0.000000000               0.000000000               0.000539738               0.002942588               0.000146110              -0.000165421               0.001035993               0.000870572               0.000000000               0.000000000               0.000000000               0.000000000               0.000499938               0.003041114               0.000128908              -0.000192662               0.001077915               0.000885253               0.000000000               0.000000000               0.000000000               0.000000000               0.000474468               0.003116074               0.000101877              -0.000211583               0.001109209               0.000897625               0.000000000               0.000000000               0.000000000               0.000000000               0.000468872               0.003165975               0.000069504              -0.000219919               0.001128621               0.000908702               0.000000000               0.000000000               0.000000000               0.000000000               0.000483146               0.003194929               0.000035744              -0.000218186               0.001137694               0.000919509               0.000000000               0.000000000               0.000000000               0.000000000               0.000503908               0.003207601               0.000018942              -0.000211984               0.001139851               0.000927867               0.000000000               0.000000000               0.000000000               0.000000000              -0.000150417               0.000059704              -0.000000000              -0.000063869               0.000041191              -0.000022679               0.000000000               0.000000000               0.000000000               0.000000000               0.000381647               0.000324788              -0.000000000               0.000102518               0.000074089               0.000176607               0.000000000               0.000000000               0.000000000               0.000000000               0.000742727               0.000710604              -0.000000000               0.000189695               0.000173634               0.000363329               0.000000000               0.000000000               0.000000000               0.000000000               0.000859778               0.001107173               0.000000000               0.000184018               0.000307714               0.000491733               0.000000000               0.000000000               0.000000000               0.000000000               0.000867964               0.001445312               0.000000000               0.000144821               0.000433492               0.000578313               0.000000000               0.000000000               0.000000000               0.000000000               0.000836740               0.001730078              -0.000000000               0.000097517               0.000544181               0.000641698               0.000000000               0.000000000               0.000000000               0.000000000               0.000793300               0.001978001               0.000000000               0.000050237               0.000642581               0.000692818               0.000000000               0.000000000               0.000000000               0.000000000               0.000744650               0.002214601               0.000000000               0.000002419               0.000737387               0.000739805               0.000000000               0.000000000               0.000000000               0.000000000               0.000694332               0.002437964              -0.000000000              -0.000044371               0.000827437               0.000783066               0.000000000               0.000000000               0.000000000               0.000000000               0.000650524               0.002630214               0.000000000              -0.000084830               0.000905006               0.000820176               0.000000000               0.000000000               0.000000000               0.000000000               0.000610951               0.002791664               0.000000000              -0.000119851               0.000970496               0.000850645               0.000000000               0.000000000               0.000000000               0.000000000               0.000565185               0.002920077               0.000000000              -0.000153065               0.001024371               0.000871306               0.000000000               0.000000000               0.000000000               0.000000000               0.000522848               0.003021980               0.000000000              -0.000181679               0.001067876               0.000886197               0.000000000               0.000000000               0.000000000               0.000000000               0.000498536               0.003101730              -0.000000000              -0.000200765               0.001100821               0.000900056               0.000000000               0.000000000               0.000000000               0.000000000               0.000500303               0.003156339               0.000000000              -0.000206928               0.001121079               0.000914151               0.000000000               0.000000000               0.000000000               0.000000000               0.000531400               0.003191271               0.000000000              -0.000199634               0.001130291               0.000930657               0.000000000               0.000000000               0.000000000               0.000000000               0.000566072               0.003209036               0.000000000              -0.000188852               0.001132619               0.000943766               0.000000000               0.000000000               0.000000000               0.000000000               0.000600277               0.007111916              -0.000000000              -0.000663884               0.002591910               0.001928025               0.000000000               0.000000000               0.000000000               0.000000000               0.000654898               0.005876632              -0.000000000              -0.000488991               0.002121855               0.001632864               0.000000000               0.000000000               0.000000000               0.000000000               0.000914886               0.004885914              -0.000000000              -0.000267656               0.001717840               0.001450184               0.000000000               0.000000000               0.000000000               0.000000000               0.000953439               0.004343854               0.000000000              -0.000185442               0.001509751               0.001324309               0.000000000               0.000000000               0.000000000               0.000000000               0.000905016               0.004020356               0.000000000              -0.000163163               0.001394493               0.001231330               0.000000000               0.000000000               0.000000000               0.000000000               0.000828412               0.003819246              -0.000000000              -0.000166751               0.001328653               0.001161902               0.000000000               0.000000000               0.000000000               0.000000000               0.000745579               0.003693275              -0.000000000              -0.000182067               0.001291768               0.001109702               0.000000000               0.000000000               0.000000000               0.000000000               0.000659301               0.003614457               0.000000000              -0.000204569               0.001272997               0.001068428               0.000000000               0.000000000               0.000000000               0.000000000               0.000573157               0.003562629              -0.000000000              -0.000230394               0.001264329               0.001033935               0.000000000               0.000000000               0.000000000               0.000000000               0.000494413               0.003526630              -0.000000000              -0.000255423               0.001260673               0.001005250               0.000000000               0.000000000               0.000000000               0.000000000               0.000420149               0.003505184              -0.000000000              -0.000280591               0.001261914               0.000981322               0.000000000               0.000000000               0.000000000               0.000000000               0.000342492               0.003491981              -0.000000000              -0.000308062               0.001266670               0.000958607               0.000000000               0.000000000               0.000000000               0.000000000               0.000266528               0.003484581              -0.000000000              -0.000335624               0.001273390               0.000937766               0.000000000               0.000000000               0.000000000               0.000000000               0.000195943               0.003479996              -0.000000000              -0.000361520               0.001280494               0.000918974               0.000000000               0.000000000               0.000000000               0.000000000               0.000127962               0.003473836              -0.000000000              -0.000386243               0.001286682               0.000900439               0.000000000               0.000000000               0.000000000               0.000000000               0.000061483               0.003462098              -0.000000000              -0.000409705               0.001290589               0.000880884               0.000000000               0.000000000               0.000000000               0.000000000               0.000028861               0.003453018               0.000000000              -0.000420803               0.001291262               0.000870459               0.000000000               0.000000000               0.000000000               0.000000000               0.000638700               0.006988992              -0.000533201              -0.000634110               0.002541011               0.001906901               0.000000000               0.000000000               0.000000000               0.000000000               0.000666376               0.005789215              -0.000337637              -0.000473760               0.002087639               0.001613879               0.000000000               0.000000000               0.000000000               0.000000000               0.000896422               0.004837270              -0.000135366              -0.000268500               0.001701907               0.001433407               0.000000000               0.000000000               0.000000000               0.000000000               0.000921890               0.004314958              -0.000042415              -0.000193661               0.001502858               0.001309198               0.000000000               0.000000000               0.000000000               0.000000000               0.000869322               0.004005780               0.000001087              -0.000174727               0.001393489               0.001218762               0.000000000               0.000000000               0.000000000               0.000000000               0.000790338               0.003813403               0.000021627              -0.000180298               0.001331221               0.001150923               0.000000000               0.000000000               0.000000000               0.000000000               0.000708205               0.003691421               0.000031763              -0.000195850               0.001295745               0.001099895               0.000000000               0.000000000               0.000000000               0.000000000               0.000626315               0.003614140               0.000036057              -0.000216899               0.001277001               0.001060102               0.000000000               0.000000000               0.000000000               0.000000000               0.000546477               0.003562847               0.000034931              -0.000240427               0.001267746               0.001027320               0.000000000               0.000000000               0.000000000               0.000000000               0.000472149               0.003528174               0.000034132              -0.000263965               0.001264035               0.001000069               0.000000000               0.000000000               0.000000000               0.000000000               0.000399838               0.003506865               0.000035107              -0.000288418               0.001265083               0.000976665               0.000000000               0.000000000               0.000000000               0.000000000               0.000325029               0.003495004               0.000034775              -0.000314989               0.001269986               0.000954997               0.000000000               0.000000000               0.000000000               0.000000000               0.000252280               0.003489172               0.000032695              -0.000341541               0.001276892               0.000935352               0.000000000               0.000000000               0.000000000               0.000000000               0.000184230               0.003486170               0.000028407              -0.000366684               0.001284273               0.000917589               0.000000000               0.000000000               0.000000000               0.000000000               0.000118676               0.003481554               0.000022325              -0.000390690               0.001290736               0.000900047               0.000000000               0.000000000               0.000000000               0.000000000               0.000057372               0.003474906               0.000012996              -0.000412848               0.001295906               0.000883059               0.000000000               0.000000000               0.000000000               0.000000000               0.000028914               0.003471626               0.000006792              -0.000423110               0.001298234               0.000875124               0.000000000               0.000000000               0.000000000               0.000000000               0.000740671               0.006632427              -0.001008162              -0.000551301               0.002394554               0.001843253               0.000000000               0.000000000               0.000000000               0.000000000               0.000693379               0.005538830              -0.000639645              -0.000432336               0.001990370               0.001558034               0.000000000               0.000000000               0.000000000               0.000000000               0.000841036               0.004701125              -0.000262863              -0.000272251               0.001657776               0.001385525               0.000000000               0.000000000               0.000000000               0.000000000               0.000831891               0.004239482              -0.000093455              -0.000217976               0.001485805               0.001267830               0.000000000               0.000000000               0.000000000               0.000000000               0.000770197               0.003966164              -0.000013874              -0.000206946               0.001391023               0.001184077               0.000000000               0.000000000               0.000000000               0.000000000               0.000692181               0.003794688               0.000024000              -0.000214768               0.001336472               0.001121705               0.000000000               0.000000000               0.000000000               0.000000000               0.000616737               0.003684280               0.000043097              -0.000229258               0.001304500               0.001075243               0.000000000               0.000000000               0.000000000               0.000000000               0.000542951               0.003610196               0.000052230              -0.000247667               0.001285942               0.001038275               0.000000000               0.000000000               0.000000000               0.000000000               0.000472116               0.003560782               0.000051776              -0.000268054               0.001276267               0.001008213               0.000000000               0.000000000               0.000000000               0.000000000               0.000406758               0.003527585               0.000049538              -0.000288413               0.001271988               0.000983574               0.000000000               0.000000000               0.000000000               0.000000000               0.000342481               0.003506872               0.000050679              -0.000309928               0.001272255               0.000962327               0.000000000               0.000000000               0.000000000               0.000000000               0.000277382               0.003496891               0.000050259              -0.000333092               0.001276649               0.000943557               0.000000000               0.000000000               0.000000000               0.000000000               0.000215058               0.003493518               0.000046142              -0.000356042               0.001283175               0.000927133               0.000000000               0.000000000               0.000000000               0.000000000               0.000156701               0.003492882               0.000038187              -0.000377847               0.001290231               0.000912385               0.000000000               0.000000000               0.000000000               0.000000000               0.000101492               0.003493930               0.000028700              -0.000398681               0.001297525               0.000898844               0.000000000               0.000000000               0.000000000               0.000000000               0.000049800               0.003499676               0.000016710              -0.000418783               0.001306141               0.000887358               0.000000000               0.000000000               0.000000000               0.000000000               0.000028182               0.003511203               0.000007575              -0.000428331               0.001313166               0.000884835               0.000000000               0.000000000               0.000000000               0.000000000               0.000878245               0.006085002              -0.001377332              -0.000431283               0.002172074               0.001740791               0.000000000               0.000000000               0.000000000               0.000000000               0.000723876               0.005162246              -0.000880851              -0.000373827               0.001845340               0.001471514               0.000000000               0.000000000               0.000000000               0.000000000               0.000755045               0.004500426              -0.000377420              -0.000279411               0.001593264               0.001313853               0.000000000               0.000000000               0.000000000               0.000000000               0.000704068               0.004130126              -0.000154997              -0.000252240               0.001460775               0.001208535               0.000000000               0.000000000               0.000000000               0.000000000               0.000635658               0.003904963              -0.000050297              -0.000249748               0.001384891               0.001135143               0.000000000               0.000000000               0.000000000               0.000000000               0.000561150               0.003757737               0.000000516              -0.000259285               0.001338995               0.001079709               0.000000000               0.000000000               0.000000000               0.000000000               0.000492614               0.003659163               0.000026388              -0.000272665               0.001310597               0.001037932               0.000000000               0.000000000               0.000000000               0.000000000               0.000431731               0.003592880               0.000038950              -0.000287210               0.001293351               0.001006141               0.000000000               0.000000000               0.000000000               0.000000000               0.000372064               0.003548435               0.000039176              -0.000304030               0.001284143               0.000980114               0.000000000               0.000000000               0.000000000               0.000000000               0.000316212               0.003519068               0.000035145              -0.000321303               0.001280112               0.000958809               0.000000000               0.000000000               0.000000000               0.000000000               0.000264675               0.003500184               0.000036795              -0.000338269               0.001279473               0.000941204               0.000000000               0.000000000               0.000000000               0.000000000               0.000214675               0.003490167               0.000038168              -0.000355767               0.001281966               0.000926200               0.000000000               0.000000000               0.000000000               0.000000000               0.000168748               0.003488149               0.000033896              -0.000372737               0.001286950               0.000914213               0.000000000               0.000000000               0.000000000               0.000000000               0.000126264               0.003492425               0.000025258              -0.000389203               0.001293864               0.000904661               0.000000000               0.000000000               0.000000000               0.000000000               0.000085043               0.003504846               0.000016459              -0.000406214               0.001303675               0.000897461               0.000000000               0.000000000               0.000000000               0.000000000               0.000043158               0.003527850               0.000009435              -0.000424796               0.001317537               0.000892741               0.000000000               0.000000000               0.000000000               0.000000000               0.000028223               0.003555071               0.000002678              -0.000433799               0.001329612               0.000895812               0.000000000               0.000000000               0.000000000               0.000000000               0.001016369               0.005411648              -0.001620019              -0.000295318               0.001902304               0.001606985               0.000000000               0.000000000               0.000000000               0.000000000               0.000745984               0.004708050              -0.001053635              -0.000308762               0.001672255               0.001363493               0.000000000               0.000000000               0.000000000               0.000000000               0.000654009               0.004262265              -0.000478978              -0.000287529               0.001516584               0.001229055               0.000000000               0.000000000               0.000000000               0.000000000               0.000566397               0.003992521              -0.000228233              -0.000286665               0.001426382               0.001139717               0.000000000               0.000000000               0.000000000               0.000000000               0.000494145               0.003818253              -0.000110883              -0.000291976               0.001370064               0.001078087               0.000000000               0.000000000               0.000000000               0.000000000               0.000430472               0.003696665              -0.000052388              -0.000300655               0.001332428               0.001031773               0.000000000               0.000000000               0.000000000               0.000000000               0.000372553               0.003612430              -0.000021462              -0.000311846               0.001308080               0.000996234               0.000000000               0.000000000               0.000000000               0.000000000               0.000320201               0.003556015              -0.000005032              -0.000324426               0.001293468               0.000969043               0.000000000               0.000000000               0.000000000               0.000000000               0.000271970               0.003519430              -0.000000351              -0.000337939               0.001285778               0.000947839               0.000000000               0.000000000               0.000000000               0.000000000               0.000229025               0.003500385              -0.000003177              -0.000351663               0.001284004               0.000932341               0.000000000               0.000000000               0.000000000               0.000000000               0.000191658               0.003487784              -0.000001564              -0.000364100               0.001283950               0.000919849               0.000000000               0.000000000               0.000000000               0.000000000               0.000159130               0.003481216               0.000002801              -0.000375477               0.001285553               0.000910076               0.000000000               0.000000000               0.000000000               0.000000000               0.000130587               0.003483266               0.000001899              -0.000386437               0.001289890               0.000903452               0.000000000               0.000000000               0.000000000               0.000000000               0.000102835               0.003495098              -0.000002722              -0.000398323               0.001297795               0.000899472               0.000000000               0.000000000               0.000000000               0.000000000               0.000072428               0.003518711              -0.000006528              -0.000412677               0.001310451               0.000897774               0.000000000               0.000000000               0.000000000               0.000000000               0.000037068               0.003553015              -0.000005545              -0.000430225               0.001327735               0.000897510               0.000000000               0.000000000               0.000000000               0.000000000               0.000026035               0.003585997              -0.000007858              -0.000438485               0.001341482               0.000902997               0.000000000               0.000000000               0.000000000               0.000000000               0.001130588               0.004681860              -0.001736084              -0.000161264               0.001614359               0.001453095               0.000000000               0.000000000               0.000000000               0.000000000               0.000756654               0.004221311              -0.001156618              -0.000243919               0.001488396               0.001244477               0.000000000               0.000000000               0.000000000               0.000000000               0.000549349               0.004004568              -0.000566998              -0.000294565               0.001433031               0.001138466               0.000000000               0.000000000               0.000000000               0.000000000               0.000437930               0.003834757              -0.000312499              -0.000315120               0.001383280               0.001068159               0.000000000               0.000000000               0.000000000               0.000000000               0.000371303               0.003707611              -0.000190733              -0.000324212               0.001343928               0.001019717               0.000000000               0.000000000               0.000000000               0.000000000               0.000319869               0.003612455              -0.000126260              -0.000331605               0.001314675               0.000983069               0.000000000               0.000000000               0.000000000               0.000000000               0.000276063               0.003551770              -0.000089867              -0.000340447               0.001297394               0.000956947               0.000000000               0.000000000               0.000000000               0.000000000               0.000238017               0.003511561              -0.000067433              -0.000349688               0.001287071               0.000937383               0.000000000               0.000000000               0.000000000               0.000000000               0.000202647               0.003487934              -0.000054772              -0.000359998               0.001282632               0.000922634               0.000000000               0.000000000               0.000000000               0.000000000               0.000170418               0.003477115              -0.000053719              -0.000370732               0.001282604               0.000911872               0.000000000               0.000000000               0.000000000               0.000000000               0.000144751               0.003471170              -0.000052949              -0.000379614               0.001283583               0.000903969               0.000000000               0.000000000               0.000000000               0.000000000               0.000123615               0.003469208              -0.000045994              -0.000387295               0.001285489               0.000898195               0.000000000               0.000000000               0.000000000               0.000000000               0.000105898               0.003475929              -0.000042033              -0.000394778               0.001290224               0.000895446               0.000000000               0.000000000               0.000000000               0.000000000               0.000086315               0.003492717              -0.000039617              -0.000404220               0.001298968               0.000894747               0.000000000               0.000000000               0.000000000               0.000000000               0.000060185               0.003517251              -0.000034364              -0.000417086               0.001311434               0.000894348               0.000000000               0.000000000               0.000000000               0.000000000               0.000031205               0.003543985              -0.000022093              -0.000431295               0.001325082               0.000893786               0.000000000               0.000000000               0.000000000               0.000000000               0.000020387               0.003561800              -0.000015306              -0.000437579               0.001333114               0.000895536               0.000000000               0.000000000               0.000000000               0.000000000               0.001197477               0.003952376              -0.001735064              -0.000044995               0.001332444               0.001287448               0.000000000               0.000000000               0.000000000               0.000000000               0.000751556               0.003738317              -0.001198149              -0.000185457               0.001307912               0.001122455               0.000000000               0.000000000               0.000000000               0.000000000               0.000455596               0.003740232              -0.000645300              -0.000296680               0.001345625               0.001048945               0.000000000               0.000000000               0.000000000               0.000000000               0.000335713               0.003661917              -0.000402143              -0.000331846               0.001331242               0.000999396               0.000000000               0.000000000               0.000000000               0.000000000               0.000280832               0.003581036              -0.000278035              -0.000342317               0.001307772               0.000965456               0.000000000               0.000000000               0.000000000               0.000000000               0.000246133               0.003521864              -0.000204663              -0.000347932               0.001289920               0.000941988               0.000000000               0.000000000               0.000000000               0.000000000               0.000216227               0.003487866              -0.000159118              -0.000354897               0.001280910               0.000926012               0.000000000               0.000000000               0.000000000               0.000000000               0.000188317               0.003466160              -0.000131949              -0.000362650               0.001276258               0.000913608               0.000000000               0.000000000               0.000000000               0.000000000               0.000162759               0.003454748              -0.000114361              -0.000370808               0.001275174               0.000904366               0.000000000               0.000000000               0.000000000               0.000000000               0.000140438               0.003450288              -0.000109479              -0.000378621               0.001276292               0.000897671               0.000000000               0.000000000               0.000000000               0.000000000               0.000122878               0.003449771              -0.000107266              -0.000385141               0.001278292               0.000893151               0.000000000               0.000000000               0.000000000               0.000000000               0.000105629               0.003451511              -0.000095902              -0.000391827               0.001281101               0.000889274               0.000000000               0.000000000               0.000000000               0.000000000               0.000086279               0.003458164              -0.000080907              -0.000399915               0.001286015               0.000886100               0.000000000               0.000000000               0.000000000               0.000000000               0.000064719               0.003470874              -0.000064711              -0.000409589               0.001293476               0.000883887               0.000000000               0.000000000               0.000000000               0.000000000               0.000039624               0.003482419              -0.000045037              -0.000420443               0.001300942               0.000880500               0.000000000               0.000000000               0.000000000               0.000000000               0.000018148               0.003484580              -0.000023677              -0.000428766               0.001304437               0.000875671               0.000000000               0.000000000               0.000000000               0.000000000               0.000004953               0.003474950              -0.000010468              -0.000432510               0.001302475               0.000869965               0.000000000               0.000000000               0.000000000               0.000000000               0.001209085               0.003257170              -0.001637409               0.000046258               0.001070292               0.001116551               0.000000000               0.000000000               0.000000000               0.000000000               0.000731087               0.003285285              -0.001193448              -0.000136504               0.001140585               0.001004081               0.000000000               0.000000000               0.000000000               0.000000000               0.000384971               0.003483214              -0.000717487              -0.000291038               0.001258072               0.000967035               0.000000000               0.000000000               0.000000000               0.000000000               0.000271185               0.003484424              -0.000488292              -0.000333858               0.001272749               0.000938891               0.000000000               0.000000000               0.000000000               0.000000000               0.000232740               0.003453493              -0.000358551              -0.000344409               0.001265956               0.000921547               0.000000000               0.000000000               0.000000000               0.000000000               0.000211409               0.003432923              -0.000275567              -0.000349836               0.001260908               0.000911072               0.000000000               0.000000000               0.000000000               0.000000000               0.000190295               0.003422266              -0.000222504              -0.000356422               0.001259551               0.000903130               0.000000000               0.000000000               0.000000000               0.000000000               0.000168401               0.003419814              -0.000192558              -0.000364326               0.001261369               0.000897043               0.000000000               0.000000000               0.000000000               0.000000000               0.000148469               0.003419992              -0.000170073              -0.000371822               0.001263927               0.000892104               0.000000000               0.000000000               0.000000000               0.000000000               0.000131278               0.003418565              -0.000154951              -0.000378090               0.001265540               0.000887450               0.000000000               0.000000000               0.000000000               0.000000000               0.000110870               0.003417880              -0.000142462              -0.000385658               0.001267835               0.000882177               0.000000000               0.000000000               0.000000000               0.000000000               0.000086218               0.003418863              -0.000119871              -0.000395025               0.001271285               0.000876259               0.000000000               0.000000000               0.000000000               0.000000000               0.000058726               0.003421020              -0.000090163              -0.000405604               0.001275530               0.000869926               0.000000000               0.000000000               0.000000000               0.000000000               0.000030610               0.003419343              -0.000058648              -0.000415938               0.001278415               0.000862478               0.000000000               0.000000000               0.000000000               0.000000000               0.000007343               0.003409091              -0.000028451              -0.000423382               0.001277480               0.000854098               0.000000000               0.000000000               0.000000000               0.000000000              -0.000003443               0.003386611              -0.000007639              -0.000424616               0.001270398               0.000845781               0.000000000               0.000000000               0.000000000               0.000000000              -0.000010067               0.003363472               0.000002270              -0.000424208               0.001262549               0.000838341               0.000000000               0.000000000               0.000000000               0.000000000               0.001187628               0.002647589              -0.001478131               0.000114409               0.000844384               0.000958793               0.000000000               0.000000000               0.000000000               0.000000000               0.000720325               0.002881595              -0.001165416              -0.000090079               0.000990548               0.000900469               0.000000000               0.000000000               0.000000000               0.000000000               0.000358299               0.003249279              -0.000796968              -0.000271798               0.001173681               0.000901884               0.000000000               0.000000000               0.000000000               0.000000000               0.000253420               0.003331177              -0.000580129              -0.000321364               0.001217502               0.000896138               0.000000000               0.000000000               0.000000000               0.000000000               0.000222315               0.003350764              -0.000440649              -0.000335476               0.001228736               0.000893259               0.000000000               0.000000000               0.000000000               0.000000000               0.000206364               0.003362079              -0.000347970              -0.000342873               0.001234973               0.000892100               0.000000000               0.000000000               0.000000000               0.000000000               0.000188668               0.003373449              -0.000287284              -0.000350930               0.001241448               0.000890518               0.000000000               0.000000000               0.000000000               0.000000000               0.000175017               0.003389274              -0.000250048              -0.000358027               0.001249089               0.000891062               0.000000000               0.000000000               0.000000000               0.000000000               0.000160478               0.003399671              -0.000220402              -0.000364779               0.001254805               0.000890026               0.000000000               0.000000000               0.000000000               0.000000000               0.000143098               0.003398044              -0.000192198              -0.000371093               0.001256368               0.000885275               0.000000000               0.000000000               0.000000000               0.000000000               0.000117226               0.003391179              -0.000164301              -0.000379937               0.001257027               0.000877091               0.000000000               0.000000000               0.000000000               0.000000000               0.000083664               0.003388437              -0.000130044              -0.000392180               0.001260194               0.000868015               0.000000000               0.000000000               0.000000000               0.000000000               0.000045579               0.003383653              -0.000090577              -0.000405863               0.001263161               0.000857297               0.000000000               0.000000000               0.000000000               0.000000000               0.000006161               0.003369193              -0.000051384              -0.000418838               0.001262666               0.000843828               0.000000000               0.000000000               0.000000000               0.000000000              -0.000027825               0.003341660              -0.000019289              -0.000428141               0.001256589               0.000828448               0.000000000               0.000000000               0.000000000               0.000000000              -0.000047780               0.003300220              -0.000000496              -0.000430444               0.001243544               0.000813100               0.000000000               0.000000000               0.000000000               0.000000000              -0.000052370               0.003274238               0.000005857              -0.000428917               0.001234374               0.000805457               0.000000000               0.000000000               0.000000000               0.000000000               0.001122358               0.002064661              -0.001289915               0.000162799               0.000633946               0.000796745               0.000000000               0.000000000               0.000000000               0.000000000               0.000724258               0.002417757              -0.001127033              -0.000030624               0.000816119               0.000785494               0.000000000               0.000000000               0.000000000               0.000000000               0.000382752               0.002909446              -0.000890628              -0.000220149               0.001043188               0.000823039               0.000000000               0.000000000               0.000000000               0.000000000               0.000280410               0.003091757              -0.000693034              -0.000281316               0.001124347               0.000843031               0.000000000               0.000000000               0.000000000               0.000000000               0.000244693               0.003171493              -0.000546021              -0.000304676               0.001158713               0.000854036               0.000000000               0.000000000               0.000000000               0.000000000               0.000230450               0.003221119              -0.000442113              -0.000316220               0.001179102               0.000862882               0.000000000               0.000000000               0.000000000               0.000000000               0.000217572               0.003268374              -0.000370969              -0.000326957               0.001198433               0.000871476               0.000000000               0.000000000               0.000000000               0.000000000               0.000206554               0.003312645              -0.000320430              -0.000336622               0.001216411               0.000879789               0.000000000               0.000000000               0.000000000               0.000000000               0.000190331               0.003339636              -0.000277377              -0.000346080               0.001228561               0.000882481               0.000000000               0.000000000               0.000000000               0.000000000               0.000168646               0.003345304              -0.000237068              -0.000354920               0.001233397               0.000878477               0.000000000               0.000000000               0.000000000               0.000000000               0.000138955               0.003335860              -0.000197388              -0.000364873               0.001233567               0.000868693               0.000000000               0.000000000               0.000000000               0.000000000               0.000100728               0.003323525              -0.000156674              -0.000377667               0.001233720               0.000856053               0.000000000               0.000000000               0.000000000               0.000000000               0.000055191               0.003310480              -0.000111981              -0.000393112               0.001234520               0.000841407               0.000000000               0.000000000               0.000000000               0.000000000               0.000006082               0.003298547              -0.000067690              -0.000410037               0.001236183               0.000826147               0.000000000               0.000000000               0.000000000               0.000000000              -0.000042173               0.003279626              -0.000032667              -0.000425767               0.001235120               0.000809353               0.000000000               0.000000000               0.000000000               0.000000000              -0.000084450               0.003250366              -0.000009972              -0.000437963               0.001229432               0.000791469               0.000000000               0.000000000               0.000000000               0.000000000              -0.000105731               0.003230128               0.000000300              -0.000443414               0.001224503               0.000781089               0.000000000               0.000000000               0.000000000               0.000000000               0.000991641               0.001524584              -0.001076568               0.000181290               0.000447759               0.000629049               0.000000000               0.000000000               0.000000000               0.000000000               0.000723585               0.001957619              -0.001059273               0.000026640               0.000643652               0.000670293               0.000000000               0.000000000               0.000000000               0.000000000               0.000442126               0.002534208              -0.000960140              -0.000150979               0.000895054               0.000744074               0.000000000               0.000000000               0.000000000               0.000000000               0.000342508               0.002807527              -0.000800254              -0.000222501               0.001010000               0.000787499               0.000000000               0.000000000               0.000000000               0.000000000               0.000298636               0.002951002              -0.000657971              -0.000256887               0.001069286               0.000812400               0.000000000               0.000000000               0.000000000               0.000000000               0.000277206               0.003049822              -0.000547560              -0.000277275               0.001109022               0.000831747               0.000000000               0.000000000               0.000000000               0.000000000               0.000264856               0.003139517              -0.000466354              -0.000293118               0.001144201               0.000851083               0.000000000               0.000000000               0.000000000               0.000000000               0.000249954               0.003215121              -0.000401434              -0.000308157               0.001174415               0.000866258               0.000000000               0.000000000               0.000000000               0.000000000               0.000228741               0.003264089              -0.000345556              -0.000322232               0.001195430               0.000873197               0.000000000               0.000000000               0.000000000               0.000000000               0.000203666               0.003288600              -0.000296355              -0.000334699               0.001207755               0.000873056               0.000000000               0.000000000               0.000000000               0.000000000               0.000175899               0.003292707              -0.000249938              -0.000345625               0.001212767               0.000867141               0.000000000               0.000000000               0.000000000               0.000000000               0.000142849               0.003280971              -0.000204387              -0.000356552               0.001212497               0.000855945               0.000000000               0.000000000               0.000000000               0.000000000               0.000099109               0.003264350              -0.000155265              -0.000370877               0.001211731               0.000840854               0.000000000               0.000000000               0.000000000               0.000000000               0.000046250               0.003252436              -0.000106062              -0.000389210               0.001213871               0.000824661               0.000000000               0.000000000               0.000000000               0.000000000              -0.000013929               0.003241261              -0.000063139              -0.000410380               0.001217203               0.000806823               0.000000000               0.000000000               0.000000000               0.000000000              -0.000079383               0.003227811              -0.000028165              -0.000433244               0.001220341               0.000787097               0.000000000               0.000000000               0.000000000               0.000000000              -0.000127318               0.003210171              -0.000006735              -0.000449014               0.001219718               0.000770703               0.000000000               0.000000000               0.000000000               0.000000000               0.000798744               0.001053945              -0.000845184               0.000167784               0.000295383               0.000463167               0.000000000               0.000000000               0.000000000               0.000000000               0.000694375               0.001521489              -0.000946284               0.000070203               0.000483756               0.000553959               0.000000000               0.000000000               0.000000000               0.000000000               0.000512699               0.002122958              -0.000966078              -0.000073109               0.000732015               0.000658906               0.000000000               0.000000000               0.000000000               0.000000000               0.000429486               0.002461740              -0.000856538              -0.000146661               0.000869458               0.000722798               0.000000000               0.000000000               0.000000000               0.000000000               0.000382210               0.002671315              -0.000733445              -0.000190586               0.000953958               0.000763372               0.000000000               0.000000000               0.000000000               0.000000000               0.000353720               0.002827661              -0.000629040              -0.000220812               0.001016148               0.000795336               0.000000000               0.000000000               0.000000000               0.000000000               0.000335346               0.002961141              -0.000545821              -0.000244388               0.001068500               0.000824112               0.000000000               0.000000000               0.000000000               0.000000000               0.000314556               0.003072253              -0.000473683              -0.000266073               0.001112765               0.000846692               0.000000000               0.000000000               0.000000000               0.000000000               0.000287496               0.003156135              -0.000409245              -0.000286705               0.001147603               0.000860898               0.000000000               0.000000000               0.000000000               0.000000000               0.000254661               0.003210772              -0.000353665              -0.000305848               0.001172196               0.000866348               0.000000000               0.000000000               0.000000000               0.000000000               0.000222169               0.003233858              -0.000305737              -0.000320918               0.001184915               0.000863997               0.000000000               0.000000000               0.000000000               0.000000000               0.000189292               0.003235822              -0.000257113              -0.000333493               0.001189761               0.000856268               0.000000000               0.000000000               0.000000000               0.000000000               0.000150647               0.003228803              -0.000202344              -0.000347107               0.001191959               0.000844852               0.000000000               0.000000000               0.000000000               0.000000000               0.000102721               0.003220954              -0.000147767              -0.000364098               0.001195007               0.000830909               0.000000000               0.000000000               0.000000000               0.000000000               0.000042549               0.003214905              -0.000097180              -0.000385906               0.001200260               0.000814353               0.000000000               0.000000000               0.000000000               0.000000000              -0.000031389               0.003213042              -0.000047783              -0.000413400               0.001208803               0.000795403               0.000000000               0.000000000               0.000000000               0.000000000              -0.000092125               0.003200476              -0.000015263              -0.000434605               0.001211683               0.000777078               0.000000000               0.000000000               0.000000000               0.000000000               0.000558569               0.000672817              -0.000615276               0.000125360               0.000182483               0.000307843               0.000000000               0.000000000               0.000000000               0.000000000               0.000634870               0.001124448              -0.000793299               0.000097518               0.000342306               0.000439824               0.000000000               0.000000000               0.000000000               0.000000000               0.000584507               0.001701675              -0.000899479               0.000006479               0.000565059               0.000571538               0.000000000               0.000000000               0.000000000               0.000000000               0.000535613               0.002082961              -0.000841378              -0.000059516               0.000714152               0.000654636               0.000000000               0.000000000               0.000000000               0.000000000               0.000494324               0.002349350              -0.000749062              -0.000108298               0.000819208               0.000710910               0.000000000               0.000000000               0.000000000               0.000000000               0.000461668               0.002557743              -0.000660925              -0.000146593               0.000901437               0.000754844               0.000000000               0.000000000               0.000000000               0.000000000               0.000432655               0.002736865              -0.000582171              -0.000179862               0.000972233               0.000792371               0.000000000               0.000000000               0.000000000               0.000000000               0.000400782               0.002888658              -0.000510509              -0.000210789               0.001033139               0.000822350               0.000000000               0.000000000               0.000000000               0.000000000               0.000367852               0.003007881              -0.000446020              -0.000238040               0.001081964               0.000843923               0.000000000               0.000000000               0.000000000               0.000000000               0.000330453               0.003093496              -0.000391008              -0.000262767               0.001118744               0.000855977               0.000000000               0.000000000               0.000000000               0.000000000               0.000290520               0.003150617              -0.000343930              -0.000284881               0.001145156               0.000860274               0.000000000               0.000000000               0.000000000               0.000000000               0.000251909               0.003183258              -0.000296948              -0.000303441               0.001162222               0.000858782               0.000000000               0.000000000               0.000000000               0.000000000               0.000216749               0.003194699              -0.000244919              -0.000318056               0.001170908               0.000852852               0.000000000               0.000000000               0.000000000               0.000000000               0.000178327               0.003196957              -0.000189352              -0.000332746               0.001176557               0.000843811               0.000000000               0.000000000               0.000000000               0.000000000               0.000128992               0.003200334              -0.000131167              -0.000351669               0.001183990               0.000832321               0.000000000               0.000000000               0.000000000               0.000000000               0.000063040               0.003207514              -0.000067904              -0.000377298               0.001194927               0.000817628               0.000000000               0.000000000               0.000000000               0.000000000               0.000005662               0.003199820              -0.000028477              -0.000397853               0.001199214               0.000801361               0.000000000               0.000000000               0.000000000               0.000000000               0.000301726               0.000389512              -0.000408154               0.000064457               0.000108350               0.000172807               0.000000000               0.000000000               0.000000000               0.000000000               0.000551550               0.000788211              -0.000610546               0.000108303               0.000226633               0.000334936               0.000000000               0.000000000               0.000000000               0.000000000               0.000647493               0.001310226              -0.000758572               0.000079030               0.000410394               0.000489424               0.000000000               0.000000000               0.000000000               0.000000000               0.000651777               0.001714234              -0.000744154               0.000030136               0.000561360               0.000591496               0.000000000               0.000000000               0.000000000               0.000000000               0.000627981               0.002021814              -0.000685663              -0.000017235               0.000679676               0.000662441               0.000000000               0.000000000               0.000000000               0.000000000               0.000590929               0.002269655              -0.000618267              -0.000062109               0.000777247               0.000715138               0.000000000               0.000000000               0.000000000               0.000000000               0.000549328               0.002485717              -0.000549861              -0.000104717               0.000863470               0.000758753               0.000000000               0.000000000               0.000000000               0.000000000               0.000507657               0.002671441              -0.000487263              -0.000143558               0.000938324               0.000794766               0.000000000               0.000000000               0.000000000               0.000000000               0.000470869               0.002822953              -0.000431965              -0.000176293               0.000999739               0.000823446               0.000000000               0.000000000               0.000000000               0.000000000               0.000431811               0.002943301              -0.000380995              -0.000205983               0.001049752               0.000843768               0.000000000               0.000000000               0.000000000               0.000000000               0.000388135               0.003040682              -0.000338212              -0.000234534               0.001091728               0.000857194               0.000000000               0.000000000               0.000000000               0.000000000               0.000349591               0.003109127              -0.000301050              -0.000257544               0.001122213               0.000864670               0.000000000               0.000000000               0.000000000               0.000000000               0.000317914               0.003148099              -0.000257930              -0.000274294               0.001140787               0.000866493               0.000000000               0.000000000               0.000000000               0.000000000               0.000287238               0.003172829              -0.000204672              -0.000288889               0.001153895               0.000865007               0.000000000               0.000000000               0.000000000               0.000000000               0.000249680               0.003189563              -0.000144999              -0.000305065               0.001164865               0.000859801               0.000000000               0.000000000               0.000000000               0.000000000               0.000204856               0.003202016              -0.000077481              -0.000323430               0.001175138               0.000851708               0.000000000               0.000000000               0.000000000               0.000000000               0.000167484               0.003200266              -0.000037582              -0.000337226               0.001179153               0.000841927               0.000000000               0.000000000               0.000000000               0.000000000               0.000068932               0.000200050              -0.000239096               0.000000843               0.000066402               0.000067244               0.000000000               0.000000000               0.000000000               0.000000000               0.000466016               0.000534224              -0.000411873               0.000107977               0.000142080               0.000250057               0.000000000               0.000000000               0.000000000               0.000000000               0.000697990               0.000991353              -0.000550158               0.000137826               0.000284506               0.000422331               0.000000000               0.000000000               0.000000000               0.000000000               0.000758786               0.001399586              -0.000561306               0.000109595               0.000429992               0.000539587               0.000000000               0.000000000               0.000000000               0.000000000               0.000752293               0.001729436              -0.000529912               0.000065929               0.000554496               0.000620426               0.000000000               0.000000000               0.000000000               0.000000000               0.000714488               0.002000869              -0.000483045               0.000017824               0.000661008               0.000678832               0.000000000               0.000000000               0.000000000               0.000000000               0.000666286               0.002238499              -0.000432725              -0.000029955               0.000756144               0.000726189               0.000000000               0.000000000               0.000000000               0.000000000               0.000622464               0.002449811              -0.000388526              -0.000072803               0.000840863               0.000768060               0.000000000               0.000000000               0.000000000               0.000000000               0.000581935               0.002633504              -0.000347354              -0.000110962               0.000914813               0.000803851               0.000000000               0.000000000               0.000000000               0.000000000               0.000541466               0.002790559              -0.000305606              -0.000145770               0.000978767               0.000832997               0.000000000               0.000000000               0.000000000               0.000000000               0.000500205               0.002917749              -0.000275282              -0.000177141               0.001031620               0.000854479               0.000000000               0.000000000               0.000000000               0.000000000               0.000461440               0.003014523              -0.000252580              -0.000203775               0.001072756               0.000868981               0.000000000               0.000000000               0.000000000               0.000000000               0.000427812               0.003089592              -0.000220521              -0.000225769               0.001105110               0.000879341               0.000000000               0.000000000               0.000000000               0.000000000               0.000400867               0.003144323              -0.000174302              -0.000242715               0.001129002               0.000886287               0.000000000               0.000000000               0.000000000               0.000000000               0.000378144               0.003178376              -0.000122135              -0.000255492               0.001144612               0.000889120               0.000000000               0.000000000               0.000000000               0.000000000               0.000360811               0.003197986              -0.000065264              -0.000264444               0.001154133               0.000889689               0.000000000               0.000000000               0.000000000               0.000000000               0.000352752               0.003203675              -0.000033678              -0.000268177               0.001157273               0.000889096               0.000000000               0.000000000               0.000000000               0.000000000              -0.000093178               0.000092556              -0.000107122              -0.000046511               0.000046355              -0.000000156               0.000000000               0.000000000               0.000000000               0.000000000               0.000403816               0.000376071              -0.000206949               0.000104421               0.000090549               0.000194970               0.000000000               0.000000000               0.000000000               0.000000000               0.000731491               0.000782588              -0.000290367               0.000176484               0.000202032               0.000378516               0.000000000               0.000000000               0.000000000               0.000000000               0.000833770               0.001185274              -0.000303401               0.000164503               0.000340253               0.000504756               0.000000000               0.000000000               0.000000000               0.000000000               0.000837432               0.001521430              -0.000289789               0.000123857               0.000465853               0.000589710               0.000000000               0.000000000               0.000000000               0.000000000               0.000803163               0.001802964              -0.000264994               0.000075815               0.000575710               0.000651525               0.000000000               0.000000000               0.000000000               0.000000000               0.000757407               0.002049848              -0.000238903               0.000027796               0.000674011               0.000701807               0.000000000               0.000000000               0.000000000               0.000000000               0.000711296               0.002279141              -0.000216434              -0.000018157               0.000765758               0.000747601               0.000000000               0.000000000               0.000000000               0.000000000               0.000664907               0.002491085              -0.000193690              -0.000062046               0.000851035               0.000788990               0.000000000               0.000000000               0.000000000               0.000000000               0.000622814               0.002674273              -0.000170160              -0.000100728               0.000924991               0.000824263               0.000000000               0.000000000               0.000000000               0.000000000               0.000582991               0.002823196              -0.000155594              -0.000134278               0.000985815               0.000851538               0.000000000               0.000000000               0.000000000               0.000000000               0.000539738               0.002942588              -0.000146110              -0.000165421               0.001035993               0.000870572               0.000000000               0.000000000               0.000000000               0.000000000               0.000499938               0.003041114              -0.000128908              -0.000192662               0.001077915               0.000885253               0.000000000               0.000000000               0.000000000               0.000000000               0.000474468               0.003116074              -0.000101877              -0.000211583               0.001109209               0.000897625               0.000000000               0.000000000               0.000000000               0.000000000               0.000468872               0.003165975              -0.000069504              -0.000219919               0.001128621               0.000908702               0.000000000               0.000000000               0.000000000               0.000000000               0.000483146               0.003194929              -0.000035744              -0.000218186               0.001137694               0.000919509               0.000000000               0.000000000               0.000000000               0.000000000               0.000503908               0.003207601              -0.000018942              -0.000211984               0.001139851               0.000927867               0.000000000               0.000000000               0.000000000               0.000000000               0.000000000               0.000000000               0.000000000               0.000000000               0.000000000               0.000000000               0.000000000               0.000000000               0.000000000               0.000000000               0.000000000               0.000000000               0.000000000               0.000000000               0.000000000               0.000000000               0.000000000               0.000000000               0.000000000               0.000000000               0.000000000               0.000000000               0.000000000               0.000000000               0.000000000               0.000000000               0.000000000               0.000000000               0.000000000               0.000000000               0.000000000               0.000000000               0.000000000               0.000000000               0.000000000               0.000000000               0.000000000               0.000000000               0.000000000               0.000000000               0.000000000               0.000000000               0.000000000               0.000000000               0.000000000               0.000000000               0.000000000               0.000000000               0.000000000               0.000000000               0.000000000               0.000000000               0.000000000               0.000000000               0.000000000               0.000000000               0.000000000               0.000000000               0.000000000               0.000000000               0.000000000               0.000000000               0.000000000               0.000000000               0.000000000               0.000000000               0.000000000               0.000000000               0.000000000               0.000000000               0.000000000               0.000000000               0.000000000               0.000000000               0.000000000               0.000000000               0.000000000               0.000000000               0.000000000               0.000000000               0.000000000               0.000000000               0.000000000               0.000000000               0.000000000               0.000000000               0.000000000               0.000000000               0.000000000               0.000000000               0.000000000               0.000000000               0.000000000               0.000000000               0.000000000               0.000000000               0.000000000               0.000000000               0.000000000               0.000000000               0.000000000               0.000000000               0.000000000               0.000000000               0.000000000               0.000000000               0.000000000               0.000000000               0.000000000               0.000000000               0.000000000               0.000000000               0.000000000               0.000000000               0.000000000               0.000000000               0.000000000               0.000000000               0.000000000               0.000000000               0.000000000               0.000000000               0.000000000               0.000000000               0.000000000               0.000000000               0.000000000               0.000000000               0.000000000               0.000000000               0.000000000               0.000000000               0.000000000               0.000000000               0.000000000               0.000000000               0.000000000               0.000000000               0.000000000               0.000000000               0.000000000               0.000000000               0.000000000               0.000000000               0.000000000               0.000000000               0.000000000               0.000000000               0.000000000               0.000000000               0.000000000               0.000000000               0.000000000               0.000000000               0.000000000               0.000000000               0.000000000               0.000000000               0.000000000               0.000000000               0.000000000               0.000000000               0.000000000               0.000000000               0.000000000               0.000000000               0.000000000               0.000000000               0.000000000               0.000000000               0.000000000               0.000000000               0.000000000               0.000000000               0.000000000               0.000000000               0.000000000               0.000000000               0.000000000               0.000000000               0.000000000               0.000000000               0.000000000               0.000000000               0.000000000               0.000000000               0.000000000               0.000000000               0.000000000               0.000000000               0.000000000               0.000000000               0.000000000               0.000000000               0.000000000               0.000000000               0.000000000               0.000000000               0.000000000               0.000000000               0.000000000               0.000000000               0.000000000               0.000000000               0.000000000               0.000000000               0.000000000               0.000000000               0.000000000               0.000000000               0.000000000               0.000000000               0.000000000               0.000000000               0.000000000               0.000000000               0.000000000               0.000000000               0.000000000               0.000000000               0.000000000               0.000000000               0.000000000               0.000000000               0.000000000               0.000000000               0.000000000               0.000000000               0.000000000               0.000000000               0.000000000               0.000000000               0.000000000               0.000000000               0.000000000               0.000000000               0.000000000               0.000000000               0.000000000               0.000000000               0.000000000               0.000000000               0.000000000               0.000000000               0.000000000               0.000000000               0.000000000               0.000000000               0.000000000               0.000000000               0.000000000               0.000000000               0.000000000               0.000000000               0.000000000               0.000000000               0.000000000               0.000000000               0.000000000               0.000000000               0.000000000               0.000000000               0.000000000               0.000000000               0.000000000               0.000000000               0.000000000               0.000000000               0.000000000               0.000000000               0.000000000               0.000000000               0.000000000               0.000000000               0.000000000               0.000000000               0.000000000               0.000000000               0.000000000               0.000000000               0.000000000               0.000000000               0.000000000               0.000000000               0.000000000               0.000000000               0.000000000               0.000000000               0.000000000               0.000000000               0.000000000               0.000000000               0.000000000               0.000000000               0.000000000               0.000000000               0.000000000               0.000000000               0.000000000               0.000000000               0.000000000               0.000000000               0.000000000               0.000000000               0.000000000               0.000000000               0.000000000               0.000000000               0.000000000               0.000000000               0.000000000               0.000000000               0.000000000               0.000000000               0.000000000               0.000000000               0.000000000               0.000000000               0.000000000               0.000000000               0.000000000               0.000000000               0.000000000               0.000000000               0.000000000               0.000000000               0.000000000               0.000000000               0.000000000               0.000000000               0.000000000               0.000000000               0.000000000               0.000000000               0.000000000               0.000000000               0.000000000               0.000000000               0.000000000               0.000000000               0.000638700               0.006988992               0.000533201              -0.000634110               0.002541011               0.001906901               0.000000000               0.000000000               0.000000000               0.000000000               0.000666376               0.005789215               0.000337637              -0.000473760               0.002087639               0.001613879               0.000000000               0.000000000               0.000000000               0.000000000               0.000896422               0.004837270               0.000135366              -0.000268500               0.001701907               0.001433407               0.000000000               0.000000000               0.000000000               0.000000000               0.000921890               0.004314958               0.000042415              -0.000193661               0.001502858               0.001309198               0.000000000               0.000000000               0.000000000               0.000000000               0.000869322               0.004005780              -0.000001087              -0.000174727               0.001393489               0.001218762               0.000000000               0.000000000               0.000000000               0.000000000               0.000790338               0.003813403              -0.000021627              -0.000180298               0.001331221               0.001150923               0.000000000               0.000000000               0.000000000               0.000000000               0.000708205               0.003691421              -0.000031763              -0.000195850               0.001295745               0.001099895               0.000000000               0.000000000               0.000000000               0.000000000               0.000626315               0.003614140              -0.000036057              -0.000216899               0.001277001               0.001060102               0.000000000               0.000000000               0.000000000               0.000000000               0.000546477               0.003562847              -0.000034931              -0.000240427               0.001267746               0.001027320               0.000000000               0.000000000               0.000000000               0.000000000               0.000472149               0.003528174              -0.000034132              -0.000263965               0.001264035               0.001000069               0.000000000               0.000000000               0.000000000               0.000000000               0.000399838               0.003506865              -0.000035107              -0.000288418               0.001265083               0.000976665               0.000000000               0.000000000               0.000000000               0.000000000               0.000325029               0.003495004              -0.000034775              -0.000314989               0.001269986               0.000954997               0.000000000               0.000000000               0.000000000               0.000000000               0.000252280               0.003489172              -0.000032695              -0.000341541               0.001276892               0.000935352               0.000000000               0.000000000               0.000000000               0.000000000               0.000184230               0.003486170              -0.000028407              -0.000366684               0.001284273               0.000917589               0.000000000               0.000000000               0.000000000               0.000000000               0.000118676               0.003481554              -0.000022325              -0.000390690               0.001290736               0.000900047               0.000000000               0.000000000               0.000000000               0.000000000               0.000057372               0.003474906              -0.000012996              -0.000412848               0.001295906               0.000883059               0.000000000               0.000000000               0.000000000               0.000000000               0.000028914               0.003471626              -0.000006792              -0.000423110               0.001298234               0.000875124               0.000000000               0.000000000               0.000000000               0.000000000               0.000740671               0.006632427               0.001008162              -0.000551301               0.002394554               0.001843253               0.000000000               0.000000000               0.000000000               0.000000000               0.000693379               0.005538830               0.000639645              -0.000432336               0.001990370               0.001558034               0.000000000               0.000000000               0.000000000               0.000000000               0.000841036               0.004701125               0.000262863              -0.000272251               0.001657776               0.001385525               0.000000000               0.000000000               0.000000000               0.000000000               0.000831891               0.004239482               0.000093455              -0.000217976               0.001485805               0.001267830               0.000000000               0.000000000               0.000000000               0.000000000               0.000770197               0.003966164               0.000013874              -0.000206946               0.001391023               0.001184077               0.000000000               0.000000000               0.000000000               0.000000000               0.000692181               0.003794688              -0.000024000              -0.000214768               0.001336472               0.001121705               0.000000000               0.000000000               0.000000000               0.000000000               0.000616737               0.003684280              -0.000043097              -0.000229258               0.001304500               0.001075243               0.000000000               0.000000000               0.000000000               0.000000000               0.000542951               0.003610196              -0.000052230              -0.000247667               0.001285942               0.001038275               0.000000000               0.000000000               0.000000000               0.000000000               0.000472116               0.003560782              -0.000051776              -0.000268054               0.001276267               0.001008213               0.000000000               0.000000000               0.000000000               0.000000000               0.000406758               0.003527585              -0.000049538              -0.000288413               0.001271988               0.000983574               0.000000000               0.000000000               0.000000000               0.000000000               0.000342481               0.003506872              -0.000050679              -0.000309928               0.001272255               0.000962327               0.000000000               0.000000000               0.000000000               0.000000000               0.000277382               0.003496891              -0.000050259              -0.000333092               0.001276649               0.000943557               0.000000000               0.000000000               0.000000000               0.000000000               0.000215058               0.003493518              -0.000046142              -0.000356042               0.001283175               0.000927133               0.000000000               0.000000000               0.000000000               0.000000000               0.000156701               0.003492882              -0.000038187              -0.000377847               0.001290231               0.000912385               0.000000000               0.000000000               0.000000000               0.000000000               0.000101492               0.003493930              -0.000028700              -0.000398681               0.001297525               0.000898844               0.000000000               0.000000000               0.000000000               0.000000000               0.000049800               0.003499676              -0.000016710              -0.000418783               0.001306141               0.000887358               0.000000000               0.000000000               0.000000000               0.000000000               0.000028182               0.003511203              -0.000007575              -0.000428331               0.001313166               0.000884835               0.000000000               0.000000000               0.000000000               0.000000000               0.000878245               0.006085002               0.001377332              -0.000431283               0.002172074               0.001740791               0.000000000               0.000000000               0.000000000               0.000000000               0.000723876               0.005162246               0.000880851              -0.000373827               0.001845340               0.001471514               0.000000000               0.000000000               0.000000000               0.000000000               0.000755045               0.004500426               0.000377420              -0.000279411               0.001593264               0.001313853               0.000000000               0.000000000               0.000000000               0.000000000               0.000704068               0.004130126               0.000154997              -0.000252240               0.001460775               0.001208535               0.000000000               0.000000000               0.000000000               0.000000000               0.000635658               0.003904963               0.000050297              -0.000249748               0.001384891               0.001135143               0.000000000               0.000000000               0.000000000               0.000000000               0.000561150               0.003757737              -0.000000516              -0.000259285               0.001338995               0.001079709               0.000000000               0.000000000               0.000000000               0.000000000               0.000492614               0.003659163              -0.000026388              -0.000272665               0.001310597               0.001037932               0.000000000               0.000000000               0.000000000               0.000000000               0.000431731               0.003592880              -0.000038950              -0.000287210               0.001293351               0.001006141               0.000000000               0.000000000               0.000000000               0.000000000               0.000372064               0.003548435              -0.000039176              -0.000304030               0.001284143               0.000980114               0.000000000               0.000000000               0.000000000               0.000000000               0.000316212               0.003519068              -0.000035145              -0.000321303               0.001280112               0.000958809               0.000000000               0.000000000               0.000000000               0.000000000               0.000264675               0.003500184              -0.000036795              -0.000338269               0.001279473               0.000941204               0.000000000               0.000000000               0.000000000               0.000000000               0.000214675               0.003490167              -0.000038168              -0.000355767               0.001281966               0.000926200               0.000000000               0.000000000               0.000000000               0.000000000               0.000168748               0.003488149              -0.000033896              -0.000372737               0.001286950               0.000914213               0.000000000               0.000000000               0.000000000               0.000000000               0.000126264               0.003492425              -0.000025258              -0.000389203               0.001293864               0.000904661               0.000000000               0.000000000               0.000000000               0.000000000               0.000085043               0.003504846              -0.000016459              -0.000406214               0.001303675               0.000897461               0.000000000               0.000000000               0.000000000               0.000000000               0.000043158               0.003527850              -0.000009435              -0.000424796               0.001317537               0.000892741               0.000000000               0.000000000               0.000000000               0.000000000               0.000028223               0.003555071              -0.000002678              -0.000433799               0.001329612               0.000895812               0.000000000               0.000000000               0.000000000               0.000000000               0.001016369               0.005411648               0.001620019              -0.000295318               0.001902304               0.001606985               0.000000000               0.000000000               0.000000000               0.000000000               0.000745984               0.004708050               0.001053635              -0.000308762               0.001672255               0.001363493               0.000000000               0.000000000               0.000000000               0.000000000               0.000654009               0.004262265               0.000478978              -0.000287529               0.001516584               0.001229055               0.000000000               0.000000000               0.000000000               0.000000000               0.000566397               0.003992521               0.000228233              -0.000286665               0.001426382               0.001139717               0.000000000               0.000000000               0.000000000               0.000000000               0.000494145               0.003818253               0.000110883              -0.000291976               0.001370064               0.001078087               0.000000000               0.000000000               0.000000000               0.000000000               0.000430472               0.003696665               0.000052388              -0.000300655               0.001332428               0.001031773               0.000000000               0.000000000               0.000000000               0.000000000               0.000372553               0.003612430               0.000021462              -0.000311846               0.001308080               0.000996234               0.000000000               0.000000000               0.000000000               0.000000000               0.000320201               0.003556015               0.000005032              -0.000324426               0.001293468               0.000969043               0.000000000               0.000000000               0.000000000               0.000000000               0.000271970               0.003519430               0.000000351              -0.000337939               0.001285778               0.000947839               0.000000000               0.000000000               0.000000000               0.000000000               0.000229025               0.003500385               0.000003177              -0.000351663               0.001284004               0.000932341               0.000000000               0.000000000               0.000000000               0.000000000               0.000191658               0.003487784               0.000001564              -0.000364100               0.001283950               0.000919849               0.000000000               0.000000000               0.000000000               0.000000000               0.000159130               0.003481216              -0.000002801              -0.000375477               0.001285553               0.000910076               0.000000000               0.000000000               0.000000000               0.000000000               0.000130587               0.003483266              -0.000001899              -0.000386437               0.001289890               0.000903452               0.000000000               0.000000000               0.000000000               0.000000000               0.000102835               0.003495098               0.000002722              -0.000398323               0.001297795               0.000899472               0.000000000               0.000000000               0.000000000               0.000000000               0.000072428               0.003518711               0.000006528              -0.000412677               0.001310451               0.000897774               0.000000000               0.000000000               0.000000000               0.000000000               0.000037068               0.003553015               0.000005545              -0.000430225               0.001327735               0.000897510               0.000000000               0.000000000               0.000000000               0.000000000               0.000026035               0.003585997               0.000007858              -0.000438485               0.001341482               0.000902997               0.000000000               0.000000000               0.000000000               0.000000000               0.001130588               0.004681860               0.001736084              -0.000161264               0.001614359               0.001453095               0.000000000               0.000000000               0.000000000               0.000000000               0.000756654               0.004221311               0.001156618              -0.000243919               0.001488396               0.001244477               0.000000000               0.000000000               0.000000000               0.000000000               0.000549349               0.004004568               0.000566998              -0.000294565               0.001433031               0.001138466               0.000000000               0.000000000               0.000000000               0.000000000               0.000437930               0.003834757               0.000312499              -0.000315120               0.001383280               0.001068159               0.000000000               0.000000000               0.000000000               0.000000000               0.000371303               0.003707611               0.000190733              -0.000324212               0.001343928               0.001019717               0.000000000               0.000000000               0.000000000               0.000000000               0.000319869               0.003612455               0.000126260              -0.000331605               0.001314675               0.000983069               0.000000000               0.000000000               0.000000000               0.000000000               0.000276063               0.003551770               0.000089867              -0.000340447               0.001297394               0.000956947               0.000000000               0.000000000               0.000000000               0.000000000               0.000238017               0.003511561               0.000067433              -0.000349688               0.001287071               0.000937383               0.000000000               0.000000000               0.000000000               0.000000000               0.000202647               0.003487934               0.000054772              -0.000359998               0.001282632               0.000922634               0.000000000               0.000000000               0.000000000               0.000000000               0.000170418               0.003477115               0.000053719              -0.000370732               0.001282604               0.000911872               0.000000000               0.000000000               0.000000000               0.000000000               0.000144751               0.003471170               0.000052949              -0.000379614               0.001283583               0.000903969               0.000000000               0.000000000               0.000000000               0.000000000               0.000123615               0.003469208               0.000045994              -0.000387295               0.001285489               0.000898195               0.000000000               0.000000000               0.000000000               0.000000000               0.000105898               0.003475929               0.000042033              -0.000394778               0.001290224               0.000895446               0.000000000               0.000000000               0.000000000               0.000000000               0.000086315               0.003492717               0.000039617              -0.000404220               0.001298968               0.000894747               0.000000000               0.000000000               0.000000000               0.000000000               0.000060185               0.003517251               0.000034364              -0.000417086               0.001311434               0.000894348               0.000000000               0.000000000               0.000000000               0.000000000               0.000031205               0.003543985               0.000022093              -0.000431295               0.001325082               0.000893786               0.000000000               0.000000000               0.000000000               0.000000000               0.000020387               0.003561800               0.000015306              -0.000437579               0.001333114               0.000895536               0.000000000               0.000000000               0.000000000               0.000000000               0.001197477               0.003952376               0.001735064              -0.000044995               0.001332444               0.001287448               0.000000000               0.000000000               0.000000000               0.000000000               0.000751556               0.003738317               0.001198149              -0.000185457               0.001307912               0.001122455               0.000000000               0.000000000               0.000000000               0.000000000               0.000455596               0.003740232               0.000645300              -0.000296680               0.001345625               0.001048945               0.000000000               0.000000000               0.000000000               0.000000000               0.000335713               0.003661917               0.000402143              -0.000331846               0.001331242               0.000999396               0.000000000               0.000000000               0.000000000               0.000000000               0.000280832               0.003581036               0.000278035              -0.000342317               0.001307772               0.000965456               0.000000000               0.000000000               0.000000000               0.000000000               0.000246133               0.003521864               0.000204663              -0.000347932               0.001289920               0.000941988               0.000000000               0.000000000               0.000000000               0.000000000               0.000216227               0.003487866               0.000159118              -0.000354897               0.001280910               0.000926012               0.000000000               0.000000000               0.000000000               0.000000000               0.000188317               0.003466160               0.000131949              -0.000362650               0.001276258               0.000913608               0.000000000               0.000000000               0.000000000               0.000000000               0.000162759               0.003454748               0.000114361              -0.000370808               0.001275174               0.000904366               0.000000000               0.000000000               0.000000000               0.000000000               0.000140438               0.003450288               0.000109479              -0.000378621               0.001276292               0.000897671               0.000000000               0.000000000               0.000000000               0.000000000               0.000122878               0.003449771               0.000107266              -0.000385141               0.001278292               0.000893151               0.000000000               0.000000000               0.000000000               0.000000000               0.000105629               0.003451511               0.000095902              -0.000391827               0.001281101               0.000889274               0.000000000               0.000000000               0.000000000               0.000000000               0.000086279               0.003458164               0.000080907              -0.000399915               0.001286015               0.000886100               0.000000000               0.000000000               0.000000000               0.000000000               0.000064719               0.003470874               0.000064711              -0.000409589               0.001293476               0.000883887               0.000000000               0.000000000               0.000000000               0.000000000               0.000039624               0.003482419               0.000045037              -0.000420443               0.001300942               0.000880500               0.000000000               0.000000000               0.000000000               0.000000000               0.000018148               0.003484580               0.000023677              -0.000428766               0.001304437               0.000875671               0.000000000               0.000000000               0.000000000               0.000000000               0.000004953               0.003474950               0.000010468              -0.000432510               0.001302475               0.000869965               0.000000000               0.000000000               0.000000000               0.000000000               0.001209085               0.003257170               0.001637409               0.000046258               0.001070292               0.001116551               0.000000000               0.000000000               0.000000000               0.000000000               0.000731087               0.003285285               0.001193448              -0.000136504               0.001140585               0.001004081               0.000000000               0.000000000               0.000000000               0.000000000               0.000384971               0.003483214               0.000717487              -0.000291038               0.001258072               0.000967035               0.000000000               0.000000000               0.000000000               0.000000000               0.000271185               0.003484424               0.000488292              -0.000333858               0.001272749               0.000938891               0.000000000               0.000000000               0.000000000               0.000000000               0.000232740               0.003453493               0.000358551              -0.000344409               0.001265956               0.000921547               0.000000000               0.000000000               0.000000000               0.000000000               0.000211409               0.003432923               0.000275567              -0.000349836               0.001260908               0.000911072               0.000000000               0.000000000               0.000000000               0.000000000               0.000190295               0.003422266               0.000222504              -0.000356422               0.001259551               0.000903130               0.000000000               0.000000000               0.000000000               0.000000000               0.000168401               0.003419814               0.000192558              -0.000364326               0.001261369               0.000897043               0.000000000               0.000000000               0.000000000               0.000000000               0.000148469               0.003419992               0.000170073              -0.000371822               0.001263927               0.000892104               0.000000000               0.000000000               0.000000000               0.000000000               0.000131278               0.003418565               0.000154951              -0.000378090               0.001265540               0.000887450               0.000000000               0.000000000               0.000000000               0.000000000               0.000110870               0.003417880               0.000142462              -0.000385658               0.001267835               0.000882177               0.000000000               0.000000000               0.000000000               0.000000000               0.000086218               0.003418863               0.000119871              -0.000395025               0.001271285               0.000876259               0.000000000               0.000000000               0.000000000               0.000000000               0.000058726               0.003421020               0.000090163              -0.000405604               0.001275530               0.000869926               0.000000000               0.000000000               0.000000000               0.000000000               0.000030610               0.003419343               0.000058648              -0.000415938               0.001278415               0.000862478               0.000000000               0.000000000               0.000000000               0.000000000               0.000007343               0.003409091               0.000028451              -0.000423382               0.001277480               0.000854098               0.000000000               0.000000000               0.000000000               0.000000000              -0.000003443               0.003386611               0.000007639              -0.000424616               0.001270398               0.000845781               0.000000000               0.000000000               0.000000000               0.000000000              -0.000010067               0.003363472              -0.000002270              -0.000424208               0.001262549               0.000838341               0.000000000               0.000000000               0.000000000               0.000000000               0.001187628               0.002647589               0.001478131               0.000114409               0.000844384               0.000958793               0.000000000               0.000000000               0.000000000               0.000000000               0.000720325               0.002881595               0.001165416              -0.000090079               0.000990548               0.000900469               0.000000000               0.000000000               0.000000000               0.000000000               0.000358299               0.003249279               0.000796968              -0.000271798               0.001173681               0.000901884               0.000000000               0.000000000               0.000000000               0.000000000               0.000253420               0.003331177               0.000580129              -0.000321364               0.001217502               0.000896138               0.000000000               0.000000000               0.000000000               0.000000000               0.000222315               0.003350764               0.000440649              -0.000335476               0.001228736               0.000893259               0.000000000               0.000000000               0.000000000               0.000000000               0.000206364               0.003362079               0.000347970              -0.000342873               0.001234973               0.000892100               0.000000000               0.000000000               0.000000000               0.000000000               0.000188668               0.003373449               0.000287284              -0.000350930               0.001241448               0.000890518               0.000000000               0.000000000               0.000000000               0.000000000               0.000175017               0.003389274               0.000250048              -0.000358027               0.001249089               0.000891062               0.000000000               0.000000000               0.000000000               0.000000000               0.000160478               0.003399671               0.000220402              -0.000364779               0.001254805               0.000890026               0.000000000               0.000000000               0.000000000               0.000000000               0.000143098               0.003398044               0.000192198              -0.000371093               0.001256368               0.000885275               0.000000000               0.000000000               0.000000000               0.000000000               0.000117226               0.003391179               0.000164301              -0.000379937               0.001257027               0.000877091               0.000000000               0.000000000               0.000000000               0.000000000               0.000083664               0.003388437               0.000130044              -0.000392180               0.001260194               0.000868015               0.000000000               0.000000000               0.000000000               0.000000000               0.000045579               0.003383653               0.000090577              -0.000405863               0.001263161               0.000857297               0.000000000               0.000000000               0.000000000               0.000000000               0.000006161               0.003369193               0.000051384              -0.000418838               0.001262666               0.000843828               0.000000000               0.000000000               0.000000000               0.000000000              -0.000027825               0.003341660               0.000019289              -0.000428141               0.001256589               0.000828448               0.000000000               0.000000000               0.000000000               0.000000000              -0.000047780               0.003300220               0.000000496              -0.000430444               0.001243544               0.000813100               0.000000000               0.000000000               0.000000000               0.000000000              -0.000052370               0.003274238              -0.000005857              -0.000428917               0.001234374               0.000805457               0.000000000               0.000000000               0.000000000               0.000000000               0.001122358               0.002064661               0.001289915               0.000162799               0.000633946               0.000796745               0.000000000               0.000000000               0.000000000               0.000000000               0.000724258               0.002417757               0.001127033              -0.000030624               0.000816119               0.000785494               0.000000000               0.000000000               0.000000000               0.000000000               0.000382752               0.002909446               0.000890628              -0.000220149               0.001043188               0.000823039               0.000000000               0.000000000               0.000000000               0.000000000               0.000280410               0.003091757               0.000693034              -0.000281316               0.001124347               0.000843031               0.000000000               0.000000000               0.000000000               0.000000000               0.000244693               0.003171493               0.000546021              -0.000304676               0.001158713               0.000854036               0.000000000               0.000000000               0.000000000               0.000000000               0.000230450               0.003221119               0.000442113              -0.000316220               0.001179102               0.000862882               0.000000000               0.000000000               0.000000000               0.000000000               0.000217572               0.003268374               0.000370969              -0.000326957               0.001198433               0.000871476               0.000000000               0.000000000               0.000000000               0.000000000               0.000206554               0.003312645               0.000320430              -0.000336622               0.001216411               0.000879789               0.000000000               0.000000000               0.000000000               0.000000000               0.000190331               0.003339636               0.000277377              -0.000346080               0.001228561               0.000882481               0.000000000               0.000000000               0.000000000               0.000000000               0.000168646               0.003345304               0.000237068              -0.000354920               0.001233397               0.000878477               0.000000000               0.000000000               0.000000000               0.000000000               0.000138955               0.003335860               0.000197388              -0.000364873               0.001233567               0.000868693               0.000000000               0.000000000               0.000000000               0.000000000               0.000100728               0.003323525               0.000156674              -0.000377667               0.001233720               0.000856053               0.000000000               0.000000000               0.000000000               0.000000000               0.000055191               0.003310480               0.000111981              -0.000393112               0.001234520               0.000841407               0.000000000               0.000000000               0.000000000               0.000000000               0.000006082               0.003298547               0.000067690              -0.000410037               0.001236183               0.000826147               0.000000000               0.000000000               0.000000000               0.000000000              -0.000042173               0.003279626               0.000032667              -0.000425767               0.001235120               0.000809353               0.000000000               0.000000000               0.000000000               0.000000000              -0.000084450               0.003250366               0.000009972              -0.000437963               0.001229432               0.000791469               0.000000000               0.000000000               0.000000000               0.000000000              -0.000105731               0.003230128              -0.000000300              -0.000443414               0.001224503               0.000781089               0.000000000               0.000000000               0.000000000               0.000000000               0.000991641               0.001524584               0.001076568               0.000181290               0.000447759               0.000629049               0.000000000               0.000000000               0.000000000               0.000000000               0.000723585               0.001957619               0.001059273               0.000026640               0.000643652               0.000670293               0.000000000               0.000000000               0.000000000               0.000000000               0.000442126               0.002534208               0.000960140              -0.000150979               0.000895054               0.000744074               0.000000000               0.000000000               0.000000000               0.000000000               0.000342508               0.002807527               0.000800254              -0.000222501               0.001010000               0.000787499               0.000000000               0.000000000               0.000000000               0.000000000               0.000298636               0.002951002               0.000657971              -0.000256887               0.001069286               0.000812400               0.000000000               0.000000000               0.000000000               0.000000000               0.000277206               0.003049822               0.000547560              -0.000277275               0.001109022               0.000831747               0.000000000               0.000000000               0.000000000               0.000000000               0.000264856               0.003139517               0.000466354              -0.000293118               0.001144201               0.000851083               0.000000000               0.000000000               0.000000000               0.000000000               0.000249954               0.003215121               0.000401434              -0.000308157               0.001174415               0.000866258               0.000000000               0.000000000               0.000000000               0.000000000               0.000228741               0.003264089               0.000345556              -0.000322232               0.001195430               0.000873197               0.000000000               0.000000000               0.000000000               0.000000000               0.000203666               0.003288600               0.000296355              -0.000334699               0.001207755               0.000873056               0.000000000               0.000000000               0.000000000               0.000000000               0.000175899               0.003292707               0.000249938              -0.000345625               0.001212767               0.000867141               0.000000000               0.000000000               0.000000000               0.000000000               0.000142849               0.003280971               0.000204387              -0.000356552               0.001212497               0.000855945               0.000000000               0.000000000               0.000000000               0.000000000               0.000099109               0.003264350               0.000155265              -0.000370877               0.001211731               0.000840854               0.000000000               0.000000000               0.000000000               0.000000000               0.000046250               0.003252436               0.000106062              -0.000389210               0.001213871               0.000824661               0.000000000               0.000000000               0.000000000               0.000000000              -0.000013929               0.003241261               0.000063139              -0.000410380               0.001217203               0.000806823               0.000000000               0.000000000               0.000000000               0.000000000              -0.000079383               0.003227811               0.000028165              -0.000433244               0.001220341               0.000787097               0.000000000               0.000000000               0.000000000               0.000000000              -0.000127318               0.003210171               0.000006735              -0.000449014               0.001219718               0.000770703               0.000000000               0.000000000               0.000000000               0.000000000               0.000798744               0.001053945               0.000845184               0.000167784               0.000295383               0.000463167               0.000000000               0.000000000               0.000000000               0.000000000               0.000694375               0.001521489               0.000946284               0.000070203               0.000483756               0.000553959               0.000000000               0.000000000               0.000000000               0.000000000               0.000512699               0.002122958               0.000966078              -0.000073109               0.000732015               0.000658906               0.000000000               0.000000000               0.000000000               0.000000000               0.000429486               0.002461740               0.000856538              -0.000146661               0.000869458               0.000722798               0.000000000               0.000000000               0.000000000               0.000000000               0.000382210               0.002671315               0.000733445              -0.000190586               0.000953958               0.000763372               0.000000000               0.000000000               0.000000000               0.000000000               0.000353720               0.002827661               0.000629040              -0.000220812               0.001016148               0.000795336               0.000000000               0.000000000               0.000000000               0.000000000               0.000335346               0.002961141               0.000545821              -0.000244388               0.001068500               0.000824112               0.000000000               0.000000000               0.000000000               0.000000000               0.000314556               0.003072253               0.000473683              -0.000266073               0.001112765               0.000846692               0.000000000               0.000000000               0.000000000               0.000000000               0.000287496               0.003156135               0.000409245              -0.000286705               0.001147603               0.000860898               0.000000000               0.000000000               0.000000000               0.000000000               0.000254661               0.003210772               0.000353665              -0.000305848               0.001172196               0.000866348               0.000000000               0.000000000               0.000000000               0.000000000               0.000222169               0.003233858               0.000305737              -0.000320918               0.001184915               0.000863997               0.000000000               0.000000000               0.000000000               0.000000000               0.000189292               0.003235822               0.000257113              -0.000333493               0.001189761               0.000856268               0.000000000               0.000000000               0.000000000               0.000000000               0.000150647               0.003228803               0.000202344              -0.000347107               0.001191959               0.000844852               0.000000000               0.000000000               0.000000000               0.000000000               0.000102721               0.003220954               0.000147767              -0.000364098               0.001195007               0.000830909               0.000000000               0.000000000               0.000000000               0.000000000               0.000042549               0.003214905               0.000097180              -0.000385906               0.001200260               0.000814353               0.000000000               0.000000000               0.000000000               0.000000000              -0.000031389               0.003213042               0.000047783              -0.000413400               0.001208803               0.000795403               0.000000000               0.000000000               0.000000000               0.000000000              -0.000092125               0.003200476               0.000015263              -0.000434605               0.001211683               0.000777078               0.000000000               0.000000000               0.000000000               0.000000000               0.000558569               0.000672817               0.000615276               0.000125360               0.000182483               0.000307843               0.000000000               0.000000000               0.000000000               0.000000000               0.000634870               0.001124448               0.000793299               0.000097518               0.000342306               0.000439824               0.000000000               0.000000000               0.000000000               0.000000000               0.000584507               0.001701675               0.000899479               0.000006479               0.000565059               0.000571538               0.000000000               0.000000000               0.000000000               0.000000000               0.000535613               0.002082961               0.000841378              -0.000059516               0.000714152               0.000654636               0.000000000               0.000000000               0.000000000               0.000000000               0.000494324               0.002349350               0.000749062              -0.000108298               0.000819208               0.000710910               0.000000000               0.000000000               0.000000000               0.000000000               0.000461668               0.002557743               0.000660925              -0.000146593               0.000901437               0.000754844               0.000000000               0.000000000               0.000000000               0.000000000               0.000432655               0.002736865               0.000582171              -0.000179862               0.000972233               0.000792371               0.000000000               0.000000000               0.000000000               0.000000000               0.000400782               0.002888658               0.000510509              -0.000210789               0.001033139               0.000822350               0.000000000               0.000000000               0.000000000               0.000000000               0.000367852               0.003007881               0.000446020              -0.000238040               0.001081964               0.000843923               0.000000000               0.000000000               0.000000000               0.000000000               0.000330453               0.003093496               0.000391008              -0.000262767               0.001118744               0.000855977               0.000000000               0.000000000               0.000000000               0.000000000               0.000290520               0.003150617               0.000343930              -0.000284881               0.001145156               0.000860274               0.000000000               0.000000000               0.000000000               0.000000000               0.000251909               0.003183258               0.000296948              -0.000303441               0.001162222               0.000858782               0.000000000               0.000000000               0.000000000               0.000000000               0.000216749               0.003194699               0.000244919              -0.000318056               0.001170908               0.000852852               0.000000000               0.000000000               0.000000000               0.000000000               0.000178327               0.003196957               0.000189352              -0.000332746               0.001176557               0.000843811               0.000000000               0.000000000               0.000000000               0.000000000               0.000128992               0.003200334               0.000131167              -0.000351669               0.001183990               0.000832321               0.000000000               0.000000000               0.000000000               0.000000000               0.000063040               0.003207514               0.000067904              -0.000377298               0.001194927               0.000817628               0.000000000               0.000000000               0.000000000               0.000000000               0.000005662               0.003199820               0.000028477              -0.000397853               0.001199214               0.000801361               0.000000000               0.000000000               0.000000000               0.000000000               0.000301726               0.000389512               0.000408154               0.000064457               0.000108350               0.000172807               0.000000000               0.000000000               0.000000000               0.000000000               0.000551550               0.000788211               0.000610546               0.000108303               0.000226633               0.000334936               0.000000000               0.000000000               0.000000000               0.000000000               0.000647493               0.001310226               0.000758572               0.000079030               0.000410394               0.000489424               0.000000000               0.000000000               0.000000000               0.000000000               0.000651777               0.001714234               0.000744154               0.000030136               0.000561360               0.000591496               0.000000000               0.000000000               0.000000000               0.000000000               0.000627981               0.002021814               0.000685663              -0.000017235               0.000679676               0.000662441               0.000000000               0.000000000               0.000000000               0.000000000               0.000590929               0.002269655               0.000618267              -0.000062109               0.000777247               0.000715138               0.000000000               0.000000000               0.000000000               0.000000000               0.000549328               0.002485717               0.000549861              -0.000104717               0.000863470               0.000758753               0.000000000               0.000000000               0.000000000               0.000000000               0.000507657               0.002671441               0.000487263              -0.000143558               0.000938324               0.000794766               0.000000000               0.000000000               0.000000000               0.000000000               0.000470869               0.002822953               0.000431965              -0.000176293               0.000999739               0.000823446               0.000000000               0.000000000               0.000000000               0.000000000               0.000431811               0.002943301               0.000380995              -0.000205983               0.001049752               0.000843768               0.000000000               0.000000000               0.000000000               0.000000000               0.000388135               0.003040682               0.000338212              -0.000234534               0.001091728               0.000857194               0.000000000               0.000000000               0.000000000               0.000000000               0.000349591               0.003109127               0.000301050              -0.000257544               0.001122213               0.000864670               0.000000000               0.000000000               0.000000000               0.000000000               0.000317914               0.003148099               0.000257930              -0.000274294               0.001140787               0.000866493               0.000000000               0.000000000               0.000000000               0.000000000               0.000287238               0.003172829               0.000204672              -0.000288889               0.001153895               0.000865007               0.000000000               0.000000000               0.000000000               0.000000000               0.000249680               0.003189563               0.000144999              -0.000305065               0.001164865               0.000859801               0.000000000               0.000000000               0.000000000               0.000000000               0.000204856               0.003202016               0.000077481              -0.000323430               0.001175138               0.000851708               0.000000000               0.000000000               0.000000000               0.000000000               0.000167484               0.003200266               0.000037582              -0.000337226               0.001179153               0.000841927               0.000000000               0.000000000               0.000000000               0.000000000               0.000068932               0.000200050               0.000239096               0.000000843               0.000066402               0.000067244               0.000000000               0.000000000               0.000000000               0.000000000               0.000466016               0.000534224               0.000411873               0.000107977               0.000142080               0.000250057               0.000000000               0.000000000               0.000000000               0.000000000               0.000697990               0.000991353               0.000550158               0.000137826               0.000284506               0.000422331               0.000000000               0.000000000               0.000000000               0.000000000               0.000758786               0.001399586               0.000561306               0.000109595               0.000429992               0.000539587               0.000000000               0.000000000               0.000000000               0.000000000               0.000752293               0.001729436               0.000529912               0.000065929               0.000554496               0.000620426               0.000000000               0.000000000               0.000000000               0.000000000               0.000714488               0.002000869               0.000483045               0.000017824               0.000661008               0.000678832               0.000000000               0.000000000               0.000000000               0.000000000               0.000666286               0.002238499               0.000432725              -0.000029955               0.000756144               0.000726189               0.000000000               0.000000000               0.000000000               0.000000000               0.000622464               0.002449811               0.000388526              -0.000072803               0.000840863               0.000768060               0.000000000               0.000000000               0.000000000               0.000000000               0.000581935               0.002633504               0.000347354              -0.000110962               0.000914813               0.000803851               0.000000000               0.000000000               0.000000000               0.000000000               0.000541466               0.002790559               0.000305606              -0.000145770               0.000978767               0.000832997               0.000000000               0.000000000               0.000000000               0.000000000               0.000500205               0.002917749               0.000275282              -0.000177141               0.001031620               0.000854479               0.000000000               0.000000000               0.000000000               0.000000000               0.000461440               0.003014523               0.000252580              -0.000203775               0.001072756               0.000868981               0.000000000               0.000000000               0.000000000               0.000000000               0.000427812               0.003089592               0.000220521              -0.000225769               0.001105110               0.000879341               0.000000000               0.000000000               0.000000000               0.000000000               0.000400867               0.003144323               0.000174302              -0.000242715               0.001129002               0.000886287               0.000000000               0.000000000               0.000000000               0.000000000               0.000378144               0.003178376               0.000122135              -0.000255492               0.001144612               0.000889120               0.000000000               0.000000000               0.000000000               0.000000000               0.000360811               0.003197986               0.000065264              -0.000264444               0.001154133               0.000889689               0.000000000               0.000000000               0.000000000               0.000000000               0.000352752               0.003203675               0.000033678              -0.000268177               0.001157273               0.000889096               0.000000000               0.000000000               0.000000000               0.000000000              -0.000093178               0.000092556               0.000107122              -0.000046511               0.000046355              -0.000000156               0.000000000               0.000000000               0.000000000               0.000000000               0.000403816               0.000376071               0.000206949               0.000104421               0.000090549               0.000194970               0.000000000               0.000000000               0.000000000               0.000000000               0.000731491               0.000782588               0.000290367               0.000176484               0.000202032               0.000378516               0.000000000               0.000000000               0.000000000               0.000000000               0.000833770               0.001185274               0.000303401               0.000164503               0.000340253               0.000504756               0.000000000               0.000000000               0.000000000               0.000000000               0.000837432               0.001521430               0.000289789               0.000123857               0.000465853               0.000589710               0.000000000               0.000000000               0.000000000               0.000000000               0.000803163               0.001802964               0.000264994               0.000075815               0.000575710               0.000651525               0.000000000               0.000000000               0.000000000               0.000000000               0.000757407               0.002049848               0.000238903               0.000027796               0.000674011               0.000701807               0.000000000               0.000000000               0.000000000               0.000000000               0.000711296               0.002279141               0.000216434              -0.000018157               0.000765758               0.000747601               0.000000000               0.000000000               0.000000000               0.000000000               0.000664907               0.002491085               0.000193690              -0.000062046               0.000851035               0.000788990               0.000000000               0.000000000               0.000000000               0.000000000               0.000622814               0.002674273               0.000170160              -0.000100728               0.000924991               0.000824263               0.000000000               0.000000000               0.000000000               0.000000000               0.000582991               0.002823196               0.000155594              -0.000134278               0.000985815               0.000851538               0.000000000               0.000000000               0.000000000               0.000000000               0.000539738               0.002942588               0.000146110              -0.000165421               0.001035993               0.000870572               0.000000000               0.000000000               0.000000000               0.000000000               0.000499938               0.003041114               0.000128908              -0.000192662               0.001077915               0.000885253               0.000000000               0.000000000               0.000000000               0.000000000               0.000474468               0.003116074               0.000101877              -0.000211583               0.001109209               0.000897625               0.000000000               0.000000000               0.000000000               0.000000000               0.000468872               0.003165975               0.000069504              -0.000219919               0.001128621               0.000908702               0.000000000               0.000000000               0.000000000               0.000000000               0.000483146               0.003194929               0.000035744              -0.000218186               0.001137694               0.000919509               0.000000000               0.000000000               0.000000000               0.000000000               0.000503908               0.003207601               0.000018942              -0.000211984               0.001139851               0.000927867               0.000000000               0.000000000               0.000000000               0.000000000               0.000000000               0.000000000               0.000000000               0.000000000               0.000000000               0.000000000               0.000000000               0.000000000               0.000000000               0.000000000               0.000000000               0.000000000               0.000000000               0.000000000               0.000000000               0.000000000               0.000000000               0.000000000               0.000000000               0.000000000               0.000000000               0.000000000               0.000000000               0.000000000               0.000000000               0.000000000               0.000000000               0.000000000               0.000000000               0.000000000               0.000000000               0.000000000               0.000000000               0.000000000               0.000000000               0.000000000               0.000000000               0.000000000               0.000000000               0.000000000               0.000000000               0.000000000               0.000000000               0.000000000               0.000000000               0.000000000               0.000000000               0.000000000               0.000000000               0.000000000               0.000000000               0.000000000               0.000000000               0.000000000               0.000000000               0.000000000               0.000000000               0.000000000               0.000000000               0.000000000               0.000000000               0.000000000               0.000000000               0.000000000               0.000000000               0.000000000               0.000000000               0.000000000               0.000000000               0.000000000               0.000000000               0.000000000               0.000000000               0.000000000               0.000000000               0.000000000               0.000000000               0.000000000               0.000000000               0.000000000               0.000000000               0.000000000               0.000000000               0.000000000               0.000000000               0.000000000               0.000000000               0.000000000               0.000000000               0.000000000               0.000000000               0.000000000               0.000000000               0.000000000               0.000000000               0.000000000               0.000000000               0.000000000               0.000000000               0.000000000               0.000000000               0.000000000               0.000000000               0.000000000               0.000000000               0.000000000               0.000000000               0.000000000               0.000000000               0.000000000               0.000000000               0.000000000               0.000000000               0.000000000               0.000000000               0.000000000               0.000000000               0.000000000               0.000000000               0.000000000               0.000000000               0.000000000               0.000000000               0.000000000               0.000000000               0.000000000               0.000000000               0.000000000               0.000000000               0.000000000               0.000000000               0.000000000               0.000000000               0.000000000               0.000000000               0.000000000               0.000000000               0.000000000               0.000000000               0.000000000               0.000000000               0.000000000               0.000000000               0.000000000               0.000000000               0.000000000               0.000000000               0.000000000               0.000000000               0.000000000               0.000000000               0.000000000               0.000000000               0.000000000               0.000000000               0.000000000               0.000000000               0.000000000               0.000000000               0.000000000               0.000000000               0.000000000               0.000000000               0.000000000               0.000000000               0.000000000               0.000000000               0.000000000               0.000000000               0.000000000 </DataArray>
</PointData>
</Piece>
</UnstructuredGrid> </VTKFile>
