<?xml version="1.0"?>
<VTKFile type="UnstructuredGrid" version="0.1">
<UnstructuredGrid>
<Piece NumberOfPoints="      1156" NumberOfCells="      1024">
<Points>
<DataArray type="Float64"                                    Name="coordinates"                                                      NumberOfComponents=" 3" format="ascii">
              0.133000000               0.000000000               0.000000000               0.155937500               0.000000000               0.000000000               0.178875000               0.000000000               0.000000000               0.201812500               0.000000000               0.000000000               0.224750000               0.000000000               0.000000000               0.247687500               0.000000000               0.000000000               0.270625000               0.000000000               0.000000000               0.293562500               0.000000000               0.000000000               0.316500000               0.000000000               0.000000000               0.339437500               0.000000000               0.000000000               0.362375000               0.000000000               0.000000000               0.385312500               0.000000000               0.000000000               0.408250000               0.000000000               0.000000000               0.431187500               0.000000000               0.000000000               0.454125000               0.000000000               0.000000000               0.477062500               0.000000000               0.000000000               0.500000000               0.000000000               0.000000000               0.132359569               0.013036280               0.000000000               0.155337096               0.016127762               0.000000000               0.178314623               0.019219245               0.000000000               0.201292150               0.022310727               0.000000000               0.224269676               0.025402210               0.000000000               0.247247203               0.028493692               0.000000000               0.270224730               0.031585175               0.000000000               0.293202257               0.034676657               0.000000000               0.316179784               0.037768140               0.000000000               0.339157311               0.040859622               0.000000000               0.362134838               0.043951105               0.000000000               0.385112365               0.047042587               0.000000000               0.408089892               0.050134070               0.000000000               0.431067419               0.053225552               0.000000000               0.454044946               0.056317035               0.000000000               0.477022473               0.059408517               0.000000000               0.500000000               0.062500000               0.000000000               0.130444442               0.025947013               0.000000000               0.153541665               0.032137825               0.000000000               0.176638887               0.038328636               0.000000000               0.199736109               0.044519448               0.000000000               0.222833332               0.050710260               0.000000000               0.245930554               0.056901071               0.000000000               0.269027776               0.063091883               0.000000000               0.292124999               0.069282695               0.000000000               0.315222221               0.075473506               0.000000000               0.338319444               0.081664318               0.000000000               0.361416666               0.087855130               0.000000000               0.384513888               0.094045942               0.000000000               0.407611111               0.100236753               0.000000000               0.430708333               0.106427565               0.000000000               0.453805555               0.112618377               0.000000000               0.476902778               0.118809188               0.000000000               0.500000000               0.125000000               0.000000000               0.127273065               0.038607862               0.000000000               0.150568498               0.047913621               0.000000000               0.173863932               0.057219379               0.000000000               0.197159365               0.066525138               0.000000000               0.220454798               0.075830897               0.000000000               0.243750232               0.085136655               0.000000000               0.267045665               0.094442414               0.000000000               0.290341099               0.103748172               0.000000000               0.313636532               0.113053931               0.000000000               0.336931966               0.122359690               0.000000000               0.360227399               0.131665448               0.000000000               0.383522833               0.140971207               0.000000000               0.406818266               0.150276966               0.000000000               0.430113700               0.159582724               0.000000000               0.453409133               0.168888483               0.000000000               0.476704567               0.178194241               0.000000000               0.500000000               0.187500000               0.000000000               0.122875978               0.050896897               0.000000000               0.146446229               0.063340840               0.000000000               0.170016481               0.075784784               0.000000000               0.193586732               0.088228728               0.000000000               0.217156983               0.100672672               0.000000000               0.240727235               0.113116616               0.000000000               0.264297486               0.125560560               0.000000000               0.287867738               0.138004504               0.000000000               0.311437989               0.150448448               0.000000000               0.335008240               0.162892392               0.000000000               0.358578492               0.175336336               0.000000000               0.382148743               0.187780280               0.000000000               0.405718994               0.200224224               0.000000000               0.429289246               0.212668168               0.000000000               0.452859497               0.225112112               0.000000000               0.476429749               0.237556056               0.000000000               0.500000000               0.250000000               0.000000000               0.117295528               0.062695766               0.000000000               0.141214558               0.078308531               0.000000000               0.165133587               0.093921295               0.000000000               0.189052617               0.109534060               0.000000000               0.212971646               0.125146824               0.000000000               0.236890676               0.140759589               0.000000000               0.260809705               0.156372354               0.000000000               0.284728735               0.171985118               0.000000000               0.308647764               0.187597883               0.000000000               0.332566794               0.203210648               0.000000000               0.356485823               0.218823412               0.000000000               0.380404853               0.234436177               0.000000000               0.404323882               0.250048941               0.000000000               0.428242912               0.265661706               0.000000000               0.452161941               0.281274471               0.000000000               0.476080971               0.296887235               0.000000000               0.500000000               0.312500000               0.000000000               0.110585458               0.073890841               0.000000000               0.134923867               0.092710163               0.000000000               0.159262276               0.111529486               0.000000000               0.183600685               0.130348808               0.000000000               0.207939094               0.149168131               0.000000000               0.232277503               0.167987453               0.000000000               0.256615912               0.186806776               0.000000000               0.280954320               0.205626098               0.000000000               0.305292729               0.224445420               0.000000000               0.329631138               0.243264743               0.000000000               0.353969547               0.262084065               0.000000000               0.378307956               0.280903388               0.000000000               0.402646365               0.299722710               0.000000000               0.426984773               0.318542033               0.000000000               0.451323182               0.337361355               0.000000000               0.475661591               0.356180678               0.000000000               0.500000000               0.375000000               0.000000000               0.102810390               0.084374307               0.000000000               0.127634741               0.106444663               0.000000000               0.152459092               0.128515018               0.000000000               0.177283442               0.150585374               0.000000000               0.202107793               0.172655730               0.000000000               0.226932143               0.194726086               0.000000000               0.251756494               0.216796442               0.000000000               0.276580845               0.238866798               0.000000000               0.301405195               0.260937153               0.000000000               0.326229546               0.283007509               0.000000000               0.351053896               0.305077865               0.000000000               0.375878247               0.327148221               0.000000000               0.400702598               0.349218577               0.000000000               0.425526948               0.371288933               0.000000000               0.450351299               0.393359288               0.000000000               0.475175649               0.415429644               0.000000000               0.500000000               0.437500000               0.000000000               0.094045202               0.094045202               0.000000000               0.119417377               0.119417377               0.000000000               0.144789552               0.144789552               0.000000000               0.170161727               0.170161727               0.000000000               0.195533901               0.195533901               0.000000000               0.220906076               0.220906076               0.000000000               0.246278251               0.246278251               0.000000000               0.271650426               0.271650426               0.000000000               0.297022601               0.297022601               0.000000000               0.322394776               0.322394776               0.000000000               0.347766951               0.347766951               0.000000000               0.373139126               0.373139126               0.000000000               0.398511300               0.398511300               0.000000000               0.423883475               0.423883475               0.000000000               0.449255650               0.449255650               0.000000000               0.474627825               0.474627825               0.000000000               0.500000000               0.500000000               0.000000000               0.084374307               0.102810390               0.000000000               0.106444663               0.127634741               0.000000000               0.128515018               0.152459092               0.000000000               0.150585374               0.177283442               0.000000000               0.172655730               0.202107793               0.000000000               0.194726086               0.226932143               0.000000000               0.216796442               0.251756494               0.000000000               0.238866798               0.276580845               0.000000000               0.260937153               0.301405195               0.000000000               0.283007509               0.326229546               0.000000000               0.305077865               0.351053896               0.000000000               0.327148221               0.375878247               0.000000000               0.349218577               0.400702598               0.000000000               0.371288933               0.425526948               0.000000000               0.393359288               0.450351299               0.000000000               0.415429644               0.475175649               0.000000000               0.437500000               0.500000000               0.000000000               0.073890841               0.110585458               0.000000000               0.092710163               0.134923867               0.000000000               0.111529486               0.159262276               0.000000000               0.130348808               0.183600685               0.000000000               0.149168131               0.207939094               0.000000000               0.167987453               0.232277503               0.000000000               0.186806776               0.256615912               0.000000000               0.205626098               0.280954320               0.000000000               0.224445420               0.305292729               0.000000000               0.243264743               0.329631138               0.000000000               0.262084065               0.353969547               0.000000000               0.280903388               0.378307956               0.000000000               0.299722710               0.402646365               0.000000000               0.318542033               0.426984773               0.000000000               0.337361355               0.451323182               0.000000000               0.356180678               0.475661591               0.000000000               0.375000000               0.500000000               0.000000000               0.062695766               0.117295528               0.000000000               0.078308531               0.141214558               0.000000000               0.093921295               0.165133587               0.000000000               0.109534060               0.189052617               0.000000000               0.125146824               0.212971646               0.000000000               0.140759589               0.236890676               0.000000000               0.156372354               0.260809705               0.000000000               0.171985118               0.284728735               0.000000000               0.187597883               0.308647764               0.000000000               0.203210648               0.332566794               0.000000000               0.218823412               0.356485823               0.000000000               0.234436177               0.380404853               0.000000000               0.250048941               0.404323882               0.000000000               0.265661706               0.428242912               0.000000000               0.281274471               0.452161941               0.000000000               0.296887235               0.476080971               0.000000000               0.312500000               0.500000000               0.000000000               0.050896897               0.122875978               0.000000000               0.063340840               0.146446229               0.000000000               0.075784784               0.170016481               0.000000000               0.088228728               0.193586732               0.000000000               0.100672672               0.217156983               0.000000000               0.113116616               0.240727235               0.000000000               0.125560560               0.264297486               0.000000000               0.138004504               0.287867738               0.000000000               0.150448448               0.311437989               0.000000000               0.162892392               0.335008240               0.000000000               0.175336336               0.358578492               0.000000000               0.187780280               0.382148743               0.000000000               0.200224224               0.405718994               0.000000000               0.212668168               0.429289246               0.000000000               0.225112112               0.452859497               0.000000000               0.237556056               0.476429749               0.000000000               0.250000000               0.500000000               0.000000000               0.038607862               0.127273065               0.000000000               0.047913621               0.150568498               0.000000000               0.057219379               0.173863932               0.000000000               0.066525138               0.197159365               0.000000000               0.075830897               0.220454798               0.000000000               0.085136655               0.243750232               0.000000000               0.094442414               0.267045665               0.000000000               0.103748172               0.290341099               0.000000000               0.113053931               0.313636532               0.000000000               0.122359690               0.336931966               0.000000000               0.131665448               0.360227399               0.000000000               0.140971207               0.383522833               0.000000000               0.150276966               0.406818266               0.000000000               0.159582724               0.430113700               0.000000000               0.168888483               0.453409133               0.000000000               0.178194241               0.476704567               0.000000000               0.187500000               0.500000000               0.000000000               0.025947013               0.130444442               0.000000000               0.032137825               0.153541665               0.000000000               0.038328636               0.176638887               0.000000000               0.044519448               0.199736109               0.000000000               0.050710260               0.222833332               0.000000000               0.056901071               0.245930554               0.000000000               0.063091883               0.269027776               0.000000000               0.069282695               0.292124999               0.000000000               0.075473506               0.315222221               0.000000000               0.081664318               0.338319444               0.000000000               0.087855130               0.361416666               0.000000000               0.094045942               0.384513888               0.000000000               0.100236753               0.407611111               0.000000000               0.106427565               0.430708333               0.000000000               0.112618377               0.453805555               0.000000000               0.118809188               0.476902778               0.000000000               0.125000000               0.500000000               0.000000000               0.013036280               0.132359569               0.000000000               0.016127762               0.155337096               0.000000000               0.019219245               0.178314623               0.000000000               0.022310727               0.201292150               0.000000000               0.025402210               0.224269676               0.000000000               0.028493692               0.247247203               0.000000000               0.031585175               0.270224730               0.000000000               0.034676657               0.293202257               0.000000000               0.037768140               0.316179784               0.000000000               0.040859622               0.339157311               0.000000000               0.043951105               0.362134838               0.000000000               0.047042587               0.385112365               0.000000000               0.050134070               0.408089892               0.000000000               0.053225552               0.431067419               0.000000000               0.056317035               0.454044946               0.000000000               0.059408517               0.477022473               0.000000000               0.062500000               0.500000000               0.000000000               0.000000000               0.133000000               0.000000000               0.000000000               0.155937500               0.000000000               0.000000000               0.178875000               0.000000000               0.000000000               0.201812500               0.000000000               0.000000000               0.224750000               0.000000000               0.000000000               0.247687500               0.000000000               0.000000000               0.270625000               0.000000000               0.000000000               0.293562500               0.000000000               0.000000000               0.316500000               0.000000000               0.000000000               0.339437500               0.000000000               0.000000000               0.362375000               0.000000000               0.000000000               0.385312500               0.000000000               0.000000000               0.408250000               0.000000000               0.000000000               0.431187500               0.000000000               0.000000000               0.454125000               0.000000000               0.000000000               0.477062500               0.000000000               0.000000000               0.500000000               0.000000000               0.133000000               0.000000000               0.000000000               0.155937500               0.000000000               0.000000000               0.178875000               0.000000000               0.000000000               0.201812500               0.000000000               0.000000000               0.224750000               0.000000000               0.000000000               0.247687500               0.000000000               0.000000000               0.270625000               0.000000000               0.000000000               0.293562500               0.000000000               0.000000000               0.316500000               0.000000000               0.000000000               0.339437500               0.000000000               0.000000000               0.362375000               0.000000000               0.000000000               0.385312500               0.000000000               0.000000000               0.408250000               0.000000000               0.000000000               0.431187500               0.000000000               0.000000000               0.454125000               0.000000000               0.000000000               0.477062500               0.000000000               0.000000000               0.500000000               0.000000000               0.000000000               0.132359569              -0.013036280               0.000000000               0.155337096              -0.016127762               0.000000000               0.178314623              -0.019219245               0.000000000               0.201292150              -0.022310727               0.000000000               0.224269676              -0.025402210               0.000000000               0.247247203              -0.028493692               0.000000000               0.270224730              -0.031585175               0.000000000               0.293202257              -0.034676657               0.000000000               0.316179784              -0.037768140               0.000000000               0.339157311              -0.040859622               0.000000000               0.362134838              -0.043951105               0.000000000               0.385112365              -0.047042587               0.000000000               0.408089892              -0.050134070               0.000000000               0.431067419              -0.053225552               0.000000000               0.454044946              -0.056317035               0.000000000               0.477022473              -0.059408517               0.000000000               0.500000000              -0.062500000               0.000000000               0.130444442              -0.025947013               0.000000000               0.153541665              -0.032137825               0.000000000               0.176638887              -0.038328636               0.000000000               0.199736109              -0.044519448               0.000000000               0.222833332              -0.050710260               0.000000000               0.245930554              -0.056901071               0.000000000               0.269027776              -0.063091883               0.000000000               0.292124999              -0.069282695               0.000000000               0.315222221              -0.075473506               0.000000000               0.338319444              -0.081664318               0.000000000               0.361416666              -0.087855130               0.000000000               0.384513888              -0.094045942               0.000000000               0.407611111              -0.100236753               0.000000000               0.430708333              -0.106427565               0.000000000               0.453805555              -0.112618377               0.000000000               0.476902778              -0.118809188               0.000000000               0.500000000              -0.125000000               0.000000000               0.127273065              -0.038607862               0.000000000               0.150568498              -0.047913621               0.000000000               0.173863932              -0.057219379               0.000000000               0.197159365              -0.066525138               0.000000000               0.220454798              -0.075830897               0.000000000               0.243750232              -0.085136655               0.000000000               0.267045665              -0.094442414               0.000000000               0.290341099              -0.103748172               0.000000000               0.313636532              -0.113053931               0.000000000               0.336931966              -0.122359690               0.000000000               0.360227399              -0.131665448               0.000000000               0.383522833              -0.140971207               0.000000000               0.406818266              -0.150276966               0.000000000               0.430113700              -0.159582724               0.000000000               0.453409133              -0.168888483               0.000000000               0.476704567              -0.178194241               0.000000000               0.500000000              -0.187500000               0.000000000               0.122875978              -0.050896897               0.000000000               0.146446229              -0.063340840               0.000000000               0.170016481              -0.075784784               0.000000000               0.193586732              -0.088228728               0.000000000               0.217156983              -0.100672672               0.000000000               0.240727235              -0.113116616               0.000000000               0.264297486              -0.125560560               0.000000000               0.287867738              -0.138004504               0.000000000               0.311437989              -0.150448448               0.000000000               0.335008240              -0.162892392               0.000000000               0.358578492              -0.175336336               0.000000000               0.382148743              -0.187780280               0.000000000               0.405718994              -0.200224224               0.000000000               0.429289246              -0.212668168               0.000000000               0.452859497              -0.225112112               0.000000000               0.476429749              -0.237556056               0.000000000               0.500000000              -0.250000000               0.000000000               0.117295528              -0.062695766               0.000000000               0.141214558              -0.078308531               0.000000000               0.165133587              -0.093921295               0.000000000               0.189052617              -0.109534060               0.000000000               0.212971646              -0.125146824               0.000000000               0.236890676              -0.140759589               0.000000000               0.260809705              -0.156372354               0.000000000               0.284728735              -0.171985118               0.000000000               0.308647764              -0.187597883               0.000000000               0.332566794              -0.203210648               0.000000000               0.356485823              -0.218823412               0.000000000               0.380404853              -0.234436177               0.000000000               0.404323882              -0.250048941               0.000000000               0.428242912              -0.265661706               0.000000000               0.452161941              -0.281274471               0.000000000               0.476080971              -0.296887235               0.000000000               0.500000000              -0.312500000               0.000000000               0.110585458              -0.073890841               0.000000000               0.134923867              -0.092710163               0.000000000               0.159262276              -0.111529486               0.000000000               0.183600685              -0.130348808               0.000000000               0.207939094              -0.149168131               0.000000000               0.232277503              -0.167987453               0.000000000               0.256615912              -0.186806776               0.000000000               0.280954320              -0.205626098               0.000000000               0.305292729              -0.224445420               0.000000000               0.329631138              -0.243264743               0.000000000               0.353969547              -0.262084065               0.000000000               0.378307956              -0.280903388               0.000000000               0.402646365              -0.299722710               0.000000000               0.426984773              -0.318542033               0.000000000               0.451323182              -0.337361355               0.000000000               0.475661591              -0.356180678               0.000000000               0.500000000              -0.375000000               0.000000000               0.102810390              -0.084374307               0.000000000               0.127634741              -0.106444663               0.000000000               0.152459092              -0.128515018               0.000000000               0.177283442              -0.150585374               0.000000000               0.202107793              -0.172655730               0.000000000               0.226932143              -0.194726086               0.000000000               0.251756494              -0.216796442               0.000000000               0.276580845              -0.238866798               0.000000000               0.301405195              -0.260937153               0.000000000               0.326229546              -0.283007509               0.000000000               0.351053896              -0.305077865               0.000000000               0.375878247              -0.327148221               0.000000000               0.400702598              -0.349218577               0.000000000               0.425526948              -0.371288933               0.000000000               0.450351299              -0.393359288               0.000000000               0.475175649              -0.415429644               0.000000000               0.500000000              -0.437500000               0.000000000               0.094045202              -0.094045202               0.000000000               0.119417377              -0.119417377               0.000000000               0.144789552              -0.144789552               0.000000000               0.170161727              -0.170161727               0.000000000               0.195533901              -0.195533901               0.000000000               0.220906076              -0.220906076               0.000000000               0.246278251              -0.246278251               0.000000000               0.271650426              -0.271650426               0.000000000               0.297022601              -0.297022601               0.000000000               0.322394776              -0.322394776               0.000000000               0.347766951              -0.347766951               0.000000000               0.373139126              -0.373139126               0.000000000               0.398511300              -0.398511300               0.000000000               0.423883475              -0.423883475               0.000000000               0.449255650              -0.449255650               0.000000000               0.474627825              -0.474627825               0.000000000               0.500000000              -0.500000000               0.000000000               0.084374307              -0.102810390               0.000000000               0.106444663              -0.127634741               0.000000000               0.128515018              -0.152459092               0.000000000               0.150585374              -0.177283442               0.000000000               0.172655730              -0.202107793               0.000000000               0.194726086              -0.226932143               0.000000000               0.216796442              -0.251756494               0.000000000               0.238866798              -0.276580845               0.000000000               0.260937153              -0.301405195               0.000000000               0.283007509              -0.326229546               0.000000000               0.305077865              -0.351053896               0.000000000               0.327148221              -0.375878247               0.000000000               0.349218577              -0.400702598               0.000000000               0.371288933              -0.425526948               0.000000000               0.393359288              -0.450351299               0.000000000               0.415429644              -0.475175649               0.000000000               0.437500000              -0.500000000               0.000000000               0.073890841              -0.110585458               0.000000000               0.092710163              -0.134923867               0.000000000               0.111529486              -0.159262276               0.000000000               0.130348808              -0.183600685               0.000000000               0.149168131              -0.207939094               0.000000000               0.167987453              -0.232277503               0.000000000               0.186806776              -0.256615912               0.000000000               0.205626098              -0.280954320               0.000000000               0.224445420              -0.305292729               0.000000000               0.243264743              -0.329631138               0.000000000               0.262084065              -0.353969547               0.000000000               0.280903388              -0.378307956               0.000000000               0.299722710              -0.402646365               0.000000000               0.318542033              -0.426984773               0.000000000               0.337361355              -0.451323182               0.000000000               0.356180678              -0.475661591               0.000000000               0.375000000              -0.500000000               0.000000000               0.062695766              -0.117295528               0.000000000               0.078308531              -0.141214558               0.000000000               0.093921295              -0.165133587               0.000000000               0.109534060              -0.189052617               0.000000000               0.125146824              -0.212971646               0.000000000               0.140759589              -0.236890676               0.000000000               0.156372354              -0.260809705               0.000000000               0.171985118              -0.284728735               0.000000000               0.187597883              -0.308647764               0.000000000               0.203210648              -0.332566794               0.000000000               0.218823412              -0.356485823               0.000000000               0.234436177              -0.380404853               0.000000000               0.250048941              -0.404323882               0.000000000               0.265661706              -0.428242912               0.000000000               0.281274471              -0.452161941               0.000000000               0.296887235              -0.476080971               0.000000000               0.312500000              -0.500000000               0.000000000               0.050896897              -0.122875978               0.000000000               0.063340840              -0.146446229               0.000000000               0.075784784              -0.170016481               0.000000000               0.088228728              -0.193586732               0.000000000               0.100672672              -0.217156983               0.000000000               0.113116616              -0.240727235               0.000000000               0.125560560              -0.264297486               0.000000000               0.138004504              -0.287867738               0.000000000               0.150448448              -0.311437989               0.000000000               0.162892392              -0.335008240               0.000000000               0.175336336              -0.358578492               0.000000000               0.187780280              -0.382148743               0.000000000               0.200224224              -0.405718994               0.000000000               0.212668168              -0.429289246               0.000000000               0.225112112              -0.452859497               0.000000000               0.237556056              -0.476429749               0.000000000               0.250000000              -0.500000000               0.000000000               0.038607862              -0.127273065               0.000000000               0.047913621              -0.150568498               0.000000000               0.057219379              -0.173863932               0.000000000               0.066525138              -0.197159365               0.000000000               0.075830897              -0.220454798               0.000000000               0.085136655              -0.243750232               0.000000000               0.094442414              -0.267045665               0.000000000               0.103748172              -0.290341099               0.000000000               0.113053931              -0.313636532               0.000000000               0.122359690              -0.336931966               0.000000000               0.131665448              -0.360227399               0.000000000               0.140971207              -0.383522833               0.000000000               0.150276966              -0.406818266               0.000000000               0.159582724              -0.430113700               0.000000000               0.168888483              -0.453409133               0.000000000               0.178194241              -0.476704567               0.000000000               0.187500000              -0.500000000               0.000000000               0.025947013              -0.130444442               0.000000000               0.032137825              -0.153541665               0.000000000               0.038328636              -0.176638887               0.000000000               0.044519448              -0.199736109               0.000000000               0.050710260              -0.222833332               0.000000000               0.056901071              -0.245930554               0.000000000               0.063091883              -0.269027776               0.000000000               0.069282695              -0.292124999               0.000000000               0.075473506              -0.315222221               0.000000000               0.081664318              -0.338319444               0.000000000               0.087855130              -0.361416666               0.000000000               0.094045942              -0.384513888               0.000000000               0.100236753              -0.407611111               0.000000000               0.106427565              -0.430708333               0.000000000               0.112618377              -0.453805555               0.000000000               0.118809188              -0.476902778               0.000000000               0.125000000              -0.500000000               0.000000000               0.013036280              -0.132359569               0.000000000               0.016127762              -0.155337096               0.000000000               0.019219245              -0.178314623               0.000000000               0.022310727              -0.201292150               0.000000000               0.025402210              -0.224269676               0.000000000               0.028493692              -0.247247203               0.000000000               0.031585175              -0.270224730               0.000000000               0.034676657              -0.293202257               0.000000000               0.037768140              -0.316179784               0.000000000               0.040859622              -0.339157311               0.000000000               0.043951105              -0.362134838               0.000000000               0.047042587              -0.385112365               0.000000000               0.050134070              -0.408089892               0.000000000               0.053225552              -0.431067419               0.000000000               0.056317035              -0.454044946               0.000000000               0.059408517              -0.477022473               0.000000000               0.062500000              -0.500000000               0.000000000               0.000000000              -0.133000000               0.000000000               0.000000000              -0.155937500               0.000000000               0.000000000              -0.178875000               0.000000000               0.000000000              -0.201812500               0.000000000               0.000000000              -0.224750000               0.000000000               0.000000000              -0.247687500               0.000000000               0.000000000              -0.270625000               0.000000000               0.000000000              -0.293562500               0.000000000               0.000000000              -0.316500000               0.000000000               0.000000000              -0.339437500               0.000000000               0.000000000              -0.362375000               0.000000000               0.000000000              -0.385312500               0.000000000               0.000000000              -0.408250000               0.000000000               0.000000000              -0.431187500               0.000000000               0.000000000              -0.454125000               0.000000000               0.000000000              -0.477062500               0.000000000               0.000000000              -0.500000000               0.000000000              -0.133000000               0.000000000               0.000000000              -0.155937500               0.000000000               0.000000000              -0.178875000               0.000000000               0.000000000              -0.201812500               0.000000000               0.000000000              -0.224750000               0.000000000               0.000000000              -0.247687500               0.000000000               0.000000000              -0.270625000               0.000000000               0.000000000              -0.293562500               0.000000000               0.000000000              -0.316500000               0.000000000               0.000000000              -0.339437500               0.000000000               0.000000000              -0.362375000               0.000000000               0.000000000              -0.385312500               0.000000000               0.000000000              -0.408250000               0.000000000               0.000000000              -0.431187500               0.000000000               0.000000000              -0.454125000               0.000000000               0.000000000              -0.477062500               0.000000000               0.000000000              -0.500000000               0.000000000               0.000000000              -0.132359569              -0.013036280               0.000000000              -0.155337096              -0.016127762               0.000000000              -0.178314623              -0.019219245               0.000000000              -0.201292150              -0.022310727               0.000000000              -0.224269676              -0.025402210               0.000000000              -0.247247203              -0.028493692               0.000000000              -0.270224730              -0.031585175               0.000000000              -0.293202257              -0.034676657               0.000000000              -0.316179784              -0.037768140               0.000000000              -0.339157311              -0.040859622               0.000000000              -0.362134838              -0.043951105               0.000000000              -0.385112365              -0.047042587               0.000000000              -0.408089892              -0.050134070               0.000000000              -0.431067419              -0.053225552               0.000000000              -0.454044946              -0.056317035               0.000000000              -0.477022473              -0.059408517               0.000000000              -0.500000000              -0.062500000               0.000000000              -0.130444442              -0.025947013               0.000000000              -0.153541665              -0.032137825               0.000000000              -0.176638887              -0.038328636               0.000000000              -0.199736109              -0.044519448               0.000000000              -0.222833332              -0.050710260               0.000000000              -0.245930554              -0.056901071               0.000000000              -0.269027776              -0.063091883               0.000000000              -0.292124999              -0.069282695               0.000000000              -0.315222221              -0.075473506               0.000000000              -0.338319444              -0.081664318               0.000000000              -0.361416666              -0.087855130               0.000000000              -0.384513888              -0.094045942               0.000000000              -0.407611111              -0.100236753               0.000000000              -0.430708333              -0.106427565               0.000000000              -0.453805555              -0.112618377               0.000000000              -0.476902778              -0.118809188               0.000000000              -0.500000000              -0.125000000               0.000000000              -0.127273065              -0.038607862               0.000000000              -0.150568498              -0.047913621               0.000000000              -0.173863932              -0.057219379               0.000000000              -0.197159365              -0.066525138               0.000000000              -0.220454798              -0.075830897               0.000000000              -0.243750232              -0.085136655               0.000000000              -0.267045665              -0.094442414               0.000000000              -0.290341099              -0.103748172               0.000000000              -0.313636532              -0.113053931               0.000000000              -0.336931966              -0.122359690               0.000000000              -0.360227399              -0.131665448               0.000000000              -0.383522833              -0.140971207               0.000000000              -0.406818266              -0.150276966               0.000000000              -0.430113700              -0.159582724               0.000000000              -0.453409133              -0.168888483               0.000000000              -0.476704567              -0.178194241               0.000000000              -0.500000000              -0.187500000               0.000000000              -0.122875978              -0.050896897               0.000000000              -0.146446229              -0.063340840               0.000000000              -0.170016481              -0.075784784               0.000000000              -0.193586732              -0.088228728               0.000000000              -0.217156983              -0.100672672               0.000000000              -0.240727235              -0.113116616               0.000000000              -0.264297486              -0.125560560               0.000000000              -0.287867738              -0.138004504               0.000000000              -0.311437989              -0.150448448               0.000000000              -0.335008240              -0.162892392               0.000000000              -0.358578492              -0.175336336               0.000000000              -0.382148743              -0.187780280               0.000000000              -0.405718994              -0.200224224               0.000000000              -0.429289246              -0.212668168               0.000000000              -0.452859497              -0.225112112               0.000000000              -0.476429749              -0.237556056               0.000000000              -0.500000000              -0.250000000               0.000000000              -0.117295528              -0.062695766               0.000000000              -0.141214558              -0.078308531               0.000000000              -0.165133587              -0.093921295               0.000000000              -0.189052617              -0.109534060               0.000000000              -0.212971646              -0.125146824               0.000000000              -0.236890676              -0.140759589               0.000000000              -0.260809705              -0.156372354               0.000000000              -0.284728735              -0.171985118               0.000000000              -0.308647764              -0.187597883               0.000000000              -0.332566794              -0.203210648               0.000000000              -0.356485823              -0.218823412               0.000000000              -0.380404853              -0.234436177               0.000000000              -0.404323882              -0.250048941               0.000000000              -0.428242912              -0.265661706               0.000000000              -0.452161941              -0.281274471               0.000000000              -0.476080971              -0.296887235               0.000000000              -0.500000000              -0.312500000               0.000000000              -0.110585458              -0.073890841               0.000000000              -0.134923867              -0.092710163               0.000000000              -0.159262276              -0.111529486               0.000000000              -0.183600685              -0.130348808               0.000000000              -0.207939094              -0.149168131               0.000000000              -0.232277503              -0.167987453               0.000000000              -0.256615912              -0.186806776               0.000000000              -0.280954320              -0.205626098               0.000000000              -0.305292729              -0.224445420               0.000000000              -0.329631138              -0.243264743               0.000000000              -0.353969547              -0.262084065               0.000000000              -0.378307956              -0.280903388               0.000000000              -0.402646365              -0.299722710               0.000000000              -0.426984773              -0.318542033               0.000000000              -0.451323182              -0.337361355               0.000000000              -0.475661591              -0.356180678               0.000000000              -0.500000000              -0.375000000               0.000000000              -0.102810390              -0.084374307               0.000000000              -0.127634741              -0.106444663               0.000000000              -0.152459092              -0.128515018               0.000000000              -0.177283442              -0.150585374               0.000000000              -0.202107793              -0.172655730               0.000000000              -0.226932143              -0.194726086               0.000000000              -0.251756494              -0.216796442               0.000000000              -0.276580845              -0.238866798               0.000000000              -0.301405195              -0.260937153               0.000000000              -0.326229546              -0.283007509               0.000000000              -0.351053896              -0.305077865               0.000000000              -0.375878247              -0.327148221               0.000000000              -0.400702598              -0.349218577               0.000000000              -0.425526948              -0.371288933               0.000000000              -0.450351299              -0.393359288               0.000000000              -0.475175649              -0.415429644               0.000000000              -0.500000000              -0.437500000               0.000000000              -0.094045202              -0.094045202               0.000000000              -0.119417377              -0.119417377               0.000000000              -0.144789552              -0.144789552               0.000000000              -0.170161727              -0.170161727               0.000000000              -0.195533901              -0.195533901               0.000000000              -0.220906076              -0.220906076               0.000000000              -0.246278251              -0.246278251               0.000000000              -0.271650426              -0.271650426               0.000000000              -0.297022601              -0.297022601               0.000000000              -0.322394776              -0.322394776               0.000000000              -0.347766951              -0.347766951               0.000000000              -0.373139126              -0.373139126               0.000000000              -0.398511300              -0.398511300               0.000000000              -0.423883475              -0.423883475               0.000000000              -0.449255650              -0.449255650               0.000000000              -0.474627825              -0.474627825               0.000000000              -0.500000000              -0.500000000               0.000000000              -0.084374307              -0.102810390               0.000000000              -0.106444663              -0.127634741               0.000000000              -0.128515018              -0.152459092               0.000000000              -0.150585374              -0.177283442               0.000000000              -0.172655730              -0.202107793               0.000000000              -0.194726086              -0.226932143               0.000000000              -0.216796442              -0.251756494               0.000000000              -0.238866798              -0.276580845               0.000000000              -0.260937153              -0.301405195               0.000000000              -0.283007509              -0.326229546               0.000000000              -0.305077865              -0.351053896               0.000000000              -0.327148221              -0.375878247               0.000000000              -0.349218577              -0.400702598               0.000000000              -0.371288933              -0.425526948               0.000000000              -0.393359288              -0.450351299               0.000000000              -0.415429644              -0.475175649               0.000000000              -0.437500000              -0.500000000               0.000000000              -0.073890841              -0.110585458               0.000000000              -0.092710163              -0.134923867               0.000000000              -0.111529486              -0.159262276               0.000000000              -0.130348808              -0.183600685               0.000000000              -0.149168131              -0.207939094               0.000000000              -0.167987453              -0.232277503               0.000000000              -0.186806776              -0.256615912               0.000000000              -0.205626098              -0.280954320               0.000000000              -0.224445420              -0.305292729               0.000000000              -0.243264743              -0.329631138               0.000000000              -0.262084065              -0.353969547               0.000000000              -0.280903388              -0.378307956               0.000000000              -0.299722710              -0.402646365               0.000000000              -0.318542033              -0.426984773               0.000000000              -0.337361355              -0.451323182               0.000000000              -0.356180678              -0.475661591               0.000000000              -0.375000000              -0.500000000               0.000000000              -0.062695766              -0.117295528               0.000000000              -0.078308531              -0.141214558               0.000000000              -0.093921295              -0.165133587               0.000000000              -0.109534060              -0.189052617               0.000000000              -0.125146824              -0.212971646               0.000000000              -0.140759589              -0.236890676               0.000000000              -0.156372354              -0.260809705               0.000000000              -0.171985118              -0.284728735               0.000000000              -0.187597883              -0.308647764               0.000000000              -0.203210648              -0.332566794               0.000000000              -0.218823412              -0.356485823               0.000000000              -0.234436177              -0.380404853               0.000000000              -0.250048941              -0.404323882               0.000000000              -0.265661706              -0.428242912               0.000000000              -0.281274471              -0.452161941               0.000000000              -0.296887235              -0.476080971               0.000000000              -0.312500000              -0.500000000               0.000000000              -0.050896897              -0.122875978               0.000000000              -0.063340840              -0.146446229               0.000000000              -0.075784784              -0.170016481               0.000000000              -0.088228728              -0.193586732               0.000000000              -0.100672672              -0.217156983               0.000000000              -0.113116616              -0.240727235               0.000000000              -0.125560560              -0.264297486               0.000000000              -0.138004504              -0.287867738               0.000000000              -0.150448448              -0.311437989               0.000000000              -0.162892392              -0.335008240               0.000000000              -0.175336336              -0.358578492               0.000000000              -0.187780280              -0.382148743               0.000000000              -0.200224224              -0.405718994               0.000000000              -0.212668168              -0.429289246               0.000000000              -0.225112112              -0.452859497               0.000000000              -0.237556056              -0.476429749               0.000000000              -0.250000000              -0.500000000               0.000000000              -0.038607862              -0.127273065               0.000000000              -0.047913621              -0.150568498               0.000000000              -0.057219379              -0.173863932               0.000000000              -0.066525138              -0.197159365               0.000000000              -0.075830897              -0.220454798               0.000000000              -0.085136655              -0.243750232               0.000000000              -0.094442414              -0.267045665               0.000000000              -0.103748172              -0.290341099               0.000000000              -0.113053931              -0.313636532               0.000000000              -0.122359690              -0.336931966               0.000000000              -0.131665448              -0.360227399               0.000000000              -0.140971207              -0.383522833               0.000000000              -0.150276966              -0.406818266               0.000000000              -0.159582724              -0.430113700               0.000000000              -0.168888483              -0.453409133               0.000000000              -0.178194241              -0.476704567               0.000000000              -0.187500000              -0.500000000               0.000000000              -0.025947013              -0.130444442               0.000000000              -0.032137825              -0.153541665               0.000000000              -0.038328636              -0.176638887               0.000000000              -0.044519448              -0.199736109               0.000000000              -0.050710260              -0.222833332               0.000000000              -0.056901071              -0.245930554               0.000000000              -0.063091883              -0.269027776               0.000000000              -0.069282695              -0.292124999               0.000000000              -0.075473506              -0.315222221               0.000000000              -0.081664318              -0.338319444               0.000000000              -0.087855130              -0.361416666               0.000000000              -0.094045942              -0.384513888               0.000000000              -0.100236753              -0.407611111               0.000000000              -0.106427565              -0.430708333               0.000000000              -0.112618377              -0.453805555               0.000000000              -0.118809188              -0.476902778               0.000000000              -0.125000000              -0.500000000               0.000000000              -0.013036280              -0.132359569               0.000000000              -0.016127762              -0.155337096               0.000000000              -0.019219245              -0.178314623               0.000000000              -0.022310727              -0.201292150               0.000000000              -0.025402210              -0.224269676               0.000000000              -0.028493692              -0.247247203               0.000000000              -0.031585175              -0.270224730               0.000000000              -0.034676657              -0.293202257               0.000000000              -0.037768140              -0.316179784               0.000000000              -0.040859622              -0.339157311               0.000000000              -0.043951105              -0.362134838               0.000000000              -0.047042587              -0.385112365               0.000000000              -0.050134070              -0.408089892               0.000000000              -0.053225552              -0.431067419               0.000000000              -0.056317035              -0.454044946               0.000000000              -0.059408517              -0.477022473               0.000000000              -0.062500000              -0.500000000               0.000000000               0.000000000              -0.133000000               0.000000000               0.000000000              -0.155937500               0.000000000               0.000000000              -0.178875000               0.000000000               0.000000000              -0.201812500               0.000000000               0.000000000              -0.224750000               0.000000000               0.000000000              -0.247687500               0.000000000               0.000000000              -0.270625000               0.000000000               0.000000000              -0.293562500               0.000000000               0.000000000              -0.316500000               0.000000000               0.000000000              -0.339437500               0.000000000               0.000000000              -0.362375000               0.000000000               0.000000000              -0.385312500               0.000000000               0.000000000              -0.408250000               0.000000000               0.000000000              -0.431187500               0.000000000               0.000000000              -0.454125000               0.000000000               0.000000000              -0.477062500               0.000000000               0.000000000              -0.500000000               0.000000000              -0.133000000               0.000000000               0.000000000              -0.155937500               0.000000000               0.000000000              -0.178875000               0.000000000               0.000000000              -0.201812500               0.000000000               0.000000000              -0.224750000               0.000000000               0.000000000              -0.247687500               0.000000000               0.000000000              -0.270625000               0.000000000               0.000000000              -0.293562500               0.000000000               0.000000000              -0.316500000               0.000000000               0.000000000              -0.339437500               0.000000000               0.000000000              -0.362375000               0.000000000               0.000000000              -0.385312500               0.000000000               0.000000000              -0.408250000               0.000000000               0.000000000              -0.431187500               0.000000000               0.000000000              -0.454125000               0.000000000               0.000000000              -0.477062500               0.000000000               0.000000000              -0.500000000               0.000000000               0.000000000              -0.132359569               0.013036280               0.000000000              -0.155337096               0.016127762               0.000000000              -0.178314623               0.019219245               0.000000000              -0.201292150               0.022310727               0.000000000              -0.224269676               0.025402210               0.000000000              -0.247247203               0.028493692               0.000000000              -0.270224730               0.031585175               0.000000000              -0.293202257               0.034676657               0.000000000              -0.316179784               0.037768140               0.000000000              -0.339157311               0.040859622               0.000000000              -0.362134838               0.043951105               0.000000000              -0.385112365               0.047042587               0.000000000              -0.408089892               0.050134070               0.000000000              -0.431067419               0.053225552               0.000000000              -0.454044946               0.056317035               0.000000000              -0.477022473               0.059408517               0.000000000              -0.500000000               0.062500000               0.000000000              -0.130444442               0.025947013               0.000000000              -0.153541665               0.032137825               0.000000000              -0.176638887               0.038328636               0.000000000              -0.199736109               0.044519448               0.000000000              -0.222833332               0.050710260               0.000000000              -0.245930554               0.056901071               0.000000000              -0.269027776               0.063091883               0.000000000              -0.292124999               0.069282695               0.000000000              -0.315222221               0.075473506               0.000000000              -0.338319444               0.081664318               0.000000000              -0.361416666               0.087855130               0.000000000              -0.384513888               0.094045942               0.000000000              -0.407611111               0.100236753               0.000000000              -0.430708333               0.106427565               0.000000000              -0.453805555               0.112618377               0.000000000              -0.476902778               0.118809188               0.000000000              -0.500000000               0.125000000               0.000000000              -0.127273065               0.038607862               0.000000000              -0.150568498               0.047913621               0.000000000              -0.173863932               0.057219379               0.000000000              -0.197159365               0.066525138               0.000000000              -0.220454798               0.075830897               0.000000000              -0.243750232               0.085136655               0.000000000              -0.267045665               0.094442414               0.000000000              -0.290341099               0.103748172               0.000000000              -0.313636532               0.113053931               0.000000000              -0.336931966               0.122359690               0.000000000              -0.360227399               0.131665448               0.000000000              -0.383522833               0.140971207               0.000000000              -0.406818266               0.150276966               0.000000000              -0.430113700               0.159582724               0.000000000              -0.453409133               0.168888483               0.000000000              -0.476704567               0.178194241               0.000000000              -0.500000000               0.187500000               0.000000000              -0.122875978               0.050896897               0.000000000              -0.146446229               0.063340840               0.000000000              -0.170016481               0.075784784               0.000000000              -0.193586732               0.088228728               0.000000000              -0.217156983               0.100672672               0.000000000              -0.240727235               0.113116616               0.000000000              -0.264297486               0.125560560               0.000000000              -0.287867738               0.138004504               0.000000000              -0.311437989               0.150448448               0.000000000              -0.335008240               0.162892392               0.000000000              -0.358578492               0.175336336               0.000000000              -0.382148743               0.187780280               0.000000000              -0.405718994               0.200224224               0.000000000              -0.429289246               0.212668168               0.000000000              -0.452859497               0.225112112               0.000000000              -0.476429749               0.237556056               0.000000000              -0.500000000               0.250000000               0.000000000              -0.117295528               0.062695766               0.000000000              -0.141214558               0.078308531               0.000000000              -0.165133587               0.093921295               0.000000000              -0.189052617               0.109534060               0.000000000              -0.212971646               0.125146824               0.000000000              -0.236890676               0.140759589               0.000000000              -0.260809705               0.156372354               0.000000000              -0.284728735               0.171985118               0.000000000              -0.308647764               0.187597883               0.000000000              -0.332566794               0.203210648               0.000000000              -0.356485823               0.218823412               0.000000000              -0.380404853               0.234436177               0.000000000              -0.404323882               0.250048941               0.000000000              -0.428242912               0.265661706               0.000000000              -0.452161941               0.281274471               0.000000000              -0.476080971               0.296887235               0.000000000              -0.500000000               0.312500000               0.000000000              -0.110585458               0.073890841               0.000000000              -0.134923867               0.092710163               0.000000000              -0.159262276               0.111529486               0.000000000              -0.183600685               0.130348808               0.000000000              -0.207939094               0.149168131               0.000000000              -0.232277503               0.167987453               0.000000000              -0.256615912               0.186806776               0.000000000              -0.280954320               0.205626098               0.000000000              -0.305292729               0.224445420               0.000000000              -0.329631138               0.243264743               0.000000000              -0.353969547               0.262084065               0.000000000              -0.378307956               0.280903388               0.000000000              -0.402646365               0.299722710               0.000000000              -0.426984773               0.318542033               0.000000000              -0.451323182               0.337361355               0.000000000              -0.475661591               0.356180678               0.000000000              -0.500000000               0.375000000               0.000000000              -0.102810390               0.084374307               0.000000000              -0.127634741               0.106444663               0.000000000              -0.152459092               0.128515018               0.000000000              -0.177283442               0.150585374               0.000000000              -0.202107793               0.172655730               0.000000000              -0.226932143               0.194726086               0.000000000              -0.251756494               0.216796442               0.000000000              -0.276580845               0.238866798               0.000000000              -0.301405195               0.260937153               0.000000000              -0.326229546               0.283007509               0.000000000              -0.351053896               0.305077865               0.000000000              -0.375878247               0.327148221               0.000000000              -0.400702598               0.349218577               0.000000000              -0.425526948               0.371288933               0.000000000              -0.450351299               0.393359288               0.000000000              -0.475175649               0.415429644               0.000000000              -0.500000000               0.437500000               0.000000000              -0.094045202               0.094045202               0.000000000              -0.119417377               0.119417377               0.000000000              -0.144789552               0.144789552               0.000000000              -0.170161727               0.170161727               0.000000000              -0.195533901               0.195533901               0.000000000              -0.220906076               0.220906076               0.000000000              -0.246278251               0.246278251               0.000000000              -0.271650426               0.271650426               0.000000000              -0.297022601               0.297022601               0.000000000              -0.322394776               0.322394776               0.000000000              -0.347766951               0.347766951               0.000000000              -0.373139126               0.373139126               0.000000000              -0.398511300               0.398511300               0.000000000              -0.423883475               0.423883475               0.000000000              -0.449255650               0.449255650               0.000000000              -0.474627825               0.474627825               0.000000000              -0.500000000               0.500000000               0.000000000              -0.084374307               0.102810390               0.000000000              -0.106444663               0.127634741               0.000000000              -0.128515018               0.152459092               0.000000000              -0.150585374               0.177283442               0.000000000              -0.172655730               0.202107793               0.000000000              -0.194726086               0.226932143               0.000000000              -0.216796442               0.251756494               0.000000000              -0.238866798               0.276580845               0.000000000              -0.260937153               0.301405195               0.000000000              -0.283007509               0.326229546               0.000000000              -0.305077865               0.351053896               0.000000000              -0.327148221               0.375878247               0.000000000              -0.349218577               0.400702598               0.000000000              -0.371288933               0.425526948               0.000000000              -0.393359288               0.450351299               0.000000000              -0.415429644               0.475175649               0.000000000              -0.437500000               0.500000000               0.000000000              -0.073890841               0.110585458               0.000000000              -0.092710163               0.134923867               0.000000000              -0.111529486               0.159262276               0.000000000              -0.130348808               0.183600685               0.000000000              -0.149168131               0.207939094               0.000000000              -0.167987453               0.232277503               0.000000000              -0.186806776               0.256615912               0.000000000              -0.205626098               0.280954320               0.000000000              -0.224445420               0.305292729               0.000000000              -0.243264743               0.329631138               0.000000000              -0.262084065               0.353969547               0.000000000              -0.280903388               0.378307956               0.000000000              -0.299722710               0.402646365               0.000000000              -0.318542033               0.426984773               0.000000000              -0.337361355               0.451323182               0.000000000              -0.356180678               0.475661591               0.000000000              -0.375000000               0.500000000               0.000000000              -0.062695766               0.117295528               0.000000000              -0.078308531               0.141214558               0.000000000              -0.093921295               0.165133587               0.000000000              -0.109534060               0.189052617               0.000000000              -0.125146824               0.212971646               0.000000000              -0.140759589               0.236890676               0.000000000              -0.156372354               0.260809705               0.000000000              -0.171985118               0.284728735               0.000000000              -0.187597883               0.308647764               0.000000000              -0.203210648               0.332566794               0.000000000              -0.218823412               0.356485823               0.000000000              -0.234436177               0.380404853               0.000000000              -0.250048941               0.404323882               0.000000000              -0.265661706               0.428242912               0.000000000              -0.281274471               0.452161941               0.000000000              -0.296887235               0.476080971               0.000000000              -0.312500000               0.500000000               0.000000000              -0.050896897               0.122875978               0.000000000              -0.063340840               0.146446229               0.000000000              -0.075784784               0.170016481               0.000000000              -0.088228728               0.193586732               0.000000000              -0.100672672               0.217156983               0.000000000              -0.113116616               0.240727235               0.000000000              -0.125560560               0.264297486               0.000000000              -0.138004504               0.287867738               0.000000000              -0.150448448               0.311437989               0.000000000              -0.162892392               0.335008240               0.000000000              -0.175336336               0.358578492               0.000000000              -0.187780280               0.382148743               0.000000000              -0.200224224               0.405718994               0.000000000              -0.212668168               0.429289246               0.000000000              -0.225112112               0.452859497               0.000000000              -0.237556056               0.476429749               0.000000000              -0.250000000               0.500000000               0.000000000              -0.038607862               0.127273065               0.000000000              -0.047913621               0.150568498               0.000000000              -0.057219379               0.173863932               0.000000000              -0.066525138               0.197159365               0.000000000              -0.075830897               0.220454798               0.000000000              -0.085136655               0.243750232               0.000000000              -0.094442414               0.267045665               0.000000000              -0.103748172               0.290341099               0.000000000              -0.113053931               0.313636532               0.000000000              -0.122359690               0.336931966               0.000000000              -0.131665448               0.360227399               0.000000000              -0.140971207               0.383522833               0.000000000              -0.150276966               0.406818266               0.000000000              -0.159582724               0.430113700               0.000000000              -0.168888483               0.453409133               0.000000000              -0.178194241               0.476704567               0.000000000              -0.187500000               0.500000000               0.000000000              -0.025947013               0.130444442               0.000000000              -0.032137825               0.153541665               0.000000000              -0.038328636               0.176638887               0.000000000              -0.044519448               0.199736109               0.000000000              -0.050710260               0.222833332               0.000000000              -0.056901071               0.245930554               0.000000000              -0.063091883               0.269027776               0.000000000              -0.069282695               0.292124999               0.000000000              -0.075473506               0.315222221               0.000000000              -0.081664318               0.338319444               0.000000000              -0.087855130               0.361416666               0.000000000              -0.094045942               0.384513888               0.000000000              -0.100236753               0.407611111               0.000000000              -0.106427565               0.430708333               0.000000000              -0.112618377               0.453805555               0.000000000              -0.118809188               0.476902778               0.000000000              -0.125000000               0.500000000               0.000000000              -0.013036280               0.132359569               0.000000000              -0.016127762               0.155337096               0.000000000              -0.019219245               0.178314623               0.000000000              -0.022310727               0.201292150               0.000000000              -0.025402210               0.224269676               0.000000000              -0.028493692               0.247247203               0.000000000              -0.031585175               0.270224730               0.000000000              -0.034676657               0.293202257               0.000000000              -0.037768140               0.316179784               0.000000000              -0.040859622               0.339157311               0.000000000              -0.043951105               0.362134838               0.000000000              -0.047042587               0.385112365               0.000000000              -0.050134070               0.408089892               0.000000000              -0.053225552               0.431067419               0.000000000              -0.056317035               0.454044946               0.000000000              -0.059408517               0.477022473               0.000000000              -0.062500000               0.500000000               0.000000000               0.000000000               0.133000000               0.000000000               0.000000000               0.155937500               0.000000000               0.000000000               0.178875000               0.000000000               0.000000000               0.201812500               0.000000000               0.000000000               0.224750000               0.000000000               0.000000000               0.247687500               0.000000000               0.000000000               0.270625000               0.000000000               0.000000000               0.293562500               0.000000000               0.000000000               0.316500000               0.000000000               0.000000000               0.339437500               0.000000000               0.000000000               0.362375000               0.000000000               0.000000000               0.385312500               0.000000000               0.000000000               0.408250000               0.000000000               0.000000000               0.431187500               0.000000000               0.000000000               0.454125000               0.000000000               0.000000000               0.477062500               0.000000000               0.000000000               0.500000000               0.000000000 </DataArray>
</Points>
<Cells>
<DataArray type="Int32"                                    Name="connectivity"                                                      NumberOfComponents=" 1" format="ascii">
         0          1         18         17          1          2         19         18          2          3         20         19          3          4         21         20          4          5         22         21          5          6         23         22          6          7         24         23          7          8         25         24          8          9         26         25          9         10         27         26         10         11         28         27         11         12         29         28         12         13         30         29         13         14         31         30         14         15         32         31         15         16         33         32         17         18         35         34         18         19         36         35         19         20         37         36         20         21         38         37         21         22         39         38         22         23         40         39         23         24         41         40         24         25         42         41         25         26         43         42         26         27         44         43         27         28         45         44         28         29         46         45         29         30         47         46         30         31         48         47         31         32         49         48         32         33         50         49         34         35         52         51         35         36         53         52         36         37         54         53         37         38         55         54         38         39         56         55         39         40         57         56         40         41         58         57         41         42         59         58         42         43         60         59         43         44         61         60         44         45         62         61         45         46         63         62         46         47         64         63         47         48         65         64         48         49         66         65         49         50         67         66         51         52         69         68         52         53         70         69         53         54         71         70         54         55         72         71         55         56         73         72         56         57         74         73         57         58         75         74         58         59         76         75         59         60         77         76         60         61         78         77         61         62         79         78         62         63         80         79         63         64         81         80         64         65         82         81         65         66         83         82         66         67         84         83         68         69         86         85         69         70         87         86         70         71         88         87         71         72         89         88         72         73         90         89         73         74         91         90         74         75         92         91         75         76         93         92         76         77         94         93         77         78         95         94         78         79         96         95         79         80         97         96         80         81         98         97         81         82         99         98         82         83        100         99         83         84        101        100         85         86        103        102         86         87        104        103         87         88        105        104         88         89        106        105         89         90        107        106         90         91        108        107         91         92        109        108         92         93        110        109         93         94        111        110         94         95        112        111         95         96        113        112         96         97        114        113         97         98        115        114         98         99        116        115         99        100        117        116        100        101        118        117        102        103        120        119        103        104        121        120        104        105        122        121        105        106        123        122        106        107        124        123        107        108        125        124        108        109        126        125        109        110        127        126        110        111        128        127        111        112        129        128        112        113        130        129        113        114        131        130        114        115        132        131        115        116        133        132        116        117        134        133        117        118        135        134        119        120        137        136        120        121        138        137        121        122        139        138        122        123        140        139        123        124        141        140        124        125        142        141        125        126        143        142        126        127        144        143        127        128        145        144        128        129        146        145        129        130        147        146        130        131        148        147        131        132        149        148        132        133        150        149        133        134        151        150        134        135        152        151        136        137        154        153        137        138        155        154        138        139        156        155        139        140        157        156        140        141        158        157        141        142        159        158        142        143        160        159        143        144        161        160        144        145        162        161        145        146        163        162        146        147        164        163        147        148        165        164        148        149        166        165        149        150        167        166        150        151        168        167        151        152        169        168        153        154        171        170        154        155        172        171        155        156        173        172        156        157        174        173        157        158        175        174        158        159        176        175        159        160        177        176        160        161        178        177        161        162        179        178        162        163        180        179        163        164        181        180        164        165        182        181        165        166        183        182        166        167        184        183        167        168        185        184        168        169        186        185        170        171        188        187        171        172        189        188        172        173        190        189        173        174        191        190        174        175        192        191        175        176        193        192        176        177        194        193        177        178        195        194        178        179        196        195        179        180        197        196        180        181        198        197        181        182        199        198        182        183        200        199        183        184        201        200        184        185        202        201        185        186        203        202        187        188        205        204        188        189        206        205        189        190        207        206        190        191        208        207        191        192        209        208        192        193        210        209        193        194        211        210        194        195        212        211        195        196        213        212        196        197        214        213        197        198        215        214        198        199        216        215        199        200        217        216        200        201        218        217        201        202        219        218        202        203        220        219        204        205        222        221        205        206        223        222        206        207        224        223        207        208        225        224        208        209        226        225        209        210        227        226        210        211        228        227        211        212        229        228        212        213        230        229        213        214        231        230        214        215        232        231        215        216        233        232        216        217        234        233        217        218        235        234        218        219        236        235        219        220        237        236        221        222        239        238        222        223        240        239        223        224        241        240        224        225        242        241        225        226        243        242        226        227        244        243        227        228        245        244        228        229        246        245        229        230        247        246        230        231        248        247        231        232        249        248        232        233        250        249        233        234        251        250        234        235        252        251        235        236        253        252        236        237        254        253        238        239        256        255        239        240        257        256        240        241        258        257        241        242        259        258        242        243        260        259        243        244        261        260        244        245        262        261        245        246        263        262        246        247        264        263        247        248        265        264        248        249        266        265        249        250        267        266        250        251        268        267        251        252        269        268        252        253        270        269        253        254        271        270        255        256        273        272        256        257        274        273        257        258        275        274        258        259        276        275        259        260        277        276        260        261        278        277        261        262        279        278        262        263        280        279        263        264        281        280        264        265        282        281        265        266        283        282        266        267        284        283        267        268        285        284        268        269        286        285        269        270        287        286        270        271        288        287        306        307          1          0        307        308          2          1        308        309          3          2        309        310          4          3        310        311          5          4        311        312          6          5        312        313          7          6        313        314          8          7        314        315          9          8        315        316         10          9        316        317         11         10        317        318         12         11        318        319         13         12        319        320         14         13        320        321         15         14        321        322         16         15        323        324        307        306        324        325        308        307        325        326        309        308        326        327        310        309        327        328        311        310        328        329        312        311        329        330        313        312        330        331        314        313        331        332        315        314        332        333        316        315        333        334        317        316        334        335        318        317        335        336        319        318        336        337        320        319        337        338        321        320        338        339        322        321        340        341        324        323        341        342        325        324        342        343        326        325        343        344        327        326        344        345        328        327        345        346        329        328        346        347        330        329        347        348        331        330        348        349        332        331        349        350        333        332        350        351        334        333        351        352        335        334        352        353        336        335        353        354        337        336        354        355        338        337        355        356        339        338        357        358        341        340        358        359        342        341        359        360        343        342        360        361        344        343        361        362        345        344        362        363        346        345        363        364        347        346        364        365        348        347        365        366        349        348        366        367        350        349        367        368        351        350        368        369        352        351        369        370        353        352        370        371        354        353        371        372        355        354        372        373        356        355        374        375        358        357        375        376        359        358        376        377        360        359        377        378        361        360        378        379        362        361        379        380        363        362        380        381        364        363        381        382        365        364        382        383        366        365        383        384        367        366        384        385        368        367        385        386        369        368        386        387        370        369        387        388        371        370        388        389        372        371        389        390        373        372        391        392        375        374        392        393        376        375        393        394        377        376        394        395        378        377        395        396        379        378        396        397        380        379        397        398        381        380        398        399        382        381        399        400        383        382        400        401        384        383        401        402        385        384        402        403        386        385        403        404        387        386        404        405        388        387        405        406        389        388        406        407        390        389        408        409        392        391        409        410        393        392        410        411        394        393        411        412        395        394        412        413        396        395        413        414        397        396        414        415        398        397        415        416        399        398        416        417        400        399        417        418        401        400        418        419        402        401        419        420        403        402        420        421        404        403        421        422        405        404        422        423        406        405        423        424        407        406        425        426        409        408        426        427        410        409        427        428        411        410        428        429        412        411        429        430        413        412        430        431        414        413        431        432        415        414        432        433        416        415        433        434        417        416        434        435        418        417        435        436        419        418        436        437        420        419        437        438        421        420        438        439        422        421        439        440        423        422        440        441        424        423        442        443        426        425        443        444        427        426        444        445        428        427        445        446        429        428        446        447        430        429        447        448        431        430        448        449        432        431        449        450        433        432        450        451        434        433        451        452        435        434        452        453        436        435        453        454        437        436        454        455        438        437        455        456        439        438        456        457        440        439        457        458        441        440        459        460        443        442        460        461        444        443        461        462        445        444        462        463        446        445        463        464        447        446        464        465        448        447        465        466        449        448        466        467        450        449        467        468        451        450        468        469        452        451        469        470        453        452        470        471        454        453        471        472        455        454        472        473        456        455        473        474        457        456        474        475        458        457        476        477        460        459        477        478        461        460        478        479        462        461        479        480        463        462        480        481        464        463        481        482        465        464        482        483        466        465        483        484        467        466        484        485        468        467        485        486        469        468        486        487        470        469        487        488        471        470        488        489        472        471        489        490        473        472        490        491        474        473        491        492        475        474        493        494        477        476        494        495        478        477        495        496        479        478        496        497        480        479        497        498        481        480        498        499        482        481        499        500        483        482        500        501        484        483        501        502        485        484        502        503        486        485        503        504        487        486        504        505        488        487        505        506        489        488        506        507        490        489        507        508        491        490        508        509        492        491        510        511        494        493        511        512        495        494        512        513        496        495        513        514        497        496        514        515        498        497        515        516        499        498        516        517        500        499        517        518        501        500        518        519        502        501        519        520        503        502        520        521        504        503        521        522        505        504        522        523        506        505        523        524        507        506        524        525        508        507        525        526        509        508        527        528        511        510        528        529        512        511        529        530        513        512        530        531        514        513        531        532        515        514        532        533        516        515        533        534        517        516        534        535        518        517        535        536        519        518        536        537        520        519        537        538        521        520        538        539        522        521        539        540        523        522        540        541        524        523        541        542        525        524        542        543        526        525        544        545        528        527        545        546        529        528        546        547        530        529        547        548        531        530        548        549        532        531        549        550        533        532        550        551        534        533        551        552        535        534        552        553        536        535        553        554        537        536        554        555        538        537        555        556        539        538        556        557        540        539        557        558        541        540        558        559        542        541        559        560        543        542        561        562        545        544        562        563        546        545        563        564        547        546        564        565        548        547        565        566        549        548        566        567        550        549        567        568        551        550        568        569        552        551        569        570        553        552        570        571        554        553        571        572        555        554        572        573        556        555        573        574        557        556        574        575        558        557        575        576        559        558        576        577        560        559        578        579        596        595        579        580        597        596        580        581        598        597        581        582        599        598        582        583        600        599        583        584        601        600        584        585        602        601        585        586        603        602        586        587        604        603        587        588        605        604        588        589        606        605        589        590        607        606        590        591        608        607        591        592        609        608        592        593        610        609        593        594        611        610        595        596        613        612        596        597        614        613        597        598        615        614        598        599        616        615        599        600        617        616        600        601        618        617        601        602        619        618        602        603        620        619        603        604        621        620        604        605        622        621        605        606        623        622        606        607        624        623        607        608        625        624        608        609        626        625        609        610        627        626        610        611        628        627        612        613        630        629        613        614        631        630        614        615        632        631        615        616        633        632        616        617        634        633        617        618        635        634        618        619        636        635        619        620        637        636        620        621        638        637        621        622        639        638        622        623        640        639        623        624        641        640        624        625        642        641        625        626        643        642        626        627        644        643        627        628        645        644        629        630        647        646        630        631        648        647        631        632        649        648        632        633        650        649        633        634        651        650        634        635        652        651        635        636        653        652        636        637        654        653        637        638        655        654        638        639        656        655        639        640        657        656        640        641        658        657        641        642        659        658        642        643        660        659        643        644        661        660        644        645        662        661        646        647        664        663        647        648        665        664        648        649        666        665        649        650        667        666        650        651        668        667        651        652        669        668        652        653        670        669        653        654        671        670        654        655        672        671        655        656        673        672        656        657        674        673        657        658        675        674        658        659        676        675        659        660        677        676        660        661        678        677        661        662        679        678        663        664        681        680        664        665        682        681        665        666        683        682        666        667        684        683        667        668        685        684        668        669        686        685        669        670        687        686        670        671        688        687        671        672        689        688        672        673        690        689        673        674        691        690        674        675        692        691        675        676        693        692        676        677        694        693        677        678        695        694        678        679        696        695        680        681        698        697        681        682        699        698        682        683        700        699        683        684        701        700        684        685        702        701        685        686        703        702        686        687        704        703        687        688        705        704        688        689        706        705        689        690        707        706        690        691        708        707        691        692        709        708        692        693        710        709        693        694        711        710        694        695        712        711        695        696        713        712        697        698        715        714        698        699        716        715        699        700        717        716        700        701        718        717        701        702        719        718        702        703        720        719        703        704        721        720        704        705        722        721        705        706        723        722        706        707        724        723        707        708        725        724        708        709        726        725        709        710        727        726        710        711        728        727        711        712        729        728        712        713        730        729        714        715        732        731        715        716        733        732        716        717        734        733        717        718        735        734        718        719        736        735        719        720        737        736        720        721        738        737        721        722        739        738        722        723        740        739        723        724        741        740        724        725        742        741        725        726        743        742        726        727        744        743        727        728        745        744        728        729        746        745        729        730        747        746        731        732        749        748        732        733        750        749        733        734        751        750        734        735        752        751        735        736        753        752        736        737        754        753        737        738        755        754        738        739        756        755        739        740        757        756        740        741        758        757        741        742        759        758        742        743        760        759        743        744        761        760        744        745        762        761        745        746        763        762        746        747        764        763        748        749        766        765        749        750        767        766        750        751        768        767        751        752        769        768        752        753        770        769        753        754        771        770        754        755        772        771        755        756        773        772        756        757        774        773        757        758        775        774        758        759        776        775        759        760        777        776        760        761        778        777        761        762        779        778        762        763        780        779        763        764        781        780        765        766        783        782        766        767        784        783        767        768        785        784        768        769        786        785        769        770        787        786        770        771        788        787        771        772        789        788        772        773        790        789        773        774        791        790        774        775        792        791        775        776        793        792        776        777        794        793        777        778        795        794        778        779        796        795        779        780        797        796        780        781        798        797        782        783        800        799        783        784        801        800        784        785        802        801        785        786        803        802        786        787        804        803        787        788        805        804        788        789        806        805        789        790        807        806        790        791        808        807        791        792        809        808        792        793        810        809        793        794        811        810        794        795        812        811        795        796        813        812        796        797        814        813        797        798        815        814        799        800        817        816        800        801        818        817        801        802        819        818        802        803        820        819        803        804        821        820        804        805        822        821        805        806        823        822        806        807        824        823        807        808        825        824        808        809        826        825        809        810        827        826        810        811        828        827        811        812        829        828        812        813        830        829        813        814        831        830        814        815        832        831        816        817        834        833        817        818        835        834        818        819        836        835        819        820        837        836        820        821        838        837        821        822        839        838        822        823        840        839        823        824        841        840        824        825        842        841        825        826        843        842        826        827        844        843        827        828        845        844        828        829        846        845        829        830        847        846        830        831        848        847        831        832        849        848        833        834        562        561        834        835        563        562        835        836        564        563        836        837        565        564        837        838        566        565        838        839        567        566        839        840        568        567        840        841        569        568        841        842        570        569        842        843        571        570        843        844        572        571        844        845        573        572        845        846        574        573        846        847        575        574        847        848        576        575        848        849        577        576        884        885        579        578        885        886        580        579        886        887        581        580        887        888        582        581        888        889        583        582        889        890        584        583        890        891        585        584        891        892        586        585        892        893        587        586        893        894        588        587        894        895        589        588        895        896        590        589        896        897        591        590        897        898        592        591        898        899        593        592        899        900        594        593        901        902        885        884        902        903        886        885        903        904        887        886        904        905        888        887        905        906        889        888        906        907        890        889        907        908        891        890        908        909        892        891        909        910        893        892        910        911        894        893        911        912        895        894        912        913        896        895        913        914        897        896        914        915        898        897        915        916        899        898        916        917        900        899        918        919        902        901        919        920        903        902        920        921        904        903        921        922        905        904        922        923        906        905        923        924        907        906        924        925        908        907        925        926        909        908        926        927        910        909        927        928        911        910        928        929        912        911        929        930        913        912        930        931        914        913        931        932        915        914        932        933        916        915        933        934        917        916        935        936        919        918        936        937        920        919        937        938        921        920        938        939        922        921        939        940        923        922        940        941        924        923        941        942        925        924        942        943        926        925        943        944        927        926        944        945        928        927        945        946        929        928        946        947        930        929        947        948        931        930        948        949        932        931        949        950        933        932        950        951        934        933        952        953        936        935        953        954        937        936        954        955        938        937        955        956        939        938        956        957        940        939        957        958        941        940        958        959        942        941        959        960        943        942        960        961        944        943        961        962        945        944        962        963        946        945        963        964        947        946        964        965        948        947        965        966        949        948        966        967        950        949        967        968        951        950        969        970        953        952        970        971        954        953        971        972        955        954        972        973        956        955        973        974        957        956        974        975        958        957        975        976        959        958        976        977        960        959        977        978        961        960        978        979        962        961        979        980        963        962        980        981        964        963        981        982        965        964        982        983        966        965        983        984        967        966        984        985        968        967        986        987        970        969        987        988        971        970        988        989        972        971        989        990        973        972        990        991        974        973        991        992        975        974        992        993        976        975        993        994        977        976        994        995        978        977        995        996        979        978        996        997        980        979        997        998        981        980        998        999        982        981        999       1000        983        982       1000       1001        984        983       1001       1002        985        984       1003       1004        987        986       1004       1005        988        987       1005       1006        989        988       1006       1007        990        989       1007       1008        991        990       1008       1009        992        991       1009       1010        993        992       1010       1011        994        993       1011       1012        995        994       1012       1013        996        995       1013       1014        997        996       1014       1015        998        997       1015       1016        999        998       1016       1017       1000        999       1017       1018       1001       1000       1018       1019       1002       1001       1020       1021       1004       1003       1021       1022       1005       1004       1022       1023       1006       1005       1023       1024       1007       1006       1024       1025       1008       1007       1025       1026       1009       1008       1026       1027       1010       1009       1027       1028       1011       1010       1028       1029       1012       1011       1029       1030       1013       1012       1030       1031       1014       1013       1031       1032       1015       1014       1032       1033       1016       1015       1033       1034       1017       1016       1034       1035       1018       1017       1035       1036       1019       1018       1037       1038       1021       1020       1038       1039       1022       1021       1039       1040       1023       1022       1040       1041       1024       1023       1041       1042       1025       1024       1042       1043       1026       1025       1043       1044       1027       1026       1044       1045       1028       1027       1045       1046       1029       1028       1046       1047       1030       1029       1047       1048       1031       1030       1048       1049       1032       1031       1049       1050       1033       1032       1050       1051       1034       1033       1051       1052       1035       1034       1052       1053       1036       1035       1054       1055       1038       1037       1055       1056       1039       1038       1056       1057       1040       1039       1057       1058       1041       1040       1058       1059       1042       1041       1059       1060       1043       1042       1060       1061       1044       1043       1061       1062       1045       1044       1062       1063       1046       1045       1063       1064       1047       1046       1064       1065       1048       1047       1065       1066       1049       1048       1066       1067       1050       1049       1067       1068       1051       1050       1068       1069       1052       1051       1069       1070       1053       1052       1071       1072       1055       1054       1072       1073       1056       1055       1073       1074       1057       1056       1074       1075       1058       1057       1075       1076       1059       1058       1076       1077       1060       1059       1077       1078       1061       1060       1078       1079       1062       1061       1079       1080       1063       1062       1080       1081       1064       1063       1081       1082       1065       1064       1082       1083       1066       1065       1083       1084       1067       1066       1084       1085       1068       1067       1085       1086       1069       1068       1086       1087       1070       1069       1088       1089       1072       1071       1089       1090       1073       1072       1090       1091       1074       1073       1091       1092       1075       1074       1092       1093       1076       1075       1093       1094       1077       1076       1094       1095       1078       1077       1095       1096       1079       1078       1096       1097       1080       1079       1097       1098       1081       1080       1098       1099       1082       1081       1099       1100       1083       1082       1100       1101       1084       1083       1101       1102       1085       1084       1102       1103       1086       1085       1103       1104       1087       1086       1105       1106       1089       1088       1106       1107       1090       1089       1107       1108       1091       1090       1108       1109       1092       1091       1109       1110       1093       1092       1110       1111       1094       1093       1111       1112       1095       1094       1112       1113       1096       1095       1113       1114       1097       1096       1114       1115       1098       1097       1115       1116       1099       1098       1116       1117       1100       1099       1117       1118       1101       1100       1118       1119       1102       1101       1119       1120       1103       1102       1120       1121       1104       1103       1122       1123       1106       1105       1123       1124       1107       1106       1124       1125       1108       1107       1125       1126       1109       1108       1126       1127       1110       1109       1127       1128       1111       1110       1128       1129       1112       1111       1129       1130       1113       1112       1130       1131       1114       1113       1131       1132       1115       1114       1132       1133       1116       1115       1133       1134       1117       1116       1134       1135       1118       1117       1135       1136       1119       1118       1136       1137       1120       1119       1137       1138       1121       1120        272        273       1123       1122        273        274       1124       1123        274        275       1125       1124        275        276       1126       1125        276        277       1127       1126        277        278       1128       1127        278        279       1129       1128        279        280       1130       1129        280        281       1131       1130        281        282       1132       1131        282        283       1133       1132        283        284       1134       1133        284        285       1135       1134        285        286       1136       1135        286        287       1137       1136        287        288       1138       1137 </DataArray>
<DataArray type="Int32"                                    Name="offsets"                                                      NumberOfComponents=" 1" format="ascii">
         4          8         12         16         20         24         28         32         36         40         44         48         52         56         60         64         68         72         76         80         84         88         92         96        100        104        108        112        116        120        124        128        132        136        140        144        148        152        156        160        164        168        172        176        180        184        188        192        196        200        204        208        212        216        220        224        228        232        236        240        244        248        252        256        260        264        268        272        276        280        284        288        292        296        300        304        308        312        316        320        324        328        332        336        340        344        348        352        356        360        364        368        372        376        380        384        388        392        396        400        404        408        412        416        420        424        428        432        436        440        444        448        452        456        460        464        468        472        476        480        484        488        492        496        500        504        508        512        516        520        524        528        532        536        540        544        548        552        556        560        564        568        572        576        580        584        588        592        596        600        604        608        612        616        620        624        628        632        636        640        644        648        652        656        660        664        668        672        676        680        684        688        692        696        700        704        708        712        716        720        724        728        732        736        740        744        748        752        756        760        764        768        772        776        780        784        788        792        796        800        804        808        812        816        820        824        828        832        836        840        844        848        852        856        860        864        868        872        876        880        884        888        892        896        900        904        908        912        916        920        924        928        932        936        940        944        948        952        956        960        964        968        972        976        980        984        988        992        996       1000       1004       1008       1012       1016       1020       1024       1028       1032       1036       1040       1044       1048       1052       1056       1060       1064       1068       1072       1076       1080       1084       1088       1092       1096       1100       1104       1108       1112       1116       1120       1124       1128       1132       1136       1140       1144       1148       1152       1156       1160       1164       1168       1172       1176       1180       1184       1188       1192       1196       1200       1204       1208       1212       1216       1220       1224       1228       1232       1236       1240       1244       1248       1252       1256       1260       1264       1268       1272       1276       1280       1284       1288       1292       1296       1300       1304       1308       1312       1316       1320       1324       1328       1332       1336       1340       1344       1348       1352       1356       1360       1364       1368       1372       1376       1380       1384       1388       1392       1396       1400       1404       1408       1412       1416       1420       1424       1428       1432       1436       1440       1444       1448       1452       1456       1460       1464       1468       1472       1476       1480       1484       1488       1492       1496       1500       1504       1508       1512       1516       1520       1524       1528       1532       1536       1540       1544       1548       1552       1556       1560       1564       1568       1572       1576       1580       1584       1588       1592       1596       1600       1604       1608       1612       1616       1620       1624       1628       1632       1636       1640       1644       1648       1652       1656       1660       1664       1668       1672       1676       1680       1684       1688       1692       1696       1700       1704       1708       1712       1716       1720       1724       1728       1732       1736       1740       1744       1748       1752       1756       1760       1764       1768       1772       1776       1780       1784       1788       1792       1796       1800       1804       1808       1812       1816       1820       1824       1828       1832       1836       1840       1844       1848       1852       1856       1860       1864       1868       1872       1876       1880       1884       1888       1892       1896       1900       1904       1908       1912       1916       1920       1924       1928       1932       1936       1940       1944       1948       1952       1956       1960       1964       1968       1972       1976       1980       1984       1988       1992       1996       2000       2004       2008       2012       2016       2020       2024       2028       2032       2036       2040       2044       2048       2052       2056       2060       2064       2068       2072       2076       2080       2084       2088       2092       2096       2100       2104       2108       2112       2116       2120       2124       2128       2132       2136       2140       2144       2148       2152       2156       2160       2164       2168       2172       2176       2180       2184       2188       2192       2196       2200       2204       2208       2212       2216       2220       2224       2228       2232       2236       2240       2244       2248       2252       2256       2260       2264       2268       2272       2276       2280       2284       2288       2292       2296       2300       2304       2308       2312       2316       2320       2324       2328       2332       2336       2340       2344       2348       2352       2356       2360       2364       2368       2372       2376       2380       2384       2388       2392       2396       2400       2404       2408       2412       2416       2420       2424       2428       2432       2436       2440       2444       2448       2452       2456       2460       2464       2468       2472       2476       2480       2484       2488       2492       2496       2500       2504       2508       2512       2516       2520       2524       2528       2532       2536       2540       2544       2548       2552       2556       2560       2564       2568       2572       2576       2580       2584       2588       2592       2596       2600       2604       2608       2612       2616       2620       2624       2628       2632       2636       2640       2644       2648       2652       2656       2660       2664       2668       2672       2676       2680       2684       2688       2692       2696       2700       2704       2708       2712       2716       2720       2724       2728       2732       2736       2740       2744       2748       2752       2756       2760       2764       2768       2772       2776       2780       2784       2788       2792       2796       2800       2804       2808       2812       2816       2820       2824       2828       2832       2836       2840       2844       2848       2852       2856       2860       2864       2868       2872       2876       2880       2884       2888       2892       2896       2900       2904       2908       2912       2916       2920       2924       2928       2932       2936       2940       2944       2948       2952       2956       2960       2964       2968       2972       2976       2980       2984       2988       2992       2996       3000       3004       3008       3012       3016       3020       3024       3028       3032       3036       3040       3044       3048       3052       3056       3060       3064       3068       3072       3076       3080       3084       3088       3092       3096       3100       3104       3108       3112       3116       3120       3124       3128       3132       3136       3140       3144       3148       3152       3156       3160       3164       3168       3172       3176       3180       3184       3188       3192       3196       3200       3204       3208       3212       3216       3220       3224       3228       3232       3236       3240       3244       3248       3252       3256       3260       3264       3268       3272       3276       3280       3284       3288       3292       3296       3300       3304       3308       3312       3316       3320       3324       3328       3332       3336       3340       3344       3348       3352       3356       3360       3364       3368       3372       3376       3380       3384       3388       3392       3396       3400       3404       3408       3412       3416       3420       3424       3428       3432       3436       3440       3444       3448       3452       3456       3460       3464       3468       3472       3476       3480       3484       3488       3492       3496       3500       3504       3508       3512       3516       3520       3524       3528       3532       3536       3540       3544       3548       3552       3556       3560       3564       3568       3572       3576       3580       3584       3588       3592       3596       3600       3604       3608       3612       3616       3620       3624       3628       3632       3636       3640       3644       3648       3652       3656       3660       3664       3668       3672       3676       3680       3684       3688       3692       3696       3700       3704       3708       3712       3716       3720       3724       3728       3732       3736       3740       3744       3748       3752       3756       3760       3764       3768       3772       3776       3780       3784       3788       3792       3796       3800       3804       3808       3812       3816       3820       3824       3828       3832       3836       3840       3844       3848       3852       3856       3860       3864       3868       3872       3876       3880       3884       3888       3892       3896       3900       3904       3908       3912       3916       3920       3924       3928       3932       3936       3940       3944       3948       3952       3956       3960       3964       3968       3972       3976       3980       3984       3988       3992       3996       4000       4004       4008       4012       4016       4020       4024       4028       4032       4036       4040       4044       4048       4052       4056       4060       4064       4068       4072       4076       4080       4084       4088       4092       4096 </DataArray>
<DataArray type="UInt8"                                    Name="types"                                                      NumberOfComponents=" 1" format="ascii">
         9          9          9          9          9          9          9          9          9          9          9          9          9          9          9          9          9          9          9          9          9          9          9          9          9          9          9          9          9          9          9          9          9          9          9          9          9          9          9          9          9          9          9          9          9          9          9          9          9          9          9          9          9          9          9          9          9          9          9          9          9          9          9          9          9          9          9          9          9          9          9          9          9          9          9          9          9          9          9          9          9          9          9          9          9          9          9          9          9          9          9          9          9          9          9          9          9          9          9          9          9          9          9          9          9          9          9          9          9          9          9          9          9          9          9          9          9          9          9          9          9          9          9          9          9          9          9          9          9          9          9          9          9          9          9          9          9          9          9          9          9          9          9          9          9          9          9          9          9          9          9          9          9          9          9          9          9          9          9          9          9          9          9          9          9          9          9          9          9          9          9          9          9          9          9          9          9          9          9          9          9          9          9          9          9          9          9          9          9          9          9          9          9          9          9          9          9          9          9          9          9          9          9          9          9          9          9          9          9          9          9          9          9          9          9          9          9          9          9          9          9          9          9          9          9          9          9          9          9          9          9          9          9          9          9          9          9          9          9          9          9          9          9          9          9          9          9          9          9          9          9          9          9          9          9          9          9          9          9          9          9          9          9          9          9          9          9          9          9          9          9          9          9          9          9          9          9          9          9          9          9          9          9          9          9          9          9          9          9          9          9          9          9          9          9          9          9          9          9          9          9          9          9          9          9          9          9          9          9          9          9          9          9          9          9          9          9          9          9          9          9          9          9          9          9          9          9          9          9          9          9          9          9          9          9          9          9          9          9          9          9          9          9          9          9          9          9          9          9          9          9          9          9          9          9          9          9          9          9          9          9          9          9          9          9          9          9          9          9          9          9          9          9          9          9          9          9          9          9          9          9          9          9          9          9          9          9          9          9          9          9          9          9          9          9          9          9          9          9          9          9          9          9          9          9          9          9          9          9          9          9          9          9          9          9          9          9          9          9          9          9          9          9          9          9          9          9          9          9          9          9          9          9          9          9          9          9          9          9          9          9          9          9          9          9          9          9          9          9          9          9          9          9          9          9          9          9          9          9          9          9          9          9          9          9          9          9          9          9          9          9          9          9          9          9          9          9          9          9          9          9          9          9          9          9          9          9          9          9          9          9          9          9          9          9          9          9          9          9          9          9          9          9          9          9          9          9          9          9          9          9          9          9          9          9          9          9          9          9          9          9          9          9          9          9          9          9          9          9          9          9          9          9          9          9          9          9          9          9          9          9          9          9          9          9          9          9          9          9          9          9          9          9          9          9          9          9          9          9          9          9          9          9          9          9          9          9          9          9          9          9          9          9          9          9          9          9          9          9          9          9          9          9          9          9          9          9          9          9          9          9          9          9          9          9          9          9          9          9          9          9          9          9          9          9          9          9          9          9          9          9          9          9          9          9          9          9          9          9          9          9          9          9          9          9          9          9          9          9          9          9          9          9          9          9          9          9          9          9          9          9          9          9          9          9          9          9          9          9          9          9          9          9          9          9          9          9          9          9          9          9          9          9          9          9          9          9          9          9          9          9          9          9          9          9          9          9          9          9          9          9          9          9          9          9          9          9          9          9          9          9          9          9          9          9          9          9          9          9          9          9          9          9          9          9          9          9          9          9          9          9          9          9          9          9          9          9          9          9          9          9          9          9          9          9          9          9          9          9          9          9          9          9          9          9          9          9          9          9          9          9          9          9          9          9          9          9          9          9          9          9          9          9          9          9          9          9          9          9          9          9          9          9          9          9          9          9          9          9          9          9          9          9          9          9          9          9          9          9          9          9          9          9          9          9          9          9          9          9          9          9          9          9          9          9          9          9          9          9          9          9          9          9          9          9          9          9          9          9          9          9          9          9          9          9          9          9          9          9          9          9          9          9          9          9          9          9          9          9          9          9          9          9          9          9          9          9          9          9          9          9          9          9          9          9          9          9          9          9          9          9          9          9          9          9          9          9          9          9          9          9          9          9          9          9          9          9          9          9          9          9          9          9          9          9          9          9          9          9          9          9          9          9          9          9          9          9          9          9          9          9          9          9          9          9          9          9          9          9          9          9          9          9          9          9          9          9          9          9          9          9          9          9          9          9          9          9          9          9          9          9          9          9          9          9          9          9          9          9          9          9          9          9          9          9          9          9          9          9          9          9          9          9          9          9          9          9          9          9          9          9          9          9          9          9          9          9          9          9          9          9          9          9          9          9          9          9          9          9          9          9          9          9          9          9          9          9          9          9          9          9          9          9          9          9          9          9          9          9          9          9          9          9          9          9          9          9          9          9          9          9          9          9          9          9          9          9          9          9          9          9          9          9          9          9          9          9          9          9          9          9          9          9          9 </DataArray>
</Cells>
<CellData>
<DataArray type="Int32"                                    Name="material"                                                      NumberOfComponents=" 1" format="ascii">
         1          1          1          1          1          1          1          1          1          1          1          1          1          1          1          1          1          1          1          1          1          1          1          1          1          1          1          1          1          1          1          1          1          1          1          1          1          1          1          1          1          1          1          1          1          1          1          1          1          1          1          1          1          1          1          1          1          1          1          1          1          1          1          1          1          1          1          1          1          1          1          1          1          1          1          1          1          1          1          1          1          1          1          1          1          1          1          1          1          1          1          1          1          1          1          1          1          1          1          1          1          1          1          1          1          1          1          1          1          1          1          1          1          1          1          1          1          1          1          1          1          1          1          1          1          1          1          1          1          1          1          1          1          1          1          1          1          1          1          1          1          1          1          1          1          1          1          1          1          1          1          1          1          1          1          1          1          1          1          1          1          1          1          1          1          1          1          1          1          1          1          1          1          1          1          1          1          1          1          1          1          1          1          1          1          1          1          1          1          1          1          1          1          1          1          1          1          1          1          1          1          1          1          1          1          1          1          1          1          1          1          1          1          1          1          1          1          1          1          1          1          1          1          1          1          1          1          1          1          1          1          1          1          1          1          1          1          1          1          1          1          1          1          1          1          1          1          1          1          1          1          1          1          1          1          1          1          1          1          1          1          1          1          1          1          1          1          1          1          1          1          1          1          1          1          1          1          1          1          1          1          1          1          1          1          1          1          1          1          1          1          1          1          1          1          1          1          1          1          1          1          1          1          1          1          1          1          1          1          1          1          1          1          1          1          1          1          1          1          1          1          1          1          1          1          1          1          1          1          1          1          1          1          1          1          1          1          1          1          1          1          1          1          1          1          1          1          1          1          1          1          1          1          1          1          1          1          1          1          1          1          1          1          1          1          1          1          1          1          1          1          1          1          1          1          1          1          1          1          1          1          1          1          1          1          1          1          1          1          1          1          1          1          1          1          1          1          1          1          1          1          1          1          1          1          1          1          1          1          1          1          1          1          1          1          1          1          1          1          1          1          1          1          1          1          1          1          1          1          1          1          1          1          1          1          1          1          1          1          1          1          1          1          1          1          1          1          1          1          1          1          1          1          1          1          1          1          1          1          1          1          1          1          1          1          1          1          1          1          1          1          1          1          1          1          1          1          1          1          1          1          1          1          1          1          1          1          1          1          1          1          1          1          1          1          1          1          1          1          1          1          1          1          1          1          1          1          1          1          1          1          1          1          1          1          1          1          1          1          1          1          1          1          1          1          1          1          1          1          1          1          1          1          1          1          1          1          1          1          1          1          1          1          1          1          1          1          1          1          1          1          1          1          1          1          1          1          1          1          1          1          1          1          1          1          1          1          1          1          1          1          1          1          1          1          1          1          1          1          1          1          1          1          1          1          1          1          1          1          1          1          1          1          1          1          1          1          1          1          1          1          1          1          1          1          1          1          1          1          1          1          1          1          1          1          1          1          1          1          1          1          1          1          1          1          1          1          1          1          1          1          1          1          1          1          1          1          1          1          1          1          1          1          1          1          1          1          1          1          1          1          1          1          1          1          1          1          1          1          1          1          1          1          1          1          1          1          1          1          1          1          1          1          1          1          1          1          1          1          1          1          1          1          1          1          1          1          1          1          1          1          1          1          1          1          1          1          1          1          1          1          1          1          1          1          1          1          1          1          1          1          1          1          1          1          1          1          1          1          1          1          1          1          1          1          1          1          1          1          1          1          1          1          1          1          1          1          1          1          1          1          1          1          1          1          1          1          1          1          1          1          1          1          1          1          1          1          1          1          1          1          1          1          1          1          1          1          1          1          1          1          1          1          1          1          1          1          1          1          1          1          1          1          1          1          1          1          1          1          1          1          1          1          1          1          1          1          1          1          1          1          1          1          1          1          1          1          1          1          1          1          1          1          1          1          1          1          1          1          1          1          1          1          1          1          1          1          1          1          1          1          1          1          1          1          1          1          1          1          1          1          1          1          1          1          1          1          1          1          1          1          1          1          1          1          1          1          1          1          1          1          1          1          1          1          1          1          1          1          1          1          1          1          1          1          1          1          1          1          1          1          1          1          1          1          1          1          1          1          1          1          1          1          1          1          1          1          1          1          1          1          1          1          1          1          1          1          1          1          1          1          1          1          1          1          1          1          1          1          1          1          1          1          1          1          1          1          1          1          1          1          1          1          1          1          1          1          1          1          1          1          1          1          1          1          1          1          1          1          1          1          1          1          1          1          1          1          1          1          1          1          1          1          1          1          1          1          1          1          1          1          1          1          1          1          1          1          1          1          1          1          1          1          1          1          1          1          1          1          1          1          1          1          1          1          1          1          1          1          1          1          1          1          1          1          1          1          1          1          1          1          1          1          1          1          1          1          1          1          1          1          1          1          1 </DataArray>
</CellData>
<PointData>
<DataArray type="Float64"                                    Name="u"                                                      NumberOfComponents=" 3" format="ascii">
              0.000008939              -0.000000000               0.999999999               0.000001334              -0.000000000               0.999999999              -0.000002188              -0.000000000               0.999999999              -0.000003981              -0.000000000               0.999999999              -0.000005093               0.000000000               0.999999999              -0.000006095               0.000000000               0.999999999              -0.000007285               0.000000000               0.999999999              -0.000008830              -0.000000000               0.999999999              -0.000010755               0.000000000               0.999999999              -0.000013175               0.000000000               0.999999999              -0.000016082               0.000000000               0.999999999              -0.000019454              -0.000000000               0.999999999              -0.000023431               0.000000000               0.999999999              -0.000027989              -0.000000000               0.999999999              -0.000033003              -0.000000000               0.999999999              -0.000038395              -0.000000000               0.999999999              -0.000044190              -0.000000000               0.999999999               0.000008837               0.000018946               0.999999999               0.000001487               0.000017092               0.999999999              -0.000001891               0.000016614               0.999999999              -0.000003661               0.000016988               0.999999999              -0.000004827               0.000017934               0.999999999              -0.000005909               0.000019328               0.999999999              -0.000007228               0.000021018               0.999999999              -0.000008898               0.000023018               0.999999999              -0.000011014               0.000025172               0.999999999              -0.000013592               0.000027578               0.999999999              -0.000016672               0.000030141               0.999999999              -0.000020289               0.000033009               0.999999999              -0.000024442               0.000036048               0.999999999              -0.000029113               0.000039226               0.999999999              -0.000034244               0.000042446               0.999999999              -0.000039808               0.000045736               0.999999999              -0.000045777               0.000049273               0.999999999               0.000008592               0.000037736               0.999999999               0.000001961               0.000033978               0.999999999              -0.000001063               0.000033125               0.999999999              -0.000002762               0.000033959               0.999999999              -0.000004073               0.000035923               0.999999999              -0.000005457               0.000038715               0.999999999              -0.000007170               0.000042176               0.999999999              -0.000009287               0.000046085               0.999999999              -0.000011845               0.000050485               0.999999999              -0.000014928               0.000055202               0.999999999              -0.000018536               0.000060416               0.999999999              -0.000022688               0.000066026               0.999999999              -0.000027401               0.000072088               0.999999999              -0.000032618               0.000078298               0.999999999              -0.000038270               0.000084586               0.999999999              -0.000044253               0.000091121               0.999999999              -0.000050590               0.000098070               0.999999999               0.000008212               0.000056180               0.999999999               0.000002786               0.000050508               0.999999999               0.000000273               0.000049418               0.999999999              -0.000001411               0.000050863               0.999999999              -0.000003045               0.000053955               0.999999999              -0.000004942               0.000058257               0.999999999              -0.000007312               0.000063418               0.999999999              -0.000010146               0.000069388               0.999999999              -0.000013467               0.000075879               0.999999999              -0.000017312               0.000083045               0.999999999              -0.000021708               0.000090779               0.999999999              -0.000026682               0.000099236               0.999999999              -0.000032193               0.000108125               0.999999999              -0.000038132               0.000117193               0.999999999              -0.000044416               0.000126299               0.999999999              -0.000051042               0.000135804               0.999999999              -0.000057988               0.000145823               0.999999999               0.000007725               0.000074079               0.999999999               0.000003946               0.000066559               0.999999999               0.000001956               0.000065421               0.999999999               0.000000166               0.000067672               0.999999999              -0.000001980               0.000072052               0.999999999              -0.000004637               0.000077906               0.999999999              -0.000007858               0.000084908               0.999999999              -0.000011614               0.000092773               0.999999999              -0.000015886               0.000101452               0.999999999              -0.000020711               0.000110945               0.999999999              -0.000026097               0.000121280               0.999999999              -0.000032046               0.000132434               0.999999999              -0.000038460               0.000143995               0.999999999              -0.000045150               0.000155651               0.999999999              -0.000052131               0.000167380               0.999999999              -0.000059435               0.000179639               0.999999999              -0.000067000               0.000192379               0.999999999               0.000007200               0.000091280               0.999999999               0.000005346               0.000082033               0.999999999               0.000003810               0.000081113               0.999999999               0.000001696               0.000084335               0.999999999              -0.000001165               0.000090090               0.999999999              -0.000004688               0.000097563               0.999999999              -0.000008864               0.000106379               0.999999999              -0.000013650               0.000116256               0.999999999              -0.000018991               0.000127187               0.999999999              -0.000024860               0.000139091               0.999999999              -0.000031303               0.000152071               0.999999999              -0.000038175               0.000165759               0.999999999              -0.000045333               0.000179758               0.999999999              -0.000052725               0.000193962               0.999999999              -0.000060432               0.000208358               0.999999999              -0.000068490               0.000223382               0.999999999              -0.000076867               0.000238909               0.999999999               0.000006669               0.000107617               0.999999999               0.000006875               0.000096887               0.999999999               0.000005590               0.000096361               0.999999999               0.000002968               0.000100665               0.999999999              -0.000000702               0.000107884               0.999999999              -0.000005194               0.000117089               0.999999999              -0.000010383               0.000127859               0.999999999              -0.000016214               0.000139851               0.999999999              -0.000022539               0.000153041               0.999999999              -0.000029421               0.000167472               0.999999999              -0.000036861               0.000183009               0.999999999              -0.000044570               0.000199089               0.999999999              -0.000052444               0.000215531               0.999999999              -0.000060612               0.000232338               0.999999999              -0.000069152               0.000249691               0.999999999              -0.000078107               0.000267790               0.999999999              -0.000087427               0.000286348               0.999999999               0.000006067               0.000122844               0.999999999               0.000008392               0.000111045               0.999999999               0.000007139               0.000111049               0.999999999               0.000003834               0.000116522               0.999999999              -0.000000752               0.000125296               0.999999999              -0.000006183               0.000136355               0.999999999              -0.000012286               0.000149111               0.999999999              -0.000018976               0.000163357               0.999999999              -0.000026270               0.000179030               0.999999999              -0.000034163               0.000196073               0.999999999              -0.000042437               0.000214221               0.999999999              -0.000050884               0.000232871               0.999999999              -0.000059572               0.000251923               0.999999999              -0.000068622               0.000271731               0.999999999              -0.000078117               0.000292366               0.999999999              -0.000087997               0.000313794               0.999999999              -0.000098216               0.000335795               0.999999999               0.000005358               0.000136706               0.999999999               0.000009806               0.000124461               0.999999999               0.000008264               0.000125062               0.999999999               0.000004191               0.000131775               0.999999999              -0.000001256               0.000142149               0.999999999              -0.000007527               0.000155089               0.999999999              -0.000014411               0.000170029               0.999999999              -0.000021888               0.000186730               0.999999999              -0.000030084               0.000205128               0.999999999              -0.000038846               0.000224947               0.999999999              -0.000047782               0.000245793               0.999999999              -0.000056931               0.000267268               0.999999999              -0.000066335               0.000289602               0.999999999              -0.000076117               0.000313054               0.999999999              -0.000086272               0.000337704               0.999999999              -0.000096763               0.000363399               0.999999999              -0.000107588               0.000389750               0.999999999               0.000004410               0.000149644               0.999999999               0.000010539               0.000138286               0.999999999               0.000009838               0.000137637               0.999999999               0.000006349               0.000142869               0.999999999               0.000001519               0.000151687               0.999999999              -0.000004094               0.000163068               0.999999999              -0.000010135               0.000176461               0.999999999              -0.000016630               0.000191522               0.999999999              -0.000023614               0.000208166               0.999999999              -0.000031290               0.000226253               0.999999999              -0.000039211               0.000245442               0.999999999              -0.000047236               0.000265522               0.999999999              -0.000055327               0.000286345               0.999999999              -0.000063417               0.000308177               0.999999999              -0.000071748               0.000331191               0.999999999              -0.000080668               0.000355548               0.999999999              -0.000090006               0.000381038               0.999999999               0.000003549               0.000161292               0.999999999               0.000010609               0.000151459               0.999999999               0.000010786               0.000150206               0.999999999               0.000008039               0.000154234               0.999999999               0.000003846               0.000161669               0.999999999              -0.000001021               0.000171645               0.999999999              -0.000006270               0.000183570               0.999999999              -0.000011822               0.000197149               0.999999999              -0.000017764               0.000212201               0.999999999              -0.000024194               0.000228566               0.999999999              -0.000031049               0.000246149               0.999999999              -0.000037861               0.000264740               0.999999999              -0.000044680               0.000284227               0.999999999              -0.000051419               0.000304578               0.999999999              -0.000058344               0.000325929               0.999999999              -0.000065690               0.000348561               0.999999999              -0.000073443               0.000372502               0.999999999               0.000002761               0.000171458               0.999999999               0.000010057               0.000163686               0.999999999               0.000010959               0.000162321               0.999999999               0.000008978               0.000165494               0.999999999               0.000005574               0.000171871               0.999999999               0.000001412               0.000180609               0.999999999              -0.000002994               0.000191268               0.999999999              -0.000007648               0.000203525               0.999999999              -0.000012515               0.000217174               0.999999999              -0.000017832               0.000232039               0.999999999              -0.000023427               0.000248090               0.999999999              -0.000028972               0.000265267               0.999999999              -0.000034594               0.000283393               0.999999999              -0.000040364               0.000302344               0.999999999              -0.000046044               0.000322252               0.999999999              -0.000051747               0.000343303               0.999999999              -0.000057595               0.000365737               0.999999999               0.000002054               0.000180008               0.999999999               0.000008873               0.000174485               0.999999999               0.000010264               0.000173477               0.999999999               0.000009008               0.000176185               0.999999999               0.000006388               0.000181783               0.999999999               0.000003053               0.000189626               0.999999999              -0.000000522               0.000199231               0.999999999              -0.000004219               0.000210433               0.999999999              -0.000008049               0.000222898               0.999999999              -0.000012212               0.000236555               0.999999999              -0.000016517               0.000251305               0.999999999              -0.000020942               0.000267107               0.999999999              -0.000025535               0.000283936               0.999999999              -0.000030197               0.000301770               0.999999999              -0.000034712               0.000320637               0.999999999              -0.000038838               0.000340521               0.999999999              -0.000042736               0.000361634               0.999999999               0.000001447               0.000186854               0.999999999               0.000007161               0.000183458               0.999999999               0.000008674               0.000183071               0.999999999               0.000008014               0.000185637               0.999999999               0.000006157               0.000190767               0.999999999               0.000003704               0.000198004               0.999999999               0.000000998               0.000206897               0.999999999              -0.000001735               0.000217223               0.999999999              -0.000004624               0.000228793               0.999999999              -0.000007639               0.000241505               0.999999999              -0.000010819               0.000255221               0.999999999              -0.000014168               0.000269964               0.999999999              -0.000017589               0.000285754               0.999999999              -0.000021010               0.000302692               0.999999999              -0.000024292               0.000320842               0.999999999              -0.000027117               0.000340078               0.999999999              -0.000029297               0.000360311               0.999999999               0.000000920               0.000191842               0.999999999               0.000005020               0.000190181               0.999999999               0.000006296               0.000190491               0.999999999               0.000006011               0.000193133               0.999999999               0.000004890               0.000198023               0.999999999               0.000003252               0.000204891               0.999999999               0.000001474               0.000213342               0.999999999              -0.000000348               0.000223081               0.999999999              -0.000002259               0.000233989               0.999999999              -0.000004306               0.000245952               0.999999999              -0.000006364               0.000259007               0.999999999              -0.000008545               0.000273204               0.999999999              -0.000010777               0.000288449               0.999999999              -0.000013034               0.000304827               0.999999999              -0.000015048               0.000322487               0.999999999              -0.000016759               0.000341388               0.999999999              -0.000017727               0.000361216               0.999999999               0.000000439               0.000194843               0.999999999               0.000002580               0.000194333               0.999999999               0.000003328               0.000195173               0.999999999               0.000003210               0.000197970               0.999999999               0.000002707               0.000202768               0.999999999               0.000001891               0.000209432               0.999999999               0.000001022               0.000217636               0.999999999               0.000000105               0.000227087               0.999999999              -0.000000866               0.000237651               0.999999999              -0.000001939               0.000249206               0.999999999              -0.000002905               0.000261851               0.999999999              -0.000003856               0.000275703               0.999999999              -0.000005019               0.000290798               0.999999999              -0.000006211               0.000307072               0.999999999              -0.000007213               0.000324528               0.999999999              -0.000007855               0.000343202               0.999999999              -0.000008152               0.000362827               0.999999999              -0.000000000               0.000195850               0.999999999              -0.000000000               0.000195769               0.999999999              -0.000000000               0.000196790               0.999999999              -0.000000000               0.000199624               0.999999999               0.000000000               0.000204439               0.999999999               0.000000000               0.000211035               0.999999999               0.000000000               0.000219143               0.999999999               0.000000000               0.000228517               0.999999999              -0.000000000               0.000238928               0.999999999               0.000000000               0.000250424               0.999999999               0.000000000               0.000263035               0.999999999              -0.000000000               0.000276653               0.999999999              -0.000000000               0.000291623               0.999999999              -0.000000000               0.000308018               0.999999999               0.000000000               0.000325566               0.999999999              -0.000000000               0.000344016               0.999999999              -0.000000000               0.000363403               0.999999999               0.000008939              -0.000000000               0.999999999               0.000001334              -0.000000000               0.999999999              -0.000002188              -0.000000000               0.999999999              -0.000003981              -0.000000000               0.999999999              -0.000005093               0.000000000               0.999999999              -0.000006095               0.000000000               0.999999999              -0.000007285               0.000000000               0.999999999              -0.000008830              -0.000000000               0.999999999              -0.000010755               0.000000000               0.999999999              -0.000013175               0.000000000               0.999999999              -0.000016082               0.000000000               0.999999999              -0.000019454              -0.000000000               0.999999999              -0.000023431               0.000000000               0.999999999              -0.000027989              -0.000000000               0.999999999              -0.000033003              -0.000000000               0.999999999              -0.000038395              -0.000000000               0.999999999              -0.000044190              -0.000000000               0.999999999               0.000008837              -0.000018946               0.999999999               0.000001487              -0.000017092               0.999999999              -0.000001891              -0.000016614               0.999999999              -0.000003661              -0.000016988               0.999999999              -0.000004827              -0.000017934               0.999999999              -0.000005909              -0.000019328               0.999999999              -0.000007228              -0.000021018               0.999999999              -0.000008898              -0.000023018               0.999999999              -0.000011014              -0.000025172               0.999999999              -0.000013592              -0.000027578               0.999999999              -0.000016672              -0.000030141               0.999999999              -0.000020289              -0.000033009               0.999999999              -0.000024442              -0.000036048               0.999999999              -0.000029113              -0.000039226               0.999999999              -0.000034244              -0.000042446               0.999999999              -0.000039808              -0.000045736               0.999999999              -0.000045777              -0.000049273               0.999999999               0.000008592              -0.000037736               0.999999999               0.000001961              -0.000033978               0.999999999              -0.000001063              -0.000033125               0.999999999              -0.000002762              -0.000033959               0.999999999              -0.000004073              -0.000035923               0.999999999              -0.000005457              -0.000038715               0.999999999              -0.000007170              -0.000042176               0.999999999              -0.000009287              -0.000046085               0.999999999              -0.000011845              -0.000050485               0.999999999              -0.000014928              -0.000055202               0.999999999              -0.000018536              -0.000060416               0.999999999              -0.000022688              -0.000066026               0.999999999              -0.000027401              -0.000072088               0.999999999              -0.000032618              -0.000078298               0.999999999              -0.000038270              -0.000084586               0.999999999              -0.000044253              -0.000091121               0.999999999              -0.000050590              -0.000098070               0.999999999               0.000008212              -0.000056180               0.999999999               0.000002786              -0.000050508               0.999999999               0.000000273              -0.000049418               0.999999999              -0.000001411              -0.000050863               0.999999999              -0.000003045              -0.000053955               0.999999999              -0.000004942              -0.000058257               0.999999999              -0.000007312              -0.000063418               0.999999999              -0.000010146              -0.000069388               0.999999999              -0.000013467              -0.000075879               0.999999999              -0.000017312              -0.000083045               0.999999999              -0.000021708              -0.000090779               0.999999999              -0.000026682              -0.000099236               0.999999999              -0.000032193              -0.000108125               0.999999999              -0.000038132              -0.000117193               0.999999999              -0.000044416              -0.000126299               0.999999999              -0.000051042              -0.000135804               0.999999999              -0.000057988              -0.000145823               0.999999999               0.000007725              -0.000074079               0.999999999               0.000003946              -0.000066559               0.999999999               0.000001956              -0.000065421               0.999999999               0.000000166              -0.000067672               0.999999999              -0.000001980              -0.000072052               0.999999999              -0.000004637              -0.000077906               0.999999999              -0.000007858              -0.000084908               0.999999999              -0.000011614              -0.000092773               0.999999999              -0.000015886              -0.000101452               0.999999999              -0.000020711              -0.000110945               0.999999999              -0.000026097              -0.000121280               0.999999999              -0.000032046              -0.000132434               0.999999999              -0.000038460              -0.000143995               0.999999999              -0.000045150              -0.000155651               0.999999999              -0.000052131              -0.000167380               0.999999999              -0.000059435              -0.000179639               0.999999999              -0.000067000              -0.000192379               0.999999999               0.000007200              -0.000091280               0.999999999               0.000005346              -0.000082033               0.999999999               0.000003810              -0.000081113               0.999999999               0.000001696              -0.000084335               0.999999999              -0.000001165              -0.000090090               0.999999999              -0.000004688              -0.000097563               0.999999999              -0.000008864              -0.000106379               0.999999999              -0.000013650              -0.000116256               0.999999999              -0.000018991              -0.000127187               0.999999999              -0.000024860              -0.000139091               0.999999999              -0.000031303              -0.000152071               0.999999999              -0.000038175              -0.000165759               0.999999999              -0.000045333              -0.000179758               0.999999999              -0.000052725              -0.000193962               0.999999999              -0.000060432              -0.000208358               0.999999999              -0.000068490              -0.000223382               0.999999999              -0.000076867              -0.000238909               0.999999999               0.000006669              -0.000107617               0.999999999               0.000006875              -0.000096887               0.999999999               0.000005590              -0.000096361               0.999999999               0.000002968              -0.000100665               0.999999999              -0.000000702              -0.000107884               0.999999999              -0.000005194              -0.000117089               0.999999999              -0.000010383              -0.000127859               0.999999999              -0.000016214              -0.000139851               0.999999999              -0.000022539              -0.000153041               0.999999999              -0.000029421              -0.000167472               0.999999999              -0.000036861              -0.000183009               0.999999999              -0.000044570              -0.000199089               0.999999999              -0.000052444              -0.000215531               0.999999999              -0.000060612              -0.000232338               0.999999999              -0.000069152              -0.000249691               0.999999999              -0.000078107              -0.000267790               0.999999999              -0.000087427              -0.000286348               0.999999999               0.000006067              -0.000122844               0.999999999               0.000008392              -0.000111045               0.999999999               0.000007139              -0.000111049               0.999999999               0.000003834              -0.000116522               0.999999999              -0.000000752              -0.000125296               0.999999999              -0.000006183              -0.000136355               0.999999999              -0.000012286              -0.000149111               0.999999999              -0.000018976              -0.000163357               0.999999999              -0.000026270              -0.000179030               0.999999999              -0.000034163              -0.000196073               0.999999999              -0.000042437              -0.000214221               0.999999999              -0.000050884              -0.000232871               0.999999999              -0.000059572              -0.000251923               0.999999999              -0.000068622              -0.000271731               0.999999999              -0.000078117              -0.000292366               0.999999999              -0.000087997              -0.000313794               0.999999999              -0.000098216              -0.000335795               0.999999999               0.000005358              -0.000136706               0.999999999               0.000009806              -0.000124461               0.999999999               0.000008264              -0.000125062               0.999999999               0.000004191              -0.000131775               0.999999999              -0.000001256              -0.000142149               0.999999999              -0.000007527              -0.000155089               0.999999999              -0.000014411              -0.000170029               0.999999999              -0.000021888              -0.000186730               0.999999999              -0.000030084              -0.000205128               0.999999999              -0.000038846              -0.000224947               0.999999999              -0.000047782              -0.000245793               0.999999999              -0.000056931              -0.000267268               0.999999999              -0.000066335              -0.000289602               0.999999999              -0.000076117              -0.000313054               0.999999999              -0.000086272              -0.000337704               0.999999999              -0.000096763              -0.000363399               0.999999999              -0.000107588              -0.000389750               0.999999999               0.000004410              -0.000149644               0.999999999               0.000010539              -0.000138286               0.999999999               0.000009838              -0.000137637               0.999999999               0.000006349              -0.000142869               0.999999999               0.000001519              -0.000151687               0.999999999              -0.000004094              -0.000163068               0.999999999              -0.000010135              -0.000176461               0.999999999              -0.000016630              -0.000191522               0.999999999              -0.000023614              -0.000208166               0.999999999              -0.000031290              -0.000226253               0.999999999              -0.000039211              -0.000245442               0.999999999              -0.000047236              -0.000265522               0.999999999              -0.000055327              -0.000286345               0.999999999              -0.000063417              -0.000308177               0.999999999              -0.000071748              -0.000331191               0.999999999              -0.000080668              -0.000355548               0.999999999              -0.000090006              -0.000381038               0.999999999               0.000003549              -0.000161292               0.999999999               0.000010609              -0.000151459               0.999999999               0.000010786              -0.000150206               0.999999999               0.000008039              -0.000154234               0.999999999               0.000003846              -0.000161669               0.999999999              -0.000001021              -0.000171645               0.999999999              -0.000006270              -0.000183570               0.999999999              -0.000011822              -0.000197149               0.999999999              -0.000017764              -0.000212201               0.999999999              -0.000024194              -0.000228566               0.999999999              -0.000031049              -0.000246149               0.999999999              -0.000037861              -0.000264740               0.999999999              -0.000044680              -0.000284227               0.999999999              -0.000051419              -0.000304578               0.999999999              -0.000058344              -0.000325929               0.999999999              -0.000065690              -0.000348561               0.999999999              -0.000073443              -0.000372502               0.999999999               0.000002761              -0.000171458               0.999999999               0.000010057              -0.000163686               0.999999999               0.000010959              -0.000162321               0.999999999               0.000008978              -0.000165494               0.999999999               0.000005574              -0.000171871               0.999999999               0.000001412              -0.000180609               0.999999999              -0.000002994              -0.000191268               0.999999999              -0.000007648              -0.000203525               0.999999999              -0.000012515              -0.000217174               0.999999999              -0.000017832              -0.000232039               0.999999999              -0.000023427              -0.000248090               0.999999999              -0.000028972              -0.000265267               0.999999999              -0.000034594              -0.000283393               0.999999999              -0.000040364              -0.000302344               0.999999999              -0.000046044              -0.000322252               0.999999999              -0.000051747              -0.000343303               0.999999999              -0.000057595              -0.000365737               0.999999999               0.000002054              -0.000180008               0.999999999               0.000008873              -0.000174485               0.999999999               0.000010264              -0.000173477               0.999999999               0.000009008              -0.000176185               0.999999999               0.000006388              -0.000181783               0.999999999               0.000003053              -0.000189626               0.999999999              -0.000000522              -0.000199231               0.999999999              -0.000004219              -0.000210433               0.999999999              -0.000008049              -0.000222898               0.999999999              -0.000012212              -0.000236555               0.999999999              -0.000016517              -0.000251305               0.999999999              -0.000020942              -0.000267107               0.999999999              -0.000025535              -0.000283936               0.999999999              -0.000030197              -0.000301770               0.999999999              -0.000034712              -0.000320637               0.999999999              -0.000038838              -0.000340521               0.999999999              -0.000042736              -0.000361634               0.999999999               0.000001447              -0.000186854               0.999999999               0.000007161              -0.000183458               0.999999999               0.000008674              -0.000183071               0.999999999               0.000008014              -0.000185637               0.999999999               0.000006157              -0.000190767               0.999999999               0.000003704              -0.000198004               0.999999999               0.000000998              -0.000206897               0.999999999              -0.000001735              -0.000217223               0.999999999              -0.000004624              -0.000228793               0.999999999              -0.000007639              -0.000241505               0.999999999              -0.000010819              -0.000255221               0.999999999              -0.000014168              -0.000269964               0.999999999              -0.000017589              -0.000285754               0.999999999              -0.000021010              -0.000302692               0.999999999              -0.000024292              -0.000320842               0.999999999              -0.000027117              -0.000340078               0.999999999              -0.000029297              -0.000360311               0.999999999               0.000000920              -0.000191842               0.999999999               0.000005020              -0.000190181               0.999999999               0.000006296              -0.000190491               0.999999999               0.000006011              -0.000193133               0.999999999               0.000004890              -0.000198023               0.999999999               0.000003252              -0.000204891               0.999999999               0.000001474              -0.000213342               0.999999999              -0.000000348              -0.000223081               0.999999999              -0.000002259              -0.000233989               0.999999999              -0.000004306              -0.000245952               0.999999999              -0.000006364              -0.000259007               0.999999999              -0.000008545              -0.000273204               0.999999999              -0.000010777              -0.000288449               0.999999999              -0.000013034              -0.000304827               0.999999999              -0.000015048              -0.000322487               0.999999999              -0.000016759              -0.000341388               0.999999999              -0.000017727              -0.000361216               0.999999999               0.000000439              -0.000194843               0.999999999               0.000002580              -0.000194333               0.999999999               0.000003328              -0.000195173               0.999999999               0.000003210              -0.000197970               0.999999999               0.000002707              -0.000202768               0.999999999               0.000001891              -0.000209432               0.999999999               0.000001022              -0.000217636               0.999999999               0.000000105              -0.000227087               0.999999999              -0.000000866              -0.000237651               0.999999999              -0.000001939              -0.000249206               0.999999999              -0.000002905              -0.000261851               0.999999999              -0.000003856              -0.000275703               0.999999999              -0.000005019              -0.000290798               0.999999999              -0.000006211              -0.000307072               0.999999999              -0.000007213              -0.000324528               0.999999999              -0.000007855              -0.000343202               0.999999999              -0.000008152              -0.000362827               0.999999999               0.000000000              -0.000195850               0.999999999              -0.000000000              -0.000195769               0.999999999              -0.000000000              -0.000196790               0.999999999              -0.000000000              -0.000199624               0.999999999              -0.000000000              -0.000204439               0.999999999              -0.000000000              -0.000211035               0.999999999               0.000000000              -0.000219143               0.999999999               0.000000000              -0.000228517               0.999999999               0.000000000              -0.000238928               0.999999999              -0.000000000              -0.000250424               0.999999999               0.000000000              -0.000263035               0.999999999               0.000000000              -0.000276653               0.999999999               0.000000000              -0.000291623               0.999999999              -0.000000000              -0.000308018               0.999999999              -0.000000000              -0.000325566               0.999999999              -0.000000000              -0.000344016               0.999999999              -0.000000000              -0.000363403               0.999999999              -0.000008939               0.000000000               0.999999999              -0.000001334               0.000000000               0.999999999               0.000002188               0.000000000               0.999999999               0.000003981               0.000000000               0.999999999               0.000005093               0.000000000               0.999999999               0.000006095               0.000000000               0.999999999               0.000007285               0.000000000               0.999999999               0.000008830               0.000000000               0.999999999               0.000010755               0.000000000               0.999999999               0.000013175               0.000000000               0.999999999               0.000016082               0.000000000               0.999999999               0.000019454               0.000000000               0.999999999               0.000023431               0.000000000               0.999999999               0.000027989               0.000000000               0.999999999               0.000033003               0.000000000               0.999999999               0.000038395               0.000000000               0.999999999               0.000044190               0.000000000               0.999999999              -0.000008837              -0.000018946               0.999999999              -0.000001487              -0.000017092               0.999999999               0.000001891              -0.000016614               0.999999999               0.000003661              -0.000016988               0.999999999               0.000004827              -0.000017934               0.999999999               0.000005909              -0.000019328               0.999999999               0.000007228              -0.000021018               0.999999999               0.000008898              -0.000023018               0.999999999               0.000011014              -0.000025172               0.999999999               0.000013592              -0.000027578               0.999999999               0.000016672              -0.000030141               0.999999999               0.000020289              -0.000033009               0.999999999               0.000024442              -0.000036048               0.999999999               0.000029113              -0.000039226               0.999999999               0.000034244              -0.000042446               0.999999999               0.000039808              -0.000045736               0.999999999               0.000045777              -0.000049273               0.999999999              -0.000008592              -0.000037736               0.999999999              -0.000001961              -0.000033978               0.999999999               0.000001063              -0.000033125               0.999999999               0.000002762              -0.000033959               0.999999999               0.000004073              -0.000035923               0.999999999               0.000005457              -0.000038715               0.999999999               0.000007170              -0.000042176               0.999999999               0.000009287              -0.000046085               0.999999999               0.000011845              -0.000050485               0.999999999               0.000014928              -0.000055202               0.999999999               0.000018536              -0.000060416               0.999999999               0.000022688              -0.000066026               0.999999999               0.000027401              -0.000072088               0.999999999               0.000032618              -0.000078298               0.999999999               0.000038270              -0.000084586               0.999999999               0.000044253              -0.000091121               0.999999999               0.000050590              -0.000098070               0.999999999              -0.000008212              -0.000056180               0.999999999              -0.000002786              -0.000050508               0.999999999              -0.000000273              -0.000049418               0.999999999               0.000001411              -0.000050863               0.999999999               0.000003045              -0.000053955               0.999999999               0.000004942              -0.000058257               0.999999999               0.000007312              -0.000063418               0.999999999               0.000010146              -0.000069388               0.999999999               0.000013467              -0.000075879               0.999999999               0.000017312              -0.000083045               0.999999999               0.000021708              -0.000090779               0.999999999               0.000026682              -0.000099236               0.999999999               0.000032193              -0.000108125               0.999999999               0.000038132              -0.000117193               0.999999999               0.000044416              -0.000126299               0.999999999               0.000051042              -0.000135804               0.999999999               0.000057988              -0.000145823               0.999999999              -0.000007725              -0.000074079               0.999999999              -0.000003946              -0.000066559               0.999999999              -0.000001956              -0.000065421               0.999999999              -0.000000166              -0.000067672               0.999999999               0.000001980              -0.000072052               0.999999999               0.000004637              -0.000077906               0.999999999               0.000007858              -0.000084908               0.999999999               0.000011614              -0.000092773               0.999999999               0.000015886              -0.000101452               0.999999999               0.000020711              -0.000110945               0.999999999               0.000026097              -0.000121280               0.999999999               0.000032046              -0.000132434               0.999999999               0.000038460              -0.000143995               0.999999999               0.000045150              -0.000155651               0.999999999               0.000052131              -0.000167380               0.999999999               0.000059435              -0.000179639               0.999999999               0.000067000              -0.000192379               0.999999999              -0.000007200              -0.000091280               0.999999999              -0.000005346              -0.000082033               0.999999999              -0.000003810              -0.000081113               0.999999999              -0.000001696              -0.000084335               0.999999999               0.000001165              -0.000090090               0.999999999               0.000004688              -0.000097563               0.999999999               0.000008864              -0.000106379               0.999999999               0.000013650              -0.000116256               0.999999999               0.000018991              -0.000127187               0.999999999               0.000024860              -0.000139091               0.999999999               0.000031303              -0.000152071               0.999999999               0.000038175              -0.000165759               0.999999999               0.000045333              -0.000179758               0.999999999               0.000052725              -0.000193962               0.999999999               0.000060432              -0.000208358               0.999999999               0.000068490              -0.000223382               0.999999999               0.000076867              -0.000238909               0.999999999              -0.000006669              -0.000107617               0.999999999              -0.000006875              -0.000096887               0.999999999              -0.000005590              -0.000096361               0.999999999              -0.000002968              -0.000100665               0.999999999               0.000000702              -0.000107884               0.999999999               0.000005194              -0.000117089               0.999999999               0.000010383              -0.000127859               0.999999999               0.000016214              -0.000139851               0.999999999               0.000022539              -0.000153041               0.999999999               0.000029421              -0.000167472               0.999999999               0.000036861              -0.000183009               0.999999999               0.000044570              -0.000199089               0.999999999               0.000052444              -0.000215531               0.999999999               0.000060612              -0.000232338               0.999999999               0.000069152              -0.000249691               0.999999999               0.000078107              -0.000267790               0.999999999               0.000087427              -0.000286348               0.999999999              -0.000006067              -0.000122844               0.999999999              -0.000008392              -0.000111045               0.999999999              -0.000007139              -0.000111049               0.999999999              -0.000003834              -0.000116522               0.999999999               0.000000752              -0.000125296               0.999999999               0.000006183              -0.000136355               0.999999999               0.000012286              -0.000149111               0.999999999               0.000018976              -0.000163357               0.999999999               0.000026270              -0.000179030               0.999999999               0.000034163              -0.000196073               0.999999999               0.000042437              -0.000214221               0.999999999               0.000050884              -0.000232871               0.999999999               0.000059572              -0.000251923               0.999999999               0.000068622              -0.000271731               0.999999999               0.000078117              -0.000292366               0.999999999               0.000087997              -0.000313794               0.999999999               0.000098216              -0.000335795               0.999999999              -0.000005358              -0.000136706               0.999999999              -0.000009806              -0.000124461               0.999999999              -0.000008264              -0.000125062               0.999999999              -0.000004191              -0.000131775               0.999999999               0.000001256              -0.000142149               0.999999999               0.000007527              -0.000155089               0.999999999               0.000014411              -0.000170029               0.999999999               0.000021888              -0.000186730               0.999999999               0.000030084              -0.000205128               0.999999999               0.000038846              -0.000224947               0.999999999               0.000047782              -0.000245793               0.999999999               0.000056931              -0.000267268               0.999999999               0.000066335              -0.000289602               0.999999999               0.000076117              -0.000313054               0.999999999               0.000086272              -0.000337704               0.999999999               0.000096763              -0.000363399               0.999999999               0.000107588              -0.000389750               0.999999999              -0.000004410              -0.000149644               0.999999999              -0.000010539              -0.000138286               0.999999999              -0.000009838              -0.000137637               0.999999999              -0.000006349              -0.000142869               0.999999999              -0.000001519              -0.000151687               0.999999999               0.000004094              -0.000163068               0.999999999               0.000010135              -0.000176461               0.999999999               0.000016630              -0.000191522               0.999999999               0.000023614              -0.000208166               0.999999999               0.000031290              -0.000226253               0.999999999               0.000039211              -0.000245442               0.999999999               0.000047236              -0.000265522               0.999999999               0.000055327              -0.000286345               0.999999999               0.000063417              -0.000308177               0.999999999               0.000071748              -0.000331191               0.999999999               0.000080668              -0.000355548               0.999999999               0.000090006              -0.000381038               0.999999999              -0.000003549              -0.000161292               0.999999999              -0.000010609              -0.000151459               0.999999999              -0.000010786              -0.000150206               0.999999999              -0.000008039              -0.000154234               0.999999999              -0.000003846              -0.000161669               0.999999999               0.000001021              -0.000171645               0.999999999               0.000006270              -0.000183570               0.999999999               0.000011822              -0.000197149               0.999999999               0.000017764              -0.000212201               0.999999999               0.000024194              -0.000228566               0.999999999               0.000031049              -0.000246149               0.999999999               0.000037861              -0.000264740               0.999999999               0.000044680              -0.000284227               0.999999999               0.000051419              -0.000304578               0.999999999               0.000058344              -0.000325929               0.999999999               0.000065690              -0.000348561               0.999999999               0.000073443              -0.000372502               0.999999999              -0.000002761              -0.000171458               0.999999999              -0.000010057              -0.000163686               0.999999999              -0.000010959              -0.000162321               0.999999999              -0.000008978              -0.000165494               0.999999999              -0.000005574              -0.000171871               0.999999999              -0.000001412              -0.000180609               0.999999999               0.000002994              -0.000191268               0.999999999               0.000007648              -0.000203525               0.999999999               0.000012515              -0.000217174               0.999999999               0.000017832              -0.000232039               0.999999999               0.000023427              -0.000248090               0.999999999               0.000028972              -0.000265267               0.999999999               0.000034594              -0.000283393               0.999999999               0.000040364              -0.000302344               0.999999999               0.000046044              -0.000322252               0.999999999               0.000051747              -0.000343303               0.999999999               0.000057595              -0.000365737               0.999999999              -0.000002054              -0.000180008               0.999999999              -0.000008873              -0.000174485               0.999999999              -0.000010264              -0.000173477               0.999999999              -0.000009008              -0.000176185               0.999999999              -0.000006388              -0.000181783               0.999999999              -0.000003053              -0.000189626               0.999999999               0.000000522              -0.000199231               0.999999999               0.000004219              -0.000210433               0.999999999               0.000008049              -0.000222898               0.999999999               0.000012212              -0.000236555               0.999999999               0.000016517              -0.000251305               0.999999999               0.000020942              -0.000267107               0.999999999               0.000025535              -0.000283936               0.999999999               0.000030197              -0.000301770               0.999999999               0.000034712              -0.000320637               0.999999999               0.000038838              -0.000340521               0.999999999               0.000042736              -0.000361634               0.999999999              -0.000001447              -0.000186854               0.999999999              -0.000007161              -0.000183458               0.999999999              -0.000008674              -0.000183071               0.999999999              -0.000008014              -0.000185637               0.999999999              -0.000006157              -0.000190767               0.999999999              -0.000003704              -0.000198004               0.999999999              -0.000000998              -0.000206897               0.999999999               0.000001735              -0.000217223               0.999999999               0.000004624              -0.000228793               0.999999999               0.000007639              -0.000241505               0.999999999               0.000010819              -0.000255221               0.999999999               0.000014168              -0.000269964               0.999999999               0.000017589              -0.000285754               0.999999999               0.000021010              -0.000302692               0.999999999               0.000024292              -0.000320842               0.999999999               0.000027117              -0.000340078               0.999999999               0.000029297              -0.000360311               0.999999999              -0.000000920              -0.000191842               0.999999999              -0.000005020              -0.000190181               0.999999999              -0.000006296              -0.000190491               0.999999999              -0.000006011              -0.000193133               0.999999999              -0.000004890              -0.000198023               0.999999999              -0.000003252              -0.000204891               0.999999999              -0.000001474              -0.000213342               0.999999999               0.000000348              -0.000223081               0.999999999               0.000002259              -0.000233989               0.999999999               0.000004306              -0.000245952               0.999999999               0.000006364              -0.000259007               0.999999999               0.000008545              -0.000273204               0.999999999               0.000010777              -0.000288449               0.999999999               0.000013034              -0.000304827               0.999999999               0.000015048              -0.000322487               0.999999999               0.000016759              -0.000341388               0.999999999               0.000017727              -0.000361216               0.999999999              -0.000000439              -0.000194843               0.999999999              -0.000002580              -0.000194333               0.999999999              -0.000003328              -0.000195173               0.999999999              -0.000003210              -0.000197970               0.999999999              -0.000002707              -0.000202768               0.999999999              -0.000001891              -0.000209432               0.999999999              -0.000001022              -0.000217636               0.999999999              -0.000000105              -0.000227087               0.999999999               0.000000866              -0.000237651               0.999999999               0.000001939              -0.000249206               0.999999999               0.000002905              -0.000261851               0.999999999               0.000003856              -0.000275703               0.999999999               0.000005019              -0.000290798               0.999999999               0.000006211              -0.000307072               0.999999999               0.000007213              -0.000324528               0.999999999               0.000007855              -0.000343202               0.999999999               0.000008152              -0.000362827               0.999999999               0.000000000              -0.000195850               0.999999999              -0.000000000              -0.000195769               0.999999999              -0.000000000              -0.000196790               0.999999999              -0.000000000              -0.000199624               0.999999999              -0.000000000              -0.000204439               0.999999999              -0.000000000              -0.000211035               0.999999999               0.000000000              -0.000219143               0.999999999               0.000000000              -0.000228517               0.999999999               0.000000000              -0.000238928               0.999999999              -0.000000000              -0.000250424               0.999999999               0.000000000              -0.000263035               0.999999999               0.000000000              -0.000276653               0.999999999               0.000000000              -0.000291623               0.999999999              -0.000000000              -0.000308018               0.999999999              -0.000000000              -0.000325566               0.999999999              -0.000000000              -0.000344016               0.999999999              -0.000000000              -0.000363403               0.999999999              -0.000008939               0.000000000               0.999999999              -0.000001334               0.000000000               0.999999999               0.000002188               0.000000000               0.999999999               0.000003981               0.000000000               0.999999999               0.000005093               0.000000000               0.999999999               0.000006095               0.000000000               0.999999999               0.000007285               0.000000000               0.999999999               0.000008830               0.000000000               0.999999999               0.000010755               0.000000000               0.999999999               0.000013175               0.000000000               0.999999999               0.000016082               0.000000000               0.999999999               0.000019454               0.000000000               0.999999999               0.000023431               0.000000000               0.999999999               0.000027989               0.000000000               0.999999999               0.000033003               0.000000000               0.999999999               0.000038395               0.000000000               0.999999999               0.000044190               0.000000000               0.999999999              -0.000008837               0.000018946               0.999999999              -0.000001487               0.000017092               0.999999999               0.000001891               0.000016614               0.999999999               0.000003661               0.000016988               0.999999999               0.000004827               0.000017934               0.999999999               0.000005909               0.000019328               0.999999999               0.000007228               0.000021018               0.999999999               0.000008898               0.000023018               0.999999999               0.000011014               0.000025172               0.999999999               0.000013592               0.000027578               0.999999999               0.000016672               0.000030141               0.999999999               0.000020289               0.000033009               0.999999999               0.000024442               0.000036048               0.999999999               0.000029113               0.000039226               0.999999999               0.000034244               0.000042446               0.999999999               0.000039808               0.000045736               0.999999999               0.000045777               0.000049273               0.999999999              -0.000008592               0.000037736               0.999999999              -0.000001961               0.000033978               0.999999999               0.000001063               0.000033125               0.999999999               0.000002762               0.000033959               0.999999999               0.000004073               0.000035923               0.999999999               0.000005457               0.000038715               0.999999999               0.000007170               0.000042176               0.999999999               0.000009287               0.000046085               0.999999999               0.000011845               0.000050485               0.999999999               0.000014928               0.000055202               0.999999999               0.000018536               0.000060416               0.999999999               0.000022688               0.000066026               0.999999999               0.000027401               0.000072088               0.999999999               0.000032618               0.000078298               0.999999999               0.000038270               0.000084586               0.999999999               0.000044253               0.000091121               0.999999999               0.000050590               0.000098070               0.999999999              -0.000008212               0.000056180               0.999999999              -0.000002786               0.000050508               0.999999999              -0.000000273               0.000049418               0.999999999               0.000001411               0.000050863               0.999999999               0.000003045               0.000053955               0.999999999               0.000004942               0.000058257               0.999999999               0.000007312               0.000063418               0.999999999               0.000010146               0.000069388               0.999999999               0.000013467               0.000075879               0.999999999               0.000017312               0.000083045               0.999999999               0.000021708               0.000090779               0.999999999               0.000026682               0.000099236               0.999999999               0.000032193               0.000108125               0.999999999               0.000038132               0.000117193               0.999999999               0.000044416               0.000126299               0.999999999               0.000051042               0.000135804               0.999999999               0.000057988               0.000145823               0.999999999              -0.000007725               0.000074079               0.999999999              -0.000003946               0.000066559               0.999999999              -0.000001956               0.000065421               0.999999999              -0.000000166               0.000067672               0.999999999               0.000001980               0.000072052               0.999999999               0.000004637               0.000077906               0.999999999               0.000007858               0.000084908               0.999999999               0.000011614               0.000092773               0.999999999               0.000015886               0.000101452               0.999999999               0.000020711               0.000110945               0.999999999               0.000026097               0.000121280               0.999999999               0.000032046               0.000132434               0.999999999               0.000038460               0.000143995               0.999999999               0.000045150               0.000155651               0.999999999               0.000052131               0.000167380               0.999999999               0.000059435               0.000179639               0.999999999               0.000067000               0.000192379               0.999999999              -0.000007200               0.000091280               0.999999999              -0.000005346               0.000082033               0.999999999              -0.000003810               0.000081113               0.999999999              -0.000001696               0.000084335               0.999999999               0.000001165               0.000090090               0.999999999               0.000004688               0.000097563               0.999999999               0.000008864               0.000106379               0.999999999               0.000013650               0.000116256               0.999999999               0.000018991               0.000127187               0.999999999               0.000024860               0.000139091               0.999999999               0.000031303               0.000152071               0.999999999               0.000038175               0.000165759               0.999999999               0.000045333               0.000179758               0.999999999               0.000052725               0.000193962               0.999999999               0.000060432               0.000208358               0.999999999               0.000068490               0.000223382               0.999999999               0.000076867               0.000238909               0.999999999              -0.000006669               0.000107617               0.999999999              -0.000006875               0.000096887               0.999999999              -0.000005590               0.000096361               0.999999999              -0.000002968               0.000100665               0.999999999               0.000000702               0.000107884               0.999999999               0.000005194               0.000117089               0.999999999               0.000010383               0.000127859               0.999999999               0.000016214               0.000139851               0.999999999               0.000022539               0.000153041               0.999999999               0.000029421               0.000167472               0.999999999               0.000036861               0.000183009               0.999999999               0.000044570               0.000199089               0.999999999               0.000052444               0.000215531               0.999999999               0.000060612               0.000232338               0.999999999               0.000069152               0.000249691               0.999999999               0.000078107               0.000267790               0.999999999               0.000087427               0.000286348               0.999999999              -0.000006067               0.000122844               0.999999999              -0.000008392               0.000111045               0.999999999              -0.000007139               0.000111049               0.999999999              -0.000003834               0.000116522               0.999999999               0.000000752               0.000125296               0.999999999               0.000006183               0.000136355               0.999999999               0.000012286               0.000149111               0.999999999               0.000018976               0.000163357               0.999999999               0.000026270               0.000179030               0.999999999               0.000034163               0.000196073               0.999999999               0.000042437               0.000214221               0.999999999               0.000050884               0.000232871               0.999999999               0.000059572               0.000251923               0.999999999               0.000068622               0.000271731               0.999999999               0.000078117               0.000292366               0.999999999               0.000087997               0.000313794               0.999999999               0.000098216               0.000335795               0.999999999              -0.000005358               0.000136706               0.999999999              -0.000009806               0.000124461               0.999999999              -0.000008264               0.000125062               0.999999999              -0.000004191               0.000131775               0.999999999               0.000001256               0.000142149               0.999999999               0.000007527               0.000155089               0.999999999               0.000014411               0.000170029               0.999999999               0.000021888               0.000186730               0.999999999               0.000030084               0.000205128               0.999999999               0.000038846               0.000224947               0.999999999               0.000047782               0.000245793               0.999999999               0.000056931               0.000267268               0.999999999               0.000066335               0.000289602               0.999999999               0.000076117               0.000313054               0.999999999               0.000086272               0.000337704               0.999999999               0.000096763               0.000363399               0.999999999               0.000107588               0.000389750               0.999999999              -0.000004410               0.000149644               0.999999999              -0.000010539               0.000138286               0.999999999              -0.000009838               0.000137637               0.999999999              -0.000006349               0.000142869               0.999999999              -0.000001519               0.000151687               0.999999999               0.000004094               0.000163068               0.999999999               0.000010135               0.000176461               0.999999999               0.000016630               0.000191522               0.999999999               0.000023614               0.000208166               0.999999999               0.000031290               0.000226253               0.999999999               0.000039211               0.000245442               0.999999999               0.000047236               0.000265522               0.999999999               0.000055327               0.000286345               0.999999999               0.000063417               0.000308177               0.999999999               0.000071748               0.000331191               0.999999999               0.000080668               0.000355548               0.999999999               0.000090006               0.000381038               0.999999999              -0.000003549               0.000161292               0.999999999              -0.000010609               0.000151459               0.999999999              -0.000010786               0.000150206               0.999999999              -0.000008039               0.000154234               0.999999999              -0.000003846               0.000161669               0.999999999               0.000001021               0.000171645               0.999999999               0.000006270               0.000183570               0.999999999               0.000011822               0.000197149               0.999999999               0.000017764               0.000212201               0.999999999               0.000024194               0.000228566               0.999999999               0.000031049               0.000246149               0.999999999               0.000037861               0.000264740               0.999999999               0.000044680               0.000284227               0.999999999               0.000051419               0.000304578               0.999999999               0.000058344               0.000325929               0.999999999               0.000065690               0.000348561               0.999999999               0.000073443               0.000372502               0.999999999              -0.000002761               0.000171458               0.999999999              -0.000010057               0.000163686               0.999999999              -0.000010959               0.000162321               0.999999999              -0.000008978               0.000165494               0.999999999              -0.000005574               0.000171871               0.999999999              -0.000001412               0.000180609               0.999999999               0.000002994               0.000191268               0.999999999               0.000007648               0.000203525               0.999999999               0.000012515               0.000217174               0.999999999               0.000017832               0.000232039               0.999999999               0.000023427               0.000248090               0.999999999               0.000028972               0.000265267               0.999999999               0.000034594               0.000283393               0.999999999               0.000040364               0.000302344               0.999999999               0.000046044               0.000322252               0.999999999               0.000051747               0.000343303               0.999999999               0.000057595               0.000365737               0.999999999              -0.000002054               0.000180008               0.999999999              -0.000008873               0.000174485               0.999999999              -0.000010264               0.000173477               0.999999999              -0.000009008               0.000176185               0.999999999              -0.000006388               0.000181783               0.999999999              -0.000003053               0.000189626               0.999999999               0.000000522               0.000199231               0.999999999               0.000004219               0.000210433               0.999999999               0.000008049               0.000222898               0.999999999               0.000012212               0.000236555               0.999999999               0.000016517               0.000251305               0.999999999               0.000020942               0.000267107               0.999999999               0.000025535               0.000283936               0.999999999               0.000030197               0.000301770               0.999999999               0.000034712               0.000320637               0.999999999               0.000038838               0.000340521               0.999999999               0.000042736               0.000361634               0.999999999              -0.000001447               0.000186854               0.999999999              -0.000007161               0.000183458               0.999999999              -0.000008674               0.000183071               0.999999999              -0.000008014               0.000185637               0.999999999              -0.000006157               0.000190767               0.999999999              -0.000003704               0.000198004               0.999999999              -0.000000998               0.000206897               0.999999999               0.000001735               0.000217223               0.999999999               0.000004624               0.000228793               0.999999999               0.000007639               0.000241505               0.999999999               0.000010819               0.000255221               0.999999999               0.000014168               0.000269964               0.999999999               0.000017589               0.000285754               0.999999999               0.000021010               0.000302692               0.999999999               0.000024292               0.000320842               0.999999999               0.000027117               0.000340078               0.999999999               0.000029297               0.000360311               0.999999999              -0.000000920               0.000191842               0.999999999              -0.000005020               0.000190181               0.999999999              -0.000006296               0.000190491               0.999999999              -0.000006011               0.000193133               0.999999999              -0.000004890               0.000198023               0.999999999              -0.000003252               0.000204891               0.999999999              -0.000001474               0.000213342               0.999999999               0.000000348               0.000223081               0.999999999               0.000002259               0.000233989               0.999999999               0.000004306               0.000245952               0.999999999               0.000006364               0.000259007               0.999999999               0.000008545               0.000273204               0.999999999               0.000010777               0.000288449               0.999999999               0.000013034               0.000304827               0.999999999               0.000015048               0.000322487               0.999999999               0.000016759               0.000341388               0.999999999               0.000017727               0.000361216               0.999999999              -0.000000439               0.000194843               0.999999999              -0.000002580               0.000194333               0.999999999              -0.000003328               0.000195173               0.999999999              -0.000003210               0.000197970               0.999999999              -0.000002707               0.000202768               0.999999999              -0.000001891               0.000209432               0.999999999              -0.000001022               0.000217636               0.999999999              -0.000000105               0.000227087               0.999999999               0.000000866               0.000237651               0.999999999               0.000001939               0.000249206               0.999999999               0.000002905               0.000261851               0.999999999               0.000003856               0.000275703               0.999999999               0.000005019               0.000290798               0.999999999               0.000006211               0.000307072               0.999999999               0.000007213               0.000324528               0.999999999               0.000007855               0.000343202               0.999999999               0.000008152               0.000362827               0.999999999              -0.000000000               0.000195850               0.999999999              -0.000000000               0.000195769               0.999999999              -0.000000000               0.000196790               0.999999999              -0.000000000               0.000199624               0.999999999               0.000000000               0.000204439               0.999999999               0.000000000               0.000211035               0.999999999               0.000000000               0.000219143               0.999999999               0.000000000               0.000228517               0.999999999              -0.000000000               0.000238928               0.999999999               0.000000000               0.000250424               0.999999999               0.000000000               0.000263035               0.999999999              -0.000000000               0.000276653               0.999999999              -0.000000000               0.000291623               0.999999999              -0.000000000               0.000308018               0.999999999               0.000000000               0.000325566               0.999999999              -0.000000000               0.000344016               0.999999999              -0.000000000               0.000363403               0.999999999 </DataArray>
<DataArray type="Float64"                                    Name="defo"                                                      NumberOfComponents=" 3" format="ascii">
              0.000008939              -0.000000000               0.999999999               0.000001334              -0.000000000               0.999999999              -0.000002188              -0.000000000               0.999999999              -0.000003981              -0.000000000               0.999999999              -0.000005093               0.000000000               0.999999999              -0.000006095               0.000000000               0.999999999              -0.000007285               0.000000000               0.999999999              -0.000008830              -0.000000000               0.999999999              -0.000010755               0.000000000               0.999999999              -0.000013175               0.000000000               0.999999999              -0.000016082               0.000000000               0.999999999              -0.000019454              -0.000000000               0.999999999              -0.000023431               0.000000000               0.999999999              -0.000027989              -0.000000000               0.999999999              -0.000033003              -0.000000000               0.999999999              -0.000038395              -0.000000000               0.999999999              -0.000044190              -0.000000000               0.999999999               0.000008837               0.000018946               0.999999999               0.000001487               0.000017092               0.999999999              -0.000001891               0.000016614               0.999999999              -0.000003661               0.000016988               0.999999999              -0.000004827               0.000017934               0.999999999              -0.000005909               0.000019328               0.999999999              -0.000007228               0.000021018               0.999999999              -0.000008898               0.000023018               0.999999999              -0.000011014               0.000025172               0.999999999              -0.000013592               0.000027578               0.999999999              -0.000016672               0.000030141               0.999999999              -0.000020289               0.000033009               0.999999999              -0.000024442               0.000036048               0.999999999              -0.000029113               0.000039226               0.999999999              -0.000034244               0.000042446               0.999999999              -0.000039808               0.000045736               0.999999999              -0.000045777               0.000049273               0.999999999               0.000008592               0.000037736               0.999999999               0.000001961               0.000033978               0.999999999              -0.000001063               0.000033125               0.999999999              -0.000002762               0.000033959               0.999999999              -0.000004073               0.000035923               0.999999999              -0.000005457               0.000038715               0.999999999              -0.000007170               0.000042176               0.999999999              -0.000009287               0.000046085               0.999999999              -0.000011845               0.000050485               0.999999999              -0.000014928               0.000055202               0.999999999              -0.000018536               0.000060416               0.999999999              -0.000022688               0.000066026               0.999999999              -0.000027401               0.000072088               0.999999999              -0.000032618               0.000078298               0.999999999              -0.000038270               0.000084586               0.999999999              -0.000044253               0.000091121               0.999999999              -0.000050590               0.000098070               0.999999999               0.000008212               0.000056180               0.999999999               0.000002786               0.000050508               0.999999999               0.000000273               0.000049418               0.999999999              -0.000001411               0.000050863               0.999999999              -0.000003045               0.000053955               0.999999999              -0.000004942               0.000058257               0.999999999              -0.000007312               0.000063418               0.999999999              -0.000010146               0.000069388               0.999999999              -0.000013467               0.000075879               0.999999999              -0.000017312               0.000083045               0.999999999              -0.000021708               0.000090779               0.999999999              -0.000026682               0.000099236               0.999999999              -0.000032193               0.000108125               0.999999999              -0.000038132               0.000117193               0.999999999              -0.000044416               0.000126299               0.999999999              -0.000051042               0.000135804               0.999999999              -0.000057988               0.000145823               0.999999999               0.000007725               0.000074079               0.999999999               0.000003946               0.000066559               0.999999999               0.000001956               0.000065421               0.999999999               0.000000166               0.000067672               0.999999999              -0.000001980               0.000072052               0.999999999              -0.000004637               0.000077906               0.999999999              -0.000007858               0.000084908               0.999999999              -0.000011614               0.000092773               0.999999999              -0.000015886               0.000101452               0.999999999              -0.000020711               0.000110945               0.999999999              -0.000026097               0.000121280               0.999999999              -0.000032046               0.000132434               0.999999999              -0.000038460               0.000143995               0.999999999              -0.000045150               0.000155651               0.999999999              -0.000052131               0.000167380               0.999999999              -0.000059435               0.000179639               0.999999999              -0.000067000               0.000192379               0.999999999               0.000007200               0.000091280               0.999999999               0.000005346               0.000082033               0.999999999               0.000003810               0.000081113               0.999999999               0.000001696               0.000084335               0.999999999              -0.000001165               0.000090090               0.999999999              -0.000004688               0.000097563               0.999999999              -0.000008864               0.000106379               0.999999999              -0.000013650               0.000116256               0.999999999              -0.000018991               0.000127187               0.999999999              -0.000024860               0.000139091               0.999999999              -0.000031303               0.000152071               0.999999999              -0.000038175               0.000165759               0.999999999              -0.000045333               0.000179758               0.999999999              -0.000052725               0.000193962               0.999999999              -0.000060432               0.000208358               0.999999999              -0.000068490               0.000223382               0.999999999              -0.000076867               0.000238909               0.999999999               0.000006669               0.000107617               0.999999999               0.000006875               0.000096887               0.999999999               0.000005590               0.000096361               0.999999999               0.000002968               0.000100665               0.999999999              -0.000000702               0.000107884               0.999999999              -0.000005194               0.000117089               0.999999999              -0.000010383               0.000127859               0.999999999              -0.000016214               0.000139851               0.999999999              -0.000022539               0.000153041               0.999999999              -0.000029421               0.000167472               0.999999999              -0.000036861               0.000183009               0.999999999              -0.000044570               0.000199089               0.999999999              -0.000052444               0.000215531               0.999999999              -0.000060612               0.000232338               0.999999999              -0.000069152               0.000249691               0.999999999              -0.000078107               0.000267790               0.999999999              -0.000087427               0.000286348               0.999999999               0.000006067               0.000122844               0.999999999               0.000008392               0.000111045               0.999999999               0.000007139               0.000111049               0.999999999               0.000003834               0.000116522               0.999999999              -0.000000752               0.000125296               0.999999999              -0.000006183               0.000136355               0.999999999              -0.000012286               0.000149111               0.999999999              -0.000018976               0.000163357               0.999999999              -0.000026270               0.000179030               0.999999999              -0.000034163               0.000196073               0.999999999              -0.000042437               0.000214221               0.999999999              -0.000050884               0.000232871               0.999999999              -0.000059572               0.000251923               0.999999999              -0.000068622               0.000271731               0.999999999              -0.000078117               0.000292366               0.999999999              -0.000087997               0.000313794               0.999999999              -0.000098216               0.000335795               0.999999999               0.000005358               0.000136706               0.999999999               0.000009806               0.000124461               0.999999999               0.000008264               0.000125062               0.999999999               0.000004191               0.000131775               0.999999999              -0.000001256               0.000142149               0.999999999              -0.000007527               0.000155089               0.999999999              -0.000014411               0.000170029               0.999999999              -0.000021888               0.000186730               0.999999999              -0.000030084               0.000205128               0.999999999              -0.000038846               0.000224947               0.999999999              -0.000047782               0.000245793               0.999999999              -0.000056931               0.000267268               0.999999999              -0.000066335               0.000289602               0.999999999              -0.000076117               0.000313054               0.999999999              -0.000086272               0.000337704               0.999999999              -0.000096763               0.000363399               0.999999999              -0.000107588               0.000389750               0.999999999               0.000004410               0.000149644               0.999999999               0.000010539               0.000138286               0.999999999               0.000009838               0.000137637               0.999999999               0.000006349               0.000142869               0.999999999               0.000001519               0.000151687               0.999999999              -0.000004094               0.000163068               0.999999999              -0.000010135               0.000176461               0.999999999              -0.000016630               0.000191522               0.999999999              -0.000023614               0.000208166               0.999999999              -0.000031290               0.000226253               0.999999999              -0.000039211               0.000245442               0.999999999              -0.000047236               0.000265522               0.999999999              -0.000055327               0.000286345               0.999999999              -0.000063417               0.000308177               0.999999999              -0.000071748               0.000331191               0.999999999              -0.000080668               0.000355548               0.999999999              -0.000090006               0.000381038               0.999999999               0.000003549               0.000161292               0.999999999               0.000010609               0.000151459               0.999999999               0.000010786               0.000150206               0.999999999               0.000008039               0.000154234               0.999999999               0.000003846               0.000161669               0.999999999              -0.000001021               0.000171645               0.999999999              -0.000006270               0.000183570               0.999999999              -0.000011822               0.000197149               0.999999999              -0.000017764               0.000212201               0.999999999              -0.000024194               0.000228566               0.999999999              -0.000031049               0.000246149               0.999999999              -0.000037861               0.000264740               0.999999999              -0.000044680               0.000284227               0.999999999              -0.000051419               0.000304578               0.999999999              -0.000058344               0.000325929               0.999999999              -0.000065690               0.000348561               0.999999999              -0.000073443               0.000372502               0.999999999               0.000002761               0.000171458               0.999999999               0.000010057               0.000163686               0.999999999               0.000010959               0.000162321               0.999999999               0.000008978               0.000165494               0.999999999               0.000005574               0.000171871               0.999999999               0.000001412               0.000180609               0.999999999              -0.000002994               0.000191268               0.999999999              -0.000007648               0.000203525               0.999999999              -0.000012515               0.000217174               0.999999999              -0.000017832               0.000232039               0.999999999              -0.000023427               0.000248090               0.999999999              -0.000028972               0.000265267               0.999999999              -0.000034594               0.000283393               0.999999999              -0.000040364               0.000302344               0.999999999              -0.000046044               0.000322252               0.999999999              -0.000051747               0.000343303               0.999999999              -0.000057595               0.000365737               0.999999999               0.000002054               0.000180008               0.999999999               0.000008873               0.000174485               0.999999999               0.000010264               0.000173477               0.999999999               0.000009008               0.000176185               0.999999999               0.000006388               0.000181783               0.999999999               0.000003053               0.000189626               0.999999999              -0.000000522               0.000199231               0.999999999              -0.000004219               0.000210433               0.999999999              -0.000008049               0.000222898               0.999999999              -0.000012212               0.000236555               0.999999999              -0.000016517               0.000251305               0.999999999              -0.000020942               0.000267107               0.999999999              -0.000025535               0.000283936               0.999999999              -0.000030197               0.000301770               0.999999999              -0.000034712               0.000320637               0.999999999              -0.000038838               0.000340521               0.999999999              -0.000042736               0.000361634               0.999999999               0.000001447               0.000186854               0.999999999               0.000007161               0.000183458               0.999999999               0.000008674               0.000183071               0.999999999               0.000008014               0.000185637               0.999999999               0.000006157               0.000190767               0.999999999               0.000003704               0.000198004               0.999999999               0.000000998               0.000206897               0.999999999              -0.000001735               0.000217223               0.999999999              -0.000004624               0.000228793               0.999999999              -0.000007639               0.000241505               0.999999999              -0.000010819               0.000255221               0.999999999              -0.000014168               0.000269964               0.999999999              -0.000017589               0.000285754               0.999999999              -0.000021010               0.000302692               0.999999999              -0.000024292               0.000320842               0.999999999              -0.000027117               0.000340078               0.999999999              -0.000029297               0.000360311               0.999999999               0.000000920               0.000191842               0.999999999               0.000005020               0.000190181               0.999999999               0.000006296               0.000190491               0.999999999               0.000006011               0.000193133               0.999999999               0.000004890               0.000198023               0.999999999               0.000003252               0.000204891               0.999999999               0.000001474               0.000213342               0.999999999              -0.000000348               0.000223081               0.999999999              -0.000002259               0.000233989               0.999999999              -0.000004306               0.000245952               0.999999999              -0.000006364               0.000259007               0.999999999              -0.000008545               0.000273204               0.999999999              -0.000010777               0.000288449               0.999999999              -0.000013034               0.000304827               0.999999999              -0.000015048               0.000322487               0.999999999              -0.000016759               0.000341388               0.999999999              -0.000017727               0.000361216               0.999999999               0.000000439               0.000194843               0.999999999               0.000002580               0.000194333               0.999999999               0.000003328               0.000195173               0.999999999               0.000003210               0.000197970               0.999999999               0.000002707               0.000202768               0.999999999               0.000001891               0.000209432               0.999999999               0.000001022               0.000217636               0.999999999               0.000000105               0.000227087               0.999999999              -0.000000866               0.000237651               0.999999999              -0.000001939               0.000249206               0.999999999              -0.000002905               0.000261851               0.999999999              -0.000003856               0.000275703               0.999999999              -0.000005019               0.000290798               0.999999999              -0.000006211               0.000307072               0.999999999              -0.000007213               0.000324528               0.999999999              -0.000007855               0.000343202               0.999999999              -0.000008152               0.000362827               0.999999999              -0.000000000               0.000195850               0.999999999              -0.000000000               0.000195769               0.999999999              -0.000000000               0.000196790               0.999999999              -0.000000000               0.000199624               0.999999999               0.000000000               0.000204439               0.999999999               0.000000000               0.000211035               0.999999999               0.000000000               0.000219143               0.999999999               0.000000000               0.000228517               0.999999999              -0.000000000               0.000238928               0.999999999               0.000000000               0.000250424               0.999999999               0.000000000               0.000263035               0.999999999              -0.000000000               0.000276653               0.999999999              -0.000000000               0.000291623               0.999999999              -0.000000000               0.000308018               0.999999999               0.000000000               0.000325566               0.999999999              -0.000000000               0.000344016               0.999999999              -0.000000000               0.000363403               0.999999999               0.000008939              -0.000000000               0.999999999               0.000001334              -0.000000000               0.999999999              -0.000002188              -0.000000000               0.999999999              -0.000003981              -0.000000000               0.999999999              -0.000005093               0.000000000               0.999999999              -0.000006095               0.000000000               0.999999999              -0.000007285               0.000000000               0.999999999              -0.000008830              -0.000000000               0.999999999              -0.000010755               0.000000000               0.999999999              -0.000013175               0.000000000               0.999999999              -0.000016082               0.000000000               0.999999999              -0.000019454              -0.000000000               0.999999999              -0.000023431               0.000000000               0.999999999              -0.000027989              -0.000000000               0.999999999              -0.000033003              -0.000000000               0.999999999              -0.000038395              -0.000000000               0.999999999              -0.000044190              -0.000000000               0.999999999               0.000008837              -0.000018946               0.999999999               0.000001487              -0.000017092               0.999999999              -0.000001891              -0.000016614               0.999999999              -0.000003661              -0.000016988               0.999999999              -0.000004827              -0.000017934               0.999999999              -0.000005909              -0.000019328               0.999999999              -0.000007228              -0.000021018               0.999999999              -0.000008898              -0.000023018               0.999999999              -0.000011014              -0.000025172               0.999999999              -0.000013592              -0.000027578               0.999999999              -0.000016672              -0.000030141               0.999999999              -0.000020289              -0.000033009               0.999999999              -0.000024442              -0.000036048               0.999999999              -0.000029113              -0.000039226               0.999999999              -0.000034244              -0.000042446               0.999999999              -0.000039808              -0.000045736               0.999999999              -0.000045777              -0.000049273               0.999999999               0.000008592              -0.000037736               0.999999999               0.000001961              -0.000033978               0.999999999              -0.000001063              -0.000033125               0.999999999              -0.000002762              -0.000033959               0.999999999              -0.000004073              -0.000035923               0.999999999              -0.000005457              -0.000038715               0.999999999              -0.000007170              -0.000042176               0.999999999              -0.000009287              -0.000046085               0.999999999              -0.000011845              -0.000050485               0.999999999              -0.000014928              -0.000055202               0.999999999              -0.000018536              -0.000060416               0.999999999              -0.000022688              -0.000066026               0.999999999              -0.000027401              -0.000072088               0.999999999              -0.000032618              -0.000078298               0.999999999              -0.000038270              -0.000084586               0.999999999              -0.000044253              -0.000091121               0.999999999              -0.000050590              -0.000098070               0.999999999               0.000008212              -0.000056180               0.999999999               0.000002786              -0.000050508               0.999999999               0.000000273              -0.000049418               0.999999999              -0.000001411              -0.000050863               0.999999999              -0.000003045              -0.000053955               0.999999999              -0.000004942              -0.000058257               0.999999999              -0.000007312              -0.000063418               0.999999999              -0.000010146              -0.000069388               0.999999999              -0.000013467              -0.000075879               0.999999999              -0.000017312              -0.000083045               0.999999999              -0.000021708              -0.000090779               0.999999999              -0.000026682              -0.000099236               0.999999999              -0.000032193              -0.000108125               0.999999999              -0.000038132              -0.000117193               0.999999999              -0.000044416              -0.000126299               0.999999999              -0.000051042              -0.000135804               0.999999999              -0.000057988              -0.000145823               0.999999999               0.000007725              -0.000074079               0.999999999               0.000003946              -0.000066559               0.999999999               0.000001956              -0.000065421               0.999999999               0.000000166              -0.000067672               0.999999999              -0.000001980              -0.000072052               0.999999999              -0.000004637              -0.000077906               0.999999999              -0.000007858              -0.000084908               0.999999999              -0.000011614              -0.000092773               0.999999999              -0.000015886              -0.000101452               0.999999999              -0.000020711              -0.000110945               0.999999999              -0.000026097              -0.000121280               0.999999999              -0.000032046              -0.000132434               0.999999999              -0.000038460              -0.000143995               0.999999999              -0.000045150              -0.000155651               0.999999999              -0.000052131              -0.000167380               0.999999999              -0.000059435              -0.000179639               0.999999999              -0.000067000              -0.000192379               0.999999999               0.000007200              -0.000091280               0.999999999               0.000005346              -0.000082033               0.999999999               0.000003810              -0.000081113               0.999999999               0.000001696              -0.000084335               0.999999999              -0.000001165              -0.000090090               0.999999999              -0.000004688              -0.000097563               0.999999999              -0.000008864              -0.000106379               0.999999999              -0.000013650              -0.000116256               0.999999999              -0.000018991              -0.000127187               0.999999999              -0.000024860              -0.000139091               0.999999999              -0.000031303              -0.000152071               0.999999999              -0.000038175              -0.000165759               0.999999999              -0.000045333              -0.000179758               0.999999999              -0.000052725              -0.000193962               0.999999999              -0.000060432              -0.000208358               0.999999999              -0.000068490              -0.000223382               0.999999999              -0.000076867              -0.000238909               0.999999999               0.000006669              -0.000107617               0.999999999               0.000006875              -0.000096887               0.999999999               0.000005590              -0.000096361               0.999999999               0.000002968              -0.000100665               0.999999999              -0.000000702              -0.000107884               0.999999999              -0.000005194              -0.000117089               0.999999999              -0.000010383              -0.000127859               0.999999999              -0.000016214              -0.000139851               0.999999999              -0.000022539              -0.000153041               0.999999999              -0.000029421              -0.000167472               0.999999999              -0.000036861              -0.000183009               0.999999999              -0.000044570              -0.000199089               0.999999999              -0.000052444              -0.000215531               0.999999999              -0.000060612              -0.000232338               0.999999999              -0.000069152              -0.000249691               0.999999999              -0.000078107              -0.000267790               0.999999999              -0.000087427              -0.000286348               0.999999999               0.000006067              -0.000122844               0.999999999               0.000008392              -0.000111045               0.999999999               0.000007139              -0.000111049               0.999999999               0.000003834              -0.000116522               0.999999999              -0.000000752              -0.000125296               0.999999999              -0.000006183              -0.000136355               0.999999999              -0.000012286              -0.000149111               0.999999999              -0.000018976              -0.000163357               0.999999999              -0.000026270              -0.000179030               0.999999999              -0.000034163              -0.000196073               0.999999999              -0.000042437              -0.000214221               0.999999999              -0.000050884              -0.000232871               0.999999999              -0.000059572              -0.000251923               0.999999999              -0.000068622              -0.000271731               0.999999999              -0.000078117              -0.000292366               0.999999999              -0.000087997              -0.000313794               0.999999999              -0.000098216              -0.000335795               0.999999999               0.000005358              -0.000136706               0.999999999               0.000009806              -0.000124461               0.999999999               0.000008264              -0.000125062               0.999999999               0.000004191              -0.000131775               0.999999999              -0.000001256              -0.000142149               0.999999999              -0.000007527              -0.000155089               0.999999999              -0.000014411              -0.000170029               0.999999999              -0.000021888              -0.000186730               0.999999999              -0.000030084              -0.000205128               0.999999999              -0.000038846              -0.000224947               0.999999999              -0.000047782              -0.000245793               0.999999999              -0.000056931              -0.000267268               0.999999999              -0.000066335              -0.000289602               0.999999999              -0.000076117              -0.000313054               0.999999999              -0.000086272              -0.000337704               0.999999999              -0.000096763              -0.000363399               0.999999999              -0.000107588              -0.000389750               0.999999999               0.000004410              -0.000149644               0.999999999               0.000010539              -0.000138286               0.999999999               0.000009838              -0.000137637               0.999999999               0.000006349              -0.000142869               0.999999999               0.000001519              -0.000151687               0.999999999              -0.000004094              -0.000163068               0.999999999              -0.000010135              -0.000176461               0.999999999              -0.000016630              -0.000191522               0.999999999              -0.000023614              -0.000208166               0.999999999              -0.000031290              -0.000226253               0.999999999              -0.000039211              -0.000245442               0.999999999              -0.000047236              -0.000265522               0.999999999              -0.000055327              -0.000286345               0.999999999              -0.000063417              -0.000308177               0.999999999              -0.000071748              -0.000331191               0.999999999              -0.000080668              -0.000355548               0.999999999              -0.000090006              -0.000381038               0.999999999               0.000003549              -0.000161292               0.999999999               0.000010609              -0.000151459               0.999999999               0.000010786              -0.000150206               0.999999999               0.000008039              -0.000154234               0.999999999               0.000003846              -0.000161669               0.999999999              -0.000001021              -0.000171645               0.999999999              -0.000006270              -0.000183570               0.999999999              -0.000011822              -0.000197149               0.999999999              -0.000017764              -0.000212201               0.999999999              -0.000024194              -0.000228566               0.999999999              -0.000031049              -0.000246149               0.999999999              -0.000037861              -0.000264740               0.999999999              -0.000044680              -0.000284227               0.999999999              -0.000051419              -0.000304578               0.999999999              -0.000058344              -0.000325929               0.999999999              -0.000065690              -0.000348561               0.999999999              -0.000073443              -0.000372502               0.999999999               0.000002761              -0.000171458               0.999999999               0.000010057              -0.000163686               0.999999999               0.000010959              -0.000162321               0.999999999               0.000008978              -0.000165494               0.999999999               0.000005574              -0.000171871               0.999999999               0.000001412              -0.000180609               0.999999999              -0.000002994              -0.000191268               0.999999999              -0.000007648              -0.000203525               0.999999999              -0.000012515              -0.000217174               0.999999999              -0.000017832              -0.000232039               0.999999999              -0.000023427              -0.000248090               0.999999999              -0.000028972              -0.000265267               0.999999999              -0.000034594              -0.000283393               0.999999999              -0.000040364              -0.000302344               0.999999999              -0.000046044              -0.000322252               0.999999999              -0.000051747              -0.000343303               0.999999999              -0.000057595              -0.000365737               0.999999999               0.000002054              -0.000180008               0.999999999               0.000008873              -0.000174485               0.999999999               0.000010264              -0.000173477               0.999999999               0.000009008              -0.000176185               0.999999999               0.000006388              -0.000181783               0.999999999               0.000003053              -0.000189626               0.999999999              -0.000000522              -0.000199231               0.999999999              -0.000004219              -0.000210433               0.999999999              -0.000008049              -0.000222898               0.999999999              -0.000012212              -0.000236555               0.999999999              -0.000016517              -0.000251305               0.999999999              -0.000020942              -0.000267107               0.999999999              -0.000025535              -0.000283936               0.999999999              -0.000030197              -0.000301770               0.999999999              -0.000034712              -0.000320637               0.999999999              -0.000038838              -0.000340521               0.999999999              -0.000042736              -0.000361634               0.999999999               0.000001447              -0.000186854               0.999999999               0.000007161              -0.000183458               0.999999999               0.000008674              -0.000183071               0.999999999               0.000008014              -0.000185637               0.999999999               0.000006157              -0.000190767               0.999999999               0.000003704              -0.000198004               0.999999999               0.000000998              -0.000206897               0.999999999              -0.000001735              -0.000217223               0.999999999              -0.000004624              -0.000228793               0.999999999              -0.000007639              -0.000241505               0.999999999              -0.000010819              -0.000255221               0.999999999              -0.000014168              -0.000269964               0.999999999              -0.000017589              -0.000285754               0.999999999              -0.000021010              -0.000302692               0.999999999              -0.000024292              -0.000320842               0.999999999              -0.000027117              -0.000340078               0.999999999              -0.000029297              -0.000360311               0.999999999               0.000000920              -0.000191842               0.999999999               0.000005020              -0.000190181               0.999999999               0.000006296              -0.000190491               0.999999999               0.000006011              -0.000193133               0.999999999               0.000004890              -0.000198023               0.999999999               0.000003252              -0.000204891               0.999999999               0.000001474              -0.000213342               0.999999999              -0.000000348              -0.000223081               0.999999999              -0.000002259              -0.000233989               0.999999999              -0.000004306              -0.000245952               0.999999999              -0.000006364              -0.000259007               0.999999999              -0.000008545              -0.000273204               0.999999999              -0.000010777              -0.000288449               0.999999999              -0.000013034              -0.000304827               0.999999999              -0.000015048              -0.000322487               0.999999999              -0.000016759              -0.000341388               0.999999999              -0.000017727              -0.000361216               0.999999999               0.000000439              -0.000194843               0.999999999               0.000002580              -0.000194333               0.999999999               0.000003328              -0.000195173               0.999999999               0.000003210              -0.000197970               0.999999999               0.000002707              -0.000202768               0.999999999               0.000001891              -0.000209432               0.999999999               0.000001022              -0.000217636               0.999999999               0.000000105              -0.000227087               0.999999999              -0.000000866              -0.000237651               0.999999999              -0.000001939              -0.000249206               0.999999999              -0.000002905              -0.000261851               0.999999999              -0.000003856              -0.000275703               0.999999999              -0.000005019              -0.000290798               0.999999999              -0.000006211              -0.000307072               0.999999999              -0.000007213              -0.000324528               0.999999999              -0.000007855              -0.000343202               0.999999999              -0.000008152              -0.000362827               0.999999999               0.000000000              -0.000195850               0.999999999              -0.000000000              -0.000195769               0.999999999              -0.000000000              -0.000196790               0.999999999              -0.000000000              -0.000199624               0.999999999              -0.000000000              -0.000204439               0.999999999              -0.000000000              -0.000211035               0.999999999               0.000000000              -0.000219143               0.999999999               0.000000000              -0.000228517               0.999999999               0.000000000              -0.000238928               0.999999999              -0.000000000              -0.000250424               0.999999999               0.000000000              -0.000263035               0.999999999               0.000000000              -0.000276653               0.999999999               0.000000000              -0.000291623               0.999999999              -0.000000000              -0.000308018               0.999999999              -0.000000000              -0.000325566               0.999999999              -0.000000000              -0.000344016               0.999999999              -0.000000000              -0.000363403               0.999999999              -0.000008939               0.000000000               0.999999999              -0.000001334               0.000000000               0.999999999               0.000002188               0.000000000               0.999999999               0.000003981               0.000000000               0.999999999               0.000005093               0.000000000               0.999999999               0.000006095               0.000000000               0.999999999               0.000007285               0.000000000               0.999999999               0.000008830               0.000000000               0.999999999               0.000010755               0.000000000               0.999999999               0.000013175               0.000000000               0.999999999               0.000016082               0.000000000               0.999999999               0.000019454               0.000000000               0.999999999               0.000023431               0.000000000               0.999999999               0.000027989               0.000000000               0.999999999               0.000033003               0.000000000               0.999999999               0.000038395               0.000000000               0.999999999               0.000044190               0.000000000               0.999999999              -0.000008837              -0.000018946               0.999999999              -0.000001487              -0.000017092               0.999999999               0.000001891              -0.000016614               0.999999999               0.000003661              -0.000016988               0.999999999               0.000004827              -0.000017934               0.999999999               0.000005909              -0.000019328               0.999999999               0.000007228              -0.000021018               0.999999999               0.000008898              -0.000023018               0.999999999               0.000011014              -0.000025172               0.999999999               0.000013592              -0.000027578               0.999999999               0.000016672              -0.000030141               0.999999999               0.000020289              -0.000033009               0.999999999               0.000024442              -0.000036048               0.999999999               0.000029113              -0.000039226               0.999999999               0.000034244              -0.000042446               0.999999999               0.000039808              -0.000045736               0.999999999               0.000045777              -0.000049273               0.999999999              -0.000008592              -0.000037736               0.999999999              -0.000001961              -0.000033978               0.999999999               0.000001063              -0.000033125               0.999999999               0.000002762              -0.000033959               0.999999999               0.000004073              -0.000035923               0.999999999               0.000005457              -0.000038715               0.999999999               0.000007170              -0.000042176               0.999999999               0.000009287              -0.000046085               0.999999999               0.000011845              -0.000050485               0.999999999               0.000014928              -0.000055202               0.999999999               0.000018536              -0.000060416               0.999999999               0.000022688              -0.000066026               0.999999999               0.000027401              -0.000072088               0.999999999               0.000032618              -0.000078298               0.999999999               0.000038270              -0.000084586               0.999999999               0.000044253              -0.000091121               0.999999999               0.000050590              -0.000098070               0.999999999              -0.000008212              -0.000056180               0.999999999              -0.000002786              -0.000050508               0.999999999              -0.000000273              -0.000049418               0.999999999               0.000001411              -0.000050863               0.999999999               0.000003045              -0.000053955               0.999999999               0.000004942              -0.000058257               0.999999999               0.000007312              -0.000063418               0.999999999               0.000010146              -0.000069388               0.999999999               0.000013467              -0.000075879               0.999999999               0.000017312              -0.000083045               0.999999999               0.000021708              -0.000090779               0.999999999               0.000026682              -0.000099236               0.999999999               0.000032193              -0.000108125               0.999999999               0.000038132              -0.000117193               0.999999999               0.000044416              -0.000126299               0.999999999               0.000051042              -0.000135804               0.999999999               0.000057988              -0.000145823               0.999999999              -0.000007725              -0.000074079               0.999999999              -0.000003946              -0.000066559               0.999999999              -0.000001956              -0.000065421               0.999999999              -0.000000166              -0.000067672               0.999999999               0.000001980              -0.000072052               0.999999999               0.000004637              -0.000077906               0.999999999               0.000007858              -0.000084908               0.999999999               0.000011614              -0.000092773               0.999999999               0.000015886              -0.000101452               0.999999999               0.000020711              -0.000110945               0.999999999               0.000026097              -0.000121280               0.999999999               0.000032046              -0.000132434               0.999999999               0.000038460              -0.000143995               0.999999999               0.000045150              -0.000155651               0.999999999               0.000052131              -0.000167380               0.999999999               0.000059435              -0.000179639               0.999999999               0.000067000              -0.000192379               0.999999999              -0.000007200              -0.000091280               0.999999999              -0.000005346              -0.000082033               0.999999999              -0.000003810              -0.000081113               0.999999999              -0.000001696              -0.000084335               0.999999999               0.000001165              -0.000090090               0.999999999               0.000004688              -0.000097563               0.999999999               0.000008864              -0.000106379               0.999999999               0.000013650              -0.000116256               0.999999999               0.000018991              -0.000127187               0.999999999               0.000024860              -0.000139091               0.999999999               0.000031303              -0.000152071               0.999999999               0.000038175              -0.000165759               0.999999999               0.000045333              -0.000179758               0.999999999               0.000052725              -0.000193962               0.999999999               0.000060432              -0.000208358               0.999999999               0.000068490              -0.000223382               0.999999999               0.000076867              -0.000238909               0.999999999              -0.000006669              -0.000107617               0.999999999              -0.000006875              -0.000096887               0.999999999              -0.000005590              -0.000096361               0.999999999              -0.000002968              -0.000100665               0.999999999               0.000000702              -0.000107884               0.999999999               0.000005194              -0.000117089               0.999999999               0.000010383              -0.000127859               0.999999999               0.000016214              -0.000139851               0.999999999               0.000022539              -0.000153041               0.999999999               0.000029421              -0.000167472               0.999999999               0.000036861              -0.000183009               0.999999999               0.000044570              -0.000199089               0.999999999               0.000052444              -0.000215531               0.999999999               0.000060612              -0.000232338               0.999999999               0.000069152              -0.000249691               0.999999999               0.000078107              -0.000267790               0.999999999               0.000087427              -0.000286348               0.999999999              -0.000006067              -0.000122844               0.999999999              -0.000008392              -0.000111045               0.999999999              -0.000007139              -0.000111049               0.999999999              -0.000003834              -0.000116522               0.999999999               0.000000752              -0.000125296               0.999999999               0.000006183              -0.000136355               0.999999999               0.000012286              -0.000149111               0.999999999               0.000018976              -0.000163357               0.999999999               0.000026270              -0.000179030               0.999999999               0.000034163              -0.000196073               0.999999999               0.000042437              -0.000214221               0.999999999               0.000050884              -0.000232871               0.999999999               0.000059572              -0.000251923               0.999999999               0.000068622              -0.000271731               0.999999999               0.000078117              -0.000292366               0.999999999               0.000087997              -0.000313794               0.999999999               0.000098216              -0.000335795               0.999999999              -0.000005358              -0.000136706               0.999999999              -0.000009806              -0.000124461               0.999999999              -0.000008264              -0.000125062               0.999999999              -0.000004191              -0.000131775               0.999999999               0.000001256              -0.000142149               0.999999999               0.000007527              -0.000155089               0.999999999               0.000014411              -0.000170029               0.999999999               0.000021888              -0.000186730               0.999999999               0.000030084              -0.000205128               0.999999999               0.000038846              -0.000224947               0.999999999               0.000047782              -0.000245793               0.999999999               0.000056931              -0.000267268               0.999999999               0.000066335              -0.000289602               0.999999999               0.000076117              -0.000313054               0.999999999               0.000086272              -0.000337704               0.999999999               0.000096763              -0.000363399               0.999999999               0.000107588              -0.000389750               0.999999999              -0.000004410              -0.000149644               0.999999999              -0.000010539              -0.000138286               0.999999999              -0.000009838              -0.000137637               0.999999999              -0.000006349              -0.000142869               0.999999999              -0.000001519              -0.000151687               0.999999999               0.000004094              -0.000163068               0.999999999               0.000010135              -0.000176461               0.999999999               0.000016630              -0.000191522               0.999999999               0.000023614              -0.000208166               0.999999999               0.000031290              -0.000226253               0.999999999               0.000039211              -0.000245442               0.999999999               0.000047236              -0.000265522               0.999999999               0.000055327              -0.000286345               0.999999999               0.000063417              -0.000308177               0.999999999               0.000071748              -0.000331191               0.999999999               0.000080668              -0.000355548               0.999999999               0.000090006              -0.000381038               0.999999999              -0.000003549              -0.000161292               0.999999999              -0.000010609              -0.000151459               0.999999999              -0.000010786              -0.000150206               0.999999999              -0.000008039              -0.000154234               0.999999999              -0.000003846              -0.000161669               0.999999999               0.000001021              -0.000171645               0.999999999               0.000006270              -0.000183570               0.999999999               0.000011822              -0.000197149               0.999999999               0.000017764              -0.000212201               0.999999999               0.000024194              -0.000228566               0.999999999               0.000031049              -0.000246149               0.999999999               0.000037861              -0.000264740               0.999999999               0.000044680              -0.000284227               0.999999999               0.000051419              -0.000304578               0.999999999               0.000058344              -0.000325929               0.999999999               0.000065690              -0.000348561               0.999999999               0.000073443              -0.000372502               0.999999999              -0.000002761              -0.000171458               0.999999999              -0.000010057              -0.000163686               0.999999999              -0.000010959              -0.000162321               0.999999999              -0.000008978              -0.000165494               0.999999999              -0.000005574              -0.000171871               0.999999999              -0.000001412              -0.000180609               0.999999999               0.000002994              -0.000191268               0.999999999               0.000007648              -0.000203525               0.999999999               0.000012515              -0.000217174               0.999999999               0.000017832              -0.000232039               0.999999999               0.000023427              -0.000248090               0.999999999               0.000028972              -0.000265267               0.999999999               0.000034594              -0.000283393               0.999999999               0.000040364              -0.000302344               0.999999999               0.000046044              -0.000322252               0.999999999               0.000051747              -0.000343303               0.999999999               0.000057595              -0.000365737               0.999999999              -0.000002054              -0.000180008               0.999999999              -0.000008873              -0.000174485               0.999999999              -0.000010264              -0.000173477               0.999999999              -0.000009008              -0.000176185               0.999999999              -0.000006388              -0.000181783               0.999999999              -0.000003053              -0.000189626               0.999999999               0.000000522              -0.000199231               0.999999999               0.000004219              -0.000210433               0.999999999               0.000008049              -0.000222898               0.999999999               0.000012212              -0.000236555               0.999999999               0.000016517              -0.000251305               0.999999999               0.000020942              -0.000267107               0.999999999               0.000025535              -0.000283936               0.999999999               0.000030197              -0.000301770               0.999999999               0.000034712              -0.000320637               0.999999999               0.000038838              -0.000340521               0.999999999               0.000042736              -0.000361634               0.999999999              -0.000001447              -0.000186854               0.999999999              -0.000007161              -0.000183458               0.999999999              -0.000008674              -0.000183071               0.999999999              -0.000008014              -0.000185637               0.999999999              -0.000006157              -0.000190767               0.999999999              -0.000003704              -0.000198004               0.999999999              -0.000000998              -0.000206897               0.999999999               0.000001735              -0.000217223               0.999999999               0.000004624              -0.000228793               0.999999999               0.000007639              -0.000241505               0.999999999               0.000010819              -0.000255221               0.999999999               0.000014168              -0.000269964               0.999999999               0.000017589              -0.000285754               0.999999999               0.000021010              -0.000302692               0.999999999               0.000024292              -0.000320842               0.999999999               0.000027117              -0.000340078               0.999999999               0.000029297              -0.000360311               0.999999999              -0.000000920              -0.000191842               0.999999999              -0.000005020              -0.000190181               0.999999999              -0.000006296              -0.000190491               0.999999999              -0.000006011              -0.000193133               0.999999999              -0.000004890              -0.000198023               0.999999999              -0.000003252              -0.000204891               0.999999999              -0.000001474              -0.000213342               0.999999999               0.000000348              -0.000223081               0.999999999               0.000002259              -0.000233989               0.999999999               0.000004306              -0.000245952               0.999999999               0.000006364              -0.000259007               0.999999999               0.000008545              -0.000273204               0.999999999               0.000010777              -0.000288449               0.999999999               0.000013034              -0.000304827               0.999999999               0.000015048              -0.000322487               0.999999999               0.000016759              -0.000341388               0.999999999               0.000017727              -0.000361216               0.999999999              -0.000000439              -0.000194843               0.999999999              -0.000002580              -0.000194333               0.999999999              -0.000003328              -0.000195173               0.999999999              -0.000003210              -0.000197970               0.999999999              -0.000002707              -0.000202768               0.999999999              -0.000001891              -0.000209432               0.999999999              -0.000001022              -0.000217636               0.999999999              -0.000000105              -0.000227087               0.999999999               0.000000866              -0.000237651               0.999999999               0.000001939              -0.000249206               0.999999999               0.000002905              -0.000261851               0.999999999               0.000003856              -0.000275703               0.999999999               0.000005019              -0.000290798               0.999999999               0.000006211              -0.000307072               0.999999999               0.000007213              -0.000324528               0.999999999               0.000007855              -0.000343202               0.999999999               0.000008152              -0.000362827               0.999999999               0.000000000              -0.000195850               0.999999999              -0.000000000              -0.000195769               0.999999999              -0.000000000              -0.000196790               0.999999999              -0.000000000              -0.000199624               0.999999999              -0.000000000              -0.000204439               0.999999999              -0.000000000              -0.000211035               0.999999999               0.000000000              -0.000219143               0.999999999               0.000000000              -0.000228517               0.999999999               0.000000000              -0.000238928               0.999999999              -0.000000000              -0.000250424               0.999999999               0.000000000              -0.000263035               0.999999999               0.000000000              -0.000276653               0.999999999               0.000000000              -0.000291623               0.999999999              -0.000000000              -0.000308018               0.999999999              -0.000000000              -0.000325566               0.999999999              -0.000000000              -0.000344016               0.999999999              -0.000000000              -0.000363403               0.999999999              -0.000008939               0.000000000               0.999999999              -0.000001334               0.000000000               0.999999999               0.000002188               0.000000000               0.999999999               0.000003981               0.000000000               0.999999999               0.000005093               0.000000000               0.999999999               0.000006095               0.000000000               0.999999999               0.000007285               0.000000000               0.999999999               0.000008830               0.000000000               0.999999999               0.000010755               0.000000000               0.999999999               0.000013175               0.000000000               0.999999999               0.000016082               0.000000000               0.999999999               0.000019454               0.000000000               0.999999999               0.000023431               0.000000000               0.999999999               0.000027989               0.000000000               0.999999999               0.000033003               0.000000000               0.999999999               0.000038395               0.000000000               0.999999999               0.000044190               0.000000000               0.999999999              -0.000008837               0.000018946               0.999999999              -0.000001487               0.000017092               0.999999999               0.000001891               0.000016614               0.999999999               0.000003661               0.000016988               0.999999999               0.000004827               0.000017934               0.999999999               0.000005909               0.000019328               0.999999999               0.000007228               0.000021018               0.999999999               0.000008898               0.000023018               0.999999999               0.000011014               0.000025172               0.999999999               0.000013592               0.000027578               0.999999999               0.000016672               0.000030141               0.999999999               0.000020289               0.000033009               0.999999999               0.000024442               0.000036048               0.999999999               0.000029113               0.000039226               0.999999999               0.000034244               0.000042446               0.999999999               0.000039808               0.000045736               0.999999999               0.000045777               0.000049273               0.999999999              -0.000008592               0.000037736               0.999999999              -0.000001961               0.000033978               0.999999999               0.000001063               0.000033125               0.999999999               0.000002762               0.000033959               0.999999999               0.000004073               0.000035923               0.999999999               0.000005457               0.000038715               0.999999999               0.000007170               0.000042176               0.999999999               0.000009287               0.000046085               0.999999999               0.000011845               0.000050485               0.999999999               0.000014928               0.000055202               0.999999999               0.000018536               0.000060416               0.999999999               0.000022688               0.000066026               0.999999999               0.000027401               0.000072088               0.999999999               0.000032618               0.000078298               0.999999999               0.000038270               0.000084586               0.999999999               0.000044253               0.000091121               0.999999999               0.000050590               0.000098070               0.999999999              -0.000008212               0.000056180               0.999999999              -0.000002786               0.000050508               0.999999999              -0.000000273               0.000049418               0.999999999               0.000001411               0.000050863               0.999999999               0.000003045               0.000053955               0.999999999               0.000004942               0.000058257               0.999999999               0.000007312               0.000063418               0.999999999               0.000010146               0.000069388               0.999999999               0.000013467               0.000075879               0.999999999               0.000017312               0.000083045               0.999999999               0.000021708               0.000090779               0.999999999               0.000026682               0.000099236               0.999999999               0.000032193               0.000108125               0.999999999               0.000038132               0.000117193               0.999999999               0.000044416               0.000126299               0.999999999               0.000051042               0.000135804               0.999999999               0.000057988               0.000145823               0.999999999              -0.000007725               0.000074079               0.999999999              -0.000003946               0.000066559               0.999999999              -0.000001956               0.000065421               0.999999999              -0.000000166               0.000067672               0.999999999               0.000001980               0.000072052               0.999999999               0.000004637               0.000077906               0.999999999               0.000007858               0.000084908               0.999999999               0.000011614               0.000092773               0.999999999               0.000015886               0.000101452               0.999999999               0.000020711               0.000110945               0.999999999               0.000026097               0.000121280               0.999999999               0.000032046               0.000132434               0.999999999               0.000038460               0.000143995               0.999999999               0.000045150               0.000155651               0.999999999               0.000052131               0.000167380               0.999999999               0.000059435               0.000179639               0.999999999               0.000067000               0.000192379               0.999999999              -0.000007200               0.000091280               0.999999999              -0.000005346               0.000082033               0.999999999              -0.000003810               0.000081113               0.999999999              -0.000001696               0.000084335               0.999999999               0.000001165               0.000090090               0.999999999               0.000004688               0.000097563               0.999999999               0.000008864               0.000106379               0.999999999               0.000013650               0.000116256               0.999999999               0.000018991               0.000127187               0.999999999               0.000024860               0.000139091               0.999999999               0.000031303               0.000152071               0.999999999               0.000038175               0.000165759               0.999999999               0.000045333               0.000179758               0.999999999               0.000052725               0.000193962               0.999999999               0.000060432               0.000208358               0.999999999               0.000068490               0.000223382               0.999999999               0.000076867               0.000238909               0.999999999              -0.000006669               0.000107617               0.999999999              -0.000006875               0.000096887               0.999999999              -0.000005590               0.000096361               0.999999999              -0.000002968               0.000100665               0.999999999               0.000000702               0.000107884               0.999999999               0.000005194               0.000117089               0.999999999               0.000010383               0.000127859               0.999999999               0.000016214               0.000139851               0.999999999               0.000022539               0.000153041               0.999999999               0.000029421               0.000167472               0.999999999               0.000036861               0.000183009               0.999999999               0.000044570               0.000199089               0.999999999               0.000052444               0.000215531               0.999999999               0.000060612               0.000232338               0.999999999               0.000069152               0.000249691               0.999999999               0.000078107               0.000267790               0.999999999               0.000087427               0.000286348               0.999999999              -0.000006067               0.000122844               0.999999999              -0.000008392               0.000111045               0.999999999              -0.000007139               0.000111049               0.999999999              -0.000003834               0.000116522               0.999999999               0.000000752               0.000125296               0.999999999               0.000006183               0.000136355               0.999999999               0.000012286               0.000149111               0.999999999               0.000018976               0.000163357               0.999999999               0.000026270               0.000179030               0.999999999               0.000034163               0.000196073               0.999999999               0.000042437               0.000214221               0.999999999               0.000050884               0.000232871               0.999999999               0.000059572               0.000251923               0.999999999               0.000068622               0.000271731               0.999999999               0.000078117               0.000292366               0.999999999               0.000087997               0.000313794               0.999999999               0.000098216               0.000335795               0.999999999              -0.000005358               0.000136706               0.999999999              -0.000009806               0.000124461               0.999999999              -0.000008264               0.000125062               0.999999999              -0.000004191               0.000131775               0.999999999               0.000001256               0.000142149               0.999999999               0.000007527               0.000155089               0.999999999               0.000014411               0.000170029               0.999999999               0.000021888               0.000186730               0.999999999               0.000030084               0.000205128               0.999999999               0.000038846               0.000224947               0.999999999               0.000047782               0.000245793               0.999999999               0.000056931               0.000267268               0.999999999               0.000066335               0.000289602               0.999999999               0.000076117               0.000313054               0.999999999               0.000086272               0.000337704               0.999999999               0.000096763               0.000363399               0.999999999               0.000107588               0.000389750               0.999999999              -0.000004410               0.000149644               0.999999999              -0.000010539               0.000138286               0.999999999              -0.000009838               0.000137637               0.999999999              -0.000006349               0.000142869               0.999999999              -0.000001519               0.000151687               0.999999999               0.000004094               0.000163068               0.999999999               0.000010135               0.000176461               0.999999999               0.000016630               0.000191522               0.999999999               0.000023614               0.000208166               0.999999999               0.000031290               0.000226253               0.999999999               0.000039211               0.000245442               0.999999999               0.000047236               0.000265522               0.999999999               0.000055327               0.000286345               0.999999999               0.000063417               0.000308177               0.999999999               0.000071748               0.000331191               0.999999999               0.000080668               0.000355548               0.999999999               0.000090006               0.000381038               0.999999999              -0.000003549               0.000161292               0.999999999              -0.000010609               0.000151459               0.999999999              -0.000010786               0.000150206               0.999999999              -0.000008039               0.000154234               0.999999999              -0.000003846               0.000161669               0.999999999               0.000001021               0.000171645               0.999999999               0.000006270               0.000183570               0.999999999               0.000011822               0.000197149               0.999999999               0.000017764               0.000212201               0.999999999               0.000024194               0.000228566               0.999999999               0.000031049               0.000246149               0.999999999               0.000037861               0.000264740               0.999999999               0.000044680               0.000284227               0.999999999               0.000051419               0.000304578               0.999999999               0.000058344               0.000325929               0.999999999               0.000065690               0.000348561               0.999999999               0.000073443               0.000372502               0.999999999              -0.000002761               0.000171458               0.999999999              -0.000010057               0.000163686               0.999999999              -0.000010959               0.000162321               0.999999999              -0.000008978               0.000165494               0.999999999              -0.000005574               0.000171871               0.999999999              -0.000001412               0.000180609               0.999999999               0.000002994               0.000191268               0.999999999               0.000007648               0.000203525               0.999999999               0.000012515               0.000217174               0.999999999               0.000017832               0.000232039               0.999999999               0.000023427               0.000248090               0.999999999               0.000028972               0.000265267               0.999999999               0.000034594               0.000283393               0.999999999               0.000040364               0.000302344               0.999999999               0.000046044               0.000322252               0.999999999               0.000051747               0.000343303               0.999999999               0.000057595               0.000365737               0.999999999              -0.000002054               0.000180008               0.999999999              -0.000008873               0.000174485               0.999999999              -0.000010264               0.000173477               0.999999999              -0.000009008               0.000176185               0.999999999              -0.000006388               0.000181783               0.999999999              -0.000003053               0.000189626               0.999999999               0.000000522               0.000199231               0.999999999               0.000004219               0.000210433               0.999999999               0.000008049               0.000222898               0.999999999               0.000012212               0.000236555               0.999999999               0.000016517               0.000251305               0.999999999               0.000020942               0.000267107               0.999999999               0.000025535               0.000283936               0.999999999               0.000030197               0.000301770               0.999999999               0.000034712               0.000320637               0.999999999               0.000038838               0.000340521               0.999999999               0.000042736               0.000361634               0.999999999              -0.000001447               0.000186854               0.999999999              -0.000007161               0.000183458               0.999999999              -0.000008674               0.000183071               0.999999999              -0.000008014               0.000185637               0.999999999              -0.000006157               0.000190767               0.999999999              -0.000003704               0.000198004               0.999999999              -0.000000998               0.000206897               0.999999999               0.000001735               0.000217223               0.999999999               0.000004624               0.000228793               0.999999999               0.000007639               0.000241505               0.999999999               0.000010819               0.000255221               0.999999999               0.000014168               0.000269964               0.999999999               0.000017589               0.000285754               0.999999999               0.000021010               0.000302692               0.999999999               0.000024292               0.000320842               0.999999999               0.000027117               0.000340078               0.999999999               0.000029297               0.000360311               0.999999999              -0.000000920               0.000191842               0.999999999              -0.000005020               0.000190181               0.999999999              -0.000006296               0.000190491               0.999999999              -0.000006011               0.000193133               0.999999999              -0.000004890               0.000198023               0.999999999              -0.000003252               0.000204891               0.999999999              -0.000001474               0.000213342               0.999999999               0.000000348               0.000223081               0.999999999               0.000002259               0.000233989               0.999999999               0.000004306               0.000245952               0.999999999               0.000006364               0.000259007               0.999999999               0.000008545               0.000273204               0.999999999               0.000010777               0.000288449               0.999999999               0.000013034               0.000304827               0.999999999               0.000015048               0.000322487               0.999999999               0.000016759               0.000341388               0.999999999               0.000017727               0.000361216               0.999999999              -0.000000439               0.000194843               0.999999999              -0.000002580               0.000194333               0.999999999              -0.000003328               0.000195173               0.999999999              -0.000003210               0.000197970               0.999999999              -0.000002707               0.000202768               0.999999999              -0.000001891               0.000209432               0.999999999              -0.000001022               0.000217636               0.999999999              -0.000000105               0.000227087               0.999999999               0.000000866               0.000237651               0.999999999               0.000001939               0.000249206               0.999999999               0.000002905               0.000261851               0.999999999               0.000003856               0.000275703               0.999999999               0.000005019               0.000290798               0.999999999               0.000006211               0.000307072               0.999999999               0.000007213               0.000324528               0.999999999               0.000007855               0.000343202               0.999999999               0.000008152               0.000362827               0.999999999              -0.000000000               0.000195850               0.999999999              -0.000000000               0.000195769               0.999999999              -0.000000000               0.000196790               0.999999999              -0.000000000               0.000199624               0.999999999               0.000000000               0.000204439               0.999999999               0.000000000               0.000211035               0.999999999               0.000000000               0.000219143               0.999999999               0.000000000               0.000228517               0.999999999              -0.000000000               0.000238928               0.999999999               0.000000000               0.000250424               0.999999999               0.000000000               0.000263035               0.999999999              -0.000000000               0.000276653               0.999999999              -0.000000000               0.000291623               0.999999999              -0.000000000               0.000308018               0.999999999               0.000000000               0.000325566               0.999999999              -0.000000000               0.000344016               0.999999999              -0.000000000               0.000363403               0.999999999 </DataArray>
<DataArray type="Float64"                                    Name="stress"                                                      NumberOfComponents="10" format="ascii">
              0.000318227               0.003570479               0.000000000              -0.000326974               0.001299139               0.000972165               0.000000000               0.000000000               0.000000000               0.000000000               0.000370009               0.002980934               0.000000000              -0.000233863               0.001071589               0.000837726               0.000000000               0.000000000               0.000000000               0.000000000               0.000531400               0.002498910              -0.000000000              -0.000113089               0.000870658               0.000757569               0.000000000               0.000000000               0.000000000               0.000000000               0.000574882               0.002231947               0.000000000              -0.000063413               0.000765112               0.000701700               0.000000000               0.000000000               0.000000000               0.000000000               0.000566581               0.002078635              -0.000000000              -0.000047361               0.000708659               0.000661297               0.000000000               0.000000000               0.000000000               0.000000000               0.000530915               0.001990160              -0.000000000              -0.000049677               0.000679939               0.000630262               0.000000000               0.000000000               0.000000000               0.000000000               0.000481855               0.001939387              -0.000000000              -0.000061728               0.000667032               0.000605304               0.000000000               0.000000000               0.000000000               0.000000000               0.000430492               0.001915605               0.000000000              -0.000078016               0.000664534               0.000586518               0.000000000               0.000000000               0.000000000               0.000000000               0.000376208               0.001905755               0.000000000              -0.000097141               0.000667626               0.000570485               0.000000000               0.000000000               0.000000000               0.000000000               0.000320934               0.001908659               0.000000000              -0.000118232               0.000675624               0.000557392               0.000000000               0.000000000               0.000000000               0.000000000               0.000268662               0.001921515              -0.000000000              -0.000139441               0.000686979               0.000547538               0.000000000               0.000000000               0.000000000               0.000000000               0.000214507               0.001944399               0.000000000              -0.000162609               0.000702330               0.000539720               0.000000000               0.000000000               0.000000000               0.000000000               0.000157458               0.001971269              -0.000000000              -0.000187361               0.000719537               0.000532175               0.000000000               0.000000000               0.000000000               0.000000000               0.000108848               0.002002010              -0.000000000              -0.000209433               0.000737141               0.000527708               0.000000000               0.000000000               0.000000000               0.000000000               0.000070106               0.002033868              -0.000000000              -0.000227943               0.000753930               0.000525987               0.000000000               0.000000000               0.000000000               0.000000000               0.000034647               0.002066402               0.000000000              -0.000245307               0.000770563               0.000525256               0.000000000               0.000000000               0.000000000               0.000000000               0.000020654               0.002093317              -0.000000000              -0.000253919               0.000782405               0.000528486               0.000000000               0.000000000               0.000000000               0.000000000               0.000340389               0.003516558              -0.000280623              -0.000311923               0.001276148               0.000964225               0.000000000               0.000000000               0.000000000               0.000000000               0.000379200               0.002941180              -0.000190371              -0.000225447               0.001055533               0.000830086               0.000000000               0.000000000               0.000000000               0.000000000               0.000526233               0.002478224              -0.000095680              -0.000112440               0.000863547               0.000751106               0.000000000               0.000000000               0.000000000               0.000000000               0.000561949               0.002222059              -0.000049675              -0.000067026               0.000763021               0.000695995               0.000000000               0.000000000               0.000000000               0.000000000               0.000551084               0.002074805              -0.000026415              -0.000052694               0.000709160               0.000656466               0.000000000               0.000000000               0.000000000               0.000000000               0.000514805               0.001988888              -0.000015101              -0.000055559               0.000681476               0.000625917               0.000000000               0.000000000               0.000000000               0.000000000               0.000467372               0.001940807              -0.000009796              -0.000067336               0.000669375               0.000602038               0.000000000               0.000000000               0.000000000               0.000000000               0.000416419               0.001915818              -0.000007766              -0.000083320               0.000666373               0.000583053               0.000000000               0.000000000               0.000000000               0.000000000               0.000363901               0.001907417              -0.000007176              -0.000101964               0.000669787               0.000567823               0.000000000               0.000000000               0.000000000               0.000000000               0.000310647               0.001909551              -0.000006293              -0.000122201               0.000677244               0.000555043               0.000000000               0.000000000               0.000000000               0.000000000               0.000257991               0.001922667              -0.000004307              -0.000143586               0.000688745               0.000545158               0.000000000               0.000000000               0.000000000               0.000000000               0.000204914               0.001943488              -0.000002327              -0.000166093               0.000703187               0.000537094               0.000000000               0.000000000               0.000000000               0.000000000               0.000153543               0.001970409              -0.000002857              -0.000188722               0.000719704               0.000530982               0.000000000               0.000000000               0.000000000               0.000000000               0.000107839               0.001998672              -0.000005309              -0.000209394               0.000736015               0.000526621               0.000000000               0.000000000               0.000000000               0.000000000               0.000068693               0.002027128              -0.000007468              -0.000227631               0.000751579               0.000523949               0.000000000               0.000000000               0.000000000               0.000000000               0.000033367               0.002058067              -0.000004793              -0.000244745               0.000767597               0.000522852               0.000000000               0.000000000               0.000000000               0.000000000               0.000019811               0.002083714              -0.000002435              -0.000253034               0.000778909               0.000525875               0.000000000               0.000000000               0.000000000               0.000000000               0.000399089               0.003358547              -0.000533541              -0.000270159               0.001209558               0.000939398               0.000000000               0.000000000               0.000000000               0.000000000               0.000401053               0.002827288              -0.000361241              -0.000203016               0.001010092               0.000807076               0.000000000               0.000000000               0.000000000               0.000000000               0.000508394               0.002417762              -0.000182846              -0.000111572               0.000843103               0.000731531               0.000000000               0.000000000               0.000000000               0.000000000               0.000525154               0.002192220              -0.000098607              -0.000077095               0.000756431               0.000679336               0.000000000               0.000000000               0.000000000               0.000000000               0.000506769               0.002062215              -0.000056969              -0.000067738               0.000709978               0.000642239               0.000000000               0.000000000               0.000000000               0.000000000               0.000469364               0.001985282              -0.000036186              -0.000072149               0.000685804               0.000613655               0.000000000               0.000000000               0.000000000               0.000000000               0.000424892               0.001940994              -0.000026833              -0.000083290               0.000674755               0.000591465               0.000000000               0.000000000               0.000000000               0.000000000               0.000380464               0.001919364              -0.000022565              -0.000097246               0.000672197               0.000574951               0.000000000               0.000000000               0.000000000               0.000000000               0.000332671               0.001910983              -0.000020283              -0.000114121               0.000675028               0.000560907               0.000000000               0.000000000               0.000000000               0.000000000               0.000283127               0.001913908              -0.000017320              -0.000133065               0.000682318               0.000549253               0.000000000               0.000000000               0.000000000               0.000000000               0.000233809               0.001926477              -0.000012466              -0.000153131               0.000693196               0.000540065               0.000000000               0.000000000               0.000000000               0.000000000               0.000184268               0.001945813              -0.000008143              -0.000174126               0.000706640               0.000532514               0.000000000               0.000000000               0.000000000               0.000000000               0.000137736               0.001967889              -0.000008706              -0.000194335               0.000720735               0.000526400               0.000000000               0.000000000               0.000000000               0.000000000               0.000096779               0.001988876              -0.000014250              -0.000212317               0.000733724               0.000521407               0.000000000               0.000000000               0.000000000               0.000000000               0.000062738               0.002009724              -0.000015638              -0.000227688               0.000745797               0.000518109               0.000000000               0.000000000               0.000000000               0.000000000               0.000032936               0.002034542              -0.000008594              -0.000241966               0.000758829               0.000516863               0.000000000               0.000000000               0.000000000               0.000000000               0.000020801               0.002054704              -0.000004186              -0.000249037               0.000767907               0.000518870               0.000000000               0.000000000               0.000000000               0.000000000               0.000482697               0.003112344              -0.000736892              -0.000208032               0.001106781               0.000898750               0.000000000               0.000000000               0.000000000               0.000000000               0.000429164               0.002654568              -0.000499275              -0.000170884               0.000941809               0.000770924               0.000000000               0.000000000               0.000000000               0.000000000               0.000476805               0.002326515              -0.000256978              -0.000112012               0.000812834               0.000700822               0.000000000               0.000000000               0.000000000               0.000000000               0.000468205               0.002146656              -0.000146994              -0.000092755               0.000746463               0.000653708               0.000000000               0.000000000               0.000000000               0.000000000               0.000442194               0.002042987              -0.000093576              -0.000089550               0.000710839               0.000621289               0.000000000               0.000000000               0.000000000               0.000000000               0.000405994               0.001979908              -0.000067204              -0.000095240               0.000691710               0.000596469               0.000000000               0.000000000               0.000000000               0.000000000               0.000366681               0.001942300              -0.000053102              -0.000105282               0.000682521               0.000577239               0.000000000               0.000000000               0.000000000               0.000000000               0.000329533               0.001922797              -0.000045703              -0.000116775               0.000679851               0.000563076               0.000000000               0.000000000               0.000000000               0.000000000               0.000289700               0.001915045              -0.000039968              -0.000130743               0.000681923               0.000551180               0.000000000               0.000000000               0.000000000               0.000000000               0.000247463               0.001919253              -0.000032782              -0.000147108               0.000688780               0.000541673               0.000000000               0.000000000               0.000000000               0.000000000               0.000203158               0.001931119              -0.000023698              -0.000165205               0.000698768               0.000533563               0.000000000               0.000000000               0.000000000               0.000000000               0.000159402               0.001948106              -0.000017038              -0.000183737               0.000710608               0.000526871               0.000000000               0.000000000               0.000000000               0.000000000               0.000120698               0.001962626              -0.000018198              -0.000200066               0.000720891               0.000520825               0.000000000               0.000000000               0.000000000               0.000000000               0.000087774               0.001974287              -0.000023600              -0.000213870               0.000729379               0.000515509               0.000000000               0.000000000               0.000000000               0.000000000               0.000056793               0.001984959              -0.000021480              -0.000226822               0.000737254               0.000510432               0.000000000               0.000000000               0.000000000               0.000000000               0.000027736               0.001998506              -0.000009368              -0.000239412               0.000745966               0.000506554               0.000000000               0.000000000               0.000000000               0.000000000               0.000015579               0.002009728              -0.000003040              -0.000245373               0.000751694               0.000506321               0.000000000               0.000000000               0.000000000               0.000000000               0.000573544               0.002804558              -0.000876702              -0.000135491               0.000980007               0.000844516               0.000000000               0.000000000               0.000000000               0.000000000               0.000455898               0.002443322              -0.000598961              -0.000134454               0.000859250               0.000724797               0.000000000               0.000000000               0.000000000               0.000000000               0.000435436               0.002219766              -0.000319028              -0.000114182               0.000777975               0.000663793               0.000000000               0.000000000               0.000000000               0.000000000               0.000402907               0.002093469              -0.000196214              -0.000110593               0.000734681               0.000624087               0.000000000               0.000000000               0.000000000               0.000000000               0.000370265               0.002017443              -0.000136868              -0.000113331               0.000710251               0.000596920               0.000000000               0.000000000               0.000000000               0.000000000               0.000337043               0.001968984              -0.000105013              -0.000119732               0.000696232               0.000576500               0.000000000               0.000000000               0.000000000               0.000000000               0.000304370               0.001939885              -0.000086464              -0.000128346               0.000689404               0.000561058               0.000000000               0.000000000               0.000000000               0.000000000               0.000274111               0.001923826              -0.000073984              -0.000137686               0.000687164               0.000549478               0.000000000               0.000000000               0.000000000               0.000000000               0.000243506               0.001922179              -0.000062570              -0.000148957               0.000690372               0.000541415               0.000000000               0.000000000               0.000000000               0.000000000               0.000208667               0.001928520              -0.000049207              -0.000162815               0.000697105               0.000534291               0.000000000               0.000000000               0.000000000               0.000000000               0.000172228               0.001942057              -0.000035228              -0.000178171               0.000706736               0.000528565               0.000000000               0.000000000               0.000000000               0.000000000               0.000135672               0.001951834              -0.000026187              -0.000193102               0.000714972               0.000521870               0.000000000               0.000000000               0.000000000               0.000000000               0.000106233               0.001957544              -0.000025718              -0.000204855               0.000720793               0.000515938               0.000000000               0.000000000               0.000000000               0.000000000               0.000080797               0.001962765              -0.000028661              -0.000215046               0.000725930               0.000510884               0.000000000               0.000000000               0.000000000               0.000000000               0.000052168               0.001968980              -0.000022383              -0.000226559               0.000731840               0.000505281               0.000000000               0.000000000               0.000000000               0.000000000               0.000025180               0.001977895              -0.000007652              -0.000237794               0.000738556               0.000500763               0.000000000               0.000000000               0.000000000               0.000000000               0.000014901               0.001985618              -0.000001538              -0.000242614               0.000742737               0.000500124               0.000000000               0.000000000               0.000000000               0.000000000               0.000649807               0.002462509              -0.000951699              -0.000064137               0.000842207               0.000778070               0.000000000               0.000000000               0.000000000               0.000000000               0.000475101               0.002214422              -0.000661276              -0.000098640               0.000771013               0.000672373               0.000000000               0.000000000               0.000000000               0.000000000               0.000389893               0.002104377              -0.000370319              -0.000116837               0.000740398               0.000623561               0.000000000               0.000000000               0.000000000               0.000000000               0.000337637               0.002030253              -0.000245232              -0.000127168               0.000719133               0.000591966               0.000000000               0.000000000               0.000000000               0.000000000               0.000303391               0.001982316              -0.000182342              -0.000134018               0.000705438               0.000571420               0.000000000               0.000000000               0.000000000               0.000000000               0.000276402               0.001952392              -0.000145556              -0.000140398               0.000697590               0.000557192               0.000000000               0.000000000               0.000000000               0.000000000               0.000249828               0.001935047              -0.000121523              -0.000148195               0.000694408               0.000546213               0.000000000               0.000000000               0.000000000               0.000000000               0.000225882               0.001929142              -0.000102254              -0.000156437               0.000695187               0.000538750               0.000000000               0.000000000               0.000000000               0.000000000               0.000201638               0.001933441              -0.000082683              -0.000166066               0.000699829               0.000533763               0.000000000               0.000000000               0.000000000               0.000000000               0.000172542               0.001944815              -0.000061932              -0.000178398               0.000707731               0.000529333               0.000000000               0.000000000               0.000000000               0.000000000               0.000144485               0.001956970              -0.000044291              -0.000190439               0.000715796               0.000525358               0.000000000               0.000000000               0.000000000               0.000000000               0.000120460               0.001960564              -0.000034183              -0.000199897               0.000720147               0.000520250               0.000000000               0.000000000               0.000000000               0.000000000               0.000098561               0.001961020              -0.000029446              -0.000208167               0.000723056               0.000514889               0.000000000               0.000000000               0.000000000               0.000000000               0.000075073               0.001965772              -0.000027143              -0.000217568               0.000727774               0.000510205               0.000000000               0.000000000               0.000000000               0.000000000               0.000048163               0.001977354              -0.000018111              -0.000229107               0.000735480               0.000506373               0.000000000               0.000000000               0.000000000               0.000000000               0.000022899               0.001991899              -0.000004596              -0.000240400               0.000744093               0.000503693               0.000000000               0.000000000               0.000000000               0.000000000               0.000014368               0.002003065              -0.000000826              -0.000244994               0.000749347               0.000504352               0.000000000               0.000000000               0.000000000               0.000000000               0.000702057               0.002107713              -0.000967629              -0.000000194               0.000702628               0.000702434               0.000000000               0.000000000               0.000000000               0.000000000               0.000483589               0.001981793              -0.000691182              -0.000066379               0.000682717               0.000616338               0.000000000               0.000000000               0.000000000               0.000000000               0.000345887               0.001983476              -0.000412379              -0.000118227               0.000700561               0.000582334               0.000000000               0.000000000               0.000000000               0.000000000               0.000283985               0.001959823              -0.000290828              -0.000138483               0.000699429               0.000560945               0.000000000               0.000000000               0.000000000               0.000000000               0.000252821               0.001942239              -0.000225122              -0.000147972               0.000696730               0.000548759               0.000000000               0.000000000               0.000000000               0.000000000               0.000231844               0.001933663              -0.000182988              -0.000154766               0.000696137               0.000541370               0.000000000               0.000000000               0.000000000               0.000000000               0.000209341               0.001929925              -0.000151680              -0.000162737               0.000697548               0.000534810               0.000000000               0.000000000               0.000000000               0.000000000               0.000188494               0.001935085              -0.000124620              -0.000171200               0.000702089               0.000530888               0.000000000               0.000000000               0.000000000               0.000000000               0.000167889               0.001948436              -0.000097326              -0.000180596               0.000709671               0.000529075               0.000000000               0.000000000               0.000000000               0.000000000               0.000142865               0.001964671              -0.000071126              -0.000192009               0.000718887               0.000526878               0.000000000               0.000000000               0.000000000               0.000000000               0.000122701               0.001976235              -0.000052344              -0.000201016               0.000725744               0.000524728               0.000000000               0.000000000               0.000000000               0.000000000               0.000110176               0.001981273              -0.000041990              -0.000206343               0.000729199               0.000522856               0.000000000               0.000000000               0.000000000               0.000000000               0.000093976               0.001985909              -0.000033759              -0.000212997               0.000732962               0.000519965               0.000000000               0.000000000               0.000000000               0.000000000               0.000071754               0.001999091              -0.000025408              -0.000222978               0.000740683               0.000517705               0.000000000               0.000000000               0.000000000               0.000000000               0.000047699               0.002021768              -0.000013499              -0.000234833               0.000752194               0.000517360               0.000000000               0.000000000               0.000000000               0.000000000               0.000024564               0.002045860              -0.000002668              -0.000246520               0.000764120               0.000517600               0.000000000               0.000000000               0.000000000               0.000000000               0.000017456               0.002063471              -0.000001643              -0.000251387               0.000771612               0.000520225               0.000000000               0.000000000               0.000000000               0.000000000               0.000731108               0.001762072              -0.000930715               0.000053905               0.000569383               0.000623288               0.000000000               0.000000000               0.000000000               0.000000000               0.000483997               0.001758867              -0.000693269              -0.000038360               0.000599070               0.000560709               0.000000000               0.000000000               0.000000000               0.000000000               0.000311688               0.001865041              -0.000446873              -0.000116247               0.000660423               0.000544176               0.000000000               0.000000000               0.000000000               0.000000000               0.000249038               0.001889359              -0.000331035              -0.000142780               0.000677373               0.000534593               0.000000000               0.000000000               0.000000000               0.000000000               0.000222650               0.001900004              -0.000260670              -0.000154007               0.000684664               0.000530657               0.000000000               0.000000000               0.000000000               0.000000000               0.000205515               0.001909722              -0.000211067              -0.000161647               0.000690450               0.000528803               0.000000000               0.000000000               0.000000000               0.000000000               0.000185778               0.001921578              -0.000171437              -0.000170530               0.000697363               0.000526833               0.000000000               0.000000000               0.000000000               0.000000000               0.000162850               0.001941259              -0.000136678              -0.000181588               0.000707609               0.000526021               0.000000000               0.000000000               0.000000000               0.000000000               0.000140529               0.001967582              -0.000105820              -0.000193249               0.000720270               0.000527021               0.000000000               0.000000000               0.000000000               0.000000000               0.000122782               0.001991708              -0.000077616              -0.000202920               0.000731536               0.000528616               0.000000000               0.000000000               0.000000000               0.000000000               0.000110960               0.002007898              -0.000057596              -0.000209377               0.000739085               0.000529708               0.000000000               0.000000000               0.000000000               0.000000000               0.000101493               0.002022351              -0.000047106              -0.000214733               0.000745688               0.000530955               0.000000000               0.000000000               0.000000000               0.000000000               0.000086534               0.002044688              -0.000035567              -0.000223135               0.000755934               0.000532799               0.000000000               0.000000000               0.000000000               0.000000000               0.000065583               0.002078643              -0.000021328              -0.000235236               0.000771286               0.000536050               0.000000000               0.000000000               0.000000000               0.000000000               0.000044477               0.002121323              -0.000007864              -0.000248486               0.000789929               0.000541443               0.000000000               0.000000000               0.000000000               0.000000000               0.000025667               0.002166078               0.000000633              -0.000261134               0.000809063               0.000547929               0.000000000               0.000000000               0.000000000               0.000000000               0.000020436               0.002197432              -0.000000391              -0.000267015               0.000821475               0.000554460               0.000000000               0.000000000               0.000000000               0.000000000               0.000743617               0.001454613              -0.000857331               0.000097028               0.000452523               0.000549551               0.000000000               0.000000000               0.000000000               0.000000000               0.000490182               0.001558006              -0.000681160              -0.000010934               0.000522975               0.000512041               0.000000000               0.000000000               0.000000000               0.000000000               0.000300199               0.001756492              -0.000483523              -0.000106987               0.000621154               0.000514167               0.000000000               0.000000000               0.000000000               0.000000000               0.000240189               0.001824238              -0.000371418              -0.000137959               0.000654059               0.000516101               0.000000000               0.000000000               0.000000000               0.000000000               0.000215446               0.001858458              -0.000294870              -0.000151515               0.000669984               0.000518470               0.000000000               0.000000000               0.000000000               0.000000000               0.000200993               0.001885879              -0.000236714              -0.000160362               0.000682074               0.000521712               0.000000000               0.000000000               0.000000000               0.000000000               0.000183829               0.001915687              -0.000189806              -0.000170525               0.000695398               0.000524873               0.000000000               0.000000000               0.000000000               0.000000000               0.000160910               0.001951217              -0.000150646              -0.000183560               0.000711586               0.000528026               0.000000000               0.000000000               0.000000000               0.000000000               0.000136488               0.001989530              -0.000118024              -0.000197508               0.000729006               0.000531498               0.000000000               0.000000000               0.000000000               0.000000000               0.000123170               0.002022294              -0.000089517              -0.000206597               0.000742957               0.000536360               0.000000000               0.000000000               0.000000000               0.000000000               0.000113681               0.002042757              -0.000066269              -0.000212714               0.000751817               0.000539103               0.000000000               0.000000000               0.000000000               0.000000000               0.000103347               0.002067966              -0.000049700              -0.000219740               0.000762562               0.000542822               0.000000000               0.000000000               0.000000000               0.000000000               0.000090664               0.002112346              -0.000032027              -0.000230044               0.000780790               0.000550746               0.000000000               0.000000000               0.000000000               0.000000000               0.000072835               0.002172146              -0.000012443              -0.000244205               0.000805443               0.000561238               0.000000000               0.000000000               0.000000000               0.000000000               0.000056787               0.002242259               0.000002915              -0.000258987               0.000833741               0.000574754               0.000000000               0.000000000               0.000000000               0.000000000               0.000047533               0.002314724               0.000008028              -0.000271515               0.000862072               0.000590557               0.000000000               0.000000000               0.000000000               0.000000000               0.000044170               0.002355465               0.000006155              -0.000277869               0.000877770               0.000599901               0.000000000               0.000000000               0.000000000               0.000000000               0.000734774               0.001152243              -0.000765865               0.000131508               0.000340241               0.000471749               0.000000000               0.000000000               0.000000000               0.000000000               0.000509020               0.001323109              -0.000663085               0.000025493               0.000432534               0.000458027               0.000000000               0.000000000               0.000000000               0.000000000               0.000317716               0.001587749              -0.000527322              -0.000079326               0.000555686               0.000476361               0.000000000               0.000000000               0.000000000               0.000000000               0.000253819               0.001700594              -0.000422272              -0.000117392               0.000605990               0.000488597               0.000000000               0.000000000               0.000000000               0.000000000               0.000228714               0.001763787              -0.000342030              -0.000134706               0.000632825               0.000498119               0.000000000               0.000000000               0.000000000               0.000000000               0.000214828               0.001813959              -0.000276770              -0.000146184               0.000653375               0.000507191               0.000000000               0.000000000               0.000000000               0.000000000               0.000200133               0.001859320              -0.000223187              -0.000157365               0.000672222               0.000514857               0.000000000               0.000000000               0.000000000               0.000000000               0.000181513               0.001907316              -0.000180150              -0.000170347               0.000692548               0.000522201               0.000000000               0.000000000               0.000000000               0.000000000               0.000159234               0.001956775              -0.000146557              -0.000184884               0.000713880               0.000528996               0.000000000               0.000000000               0.000000000               0.000000000               0.000140096               0.001998731              -0.000116818              -0.000197305               0.000732005               0.000534700               0.000000000               0.000000000               0.000000000               0.000000000               0.000129082               0.002033690              -0.000088177              -0.000205805               0.000746492               0.000540687               0.000000000               0.000000000               0.000000000               0.000000000               0.000117115               0.002069114              -0.000063197              -0.000214721               0.000761271               0.000546551               0.000000000               0.000000000               0.000000000               0.000000000               0.000105831               0.002120133              -0.000038950              -0.000225329               0.000781814               0.000556484               0.000000000               0.000000000               0.000000000               0.000000000               0.000094997               0.002192022              -0.000016381              -0.000238378               0.000810126               0.000571748               0.000000000               0.000000000               0.000000000               0.000000000               0.000089719               0.002283757              -0.000004126              -0.000251824               0.000845186               0.000593362               0.000000000               0.000000000               0.000000000               0.000000000               0.000092321               0.002384507              -0.000000756              -0.000263443               0.000882642               0.000619199               0.000000000               0.000000000               0.000000000               0.000000000               0.000089968               0.002430893               0.000001584              -0.000270123               0.000900330               0.000630208               0.000000000               0.000000000               0.000000000               0.000000000               0.000695105               0.000869194              -0.000656862               0.000152013               0.000239057               0.000391070               0.000000000               0.000000000               0.000000000               0.000000000               0.000529015               0.001086920              -0.000627865               0.000062514               0.000341465               0.000403979               0.000000000               0.000000000               0.000000000               0.000000000               0.000357913               0.001393593              -0.000558244              -0.000039982               0.000477853               0.000437871               0.000000000               0.000000000               0.000000000               0.000000000               0.000288491               0.001549373              -0.000470276              -0.000085488               0.000544948               0.000459461               0.000000000               0.000000000               0.000000000               0.000000000               0.000258983               0.001646999              -0.000392000              -0.000108756               0.000585246               0.000476490               0.000000000               0.000000000               0.000000000               0.000000000               0.000244843               0.001721860              -0.000323216              -0.000123416               0.000615086               0.000491670               0.000000000               0.000000000               0.000000000               0.000000000               0.000231567               0.001785004              -0.000264947              -0.000136288               0.000640425               0.000504137               0.000000000               0.000000000               0.000000000               0.000000000               0.000215822               0.001845264              -0.000217974              -0.000149724               0.000664990               0.000515266               0.000000000               0.000000000               0.000000000               0.000000000               0.000194908               0.001900896              -0.000181272              -0.000164521               0.000688466               0.000523945               0.000000000               0.000000000               0.000000000               0.000000000               0.000172574               0.001952141              -0.000149883              -0.000179302               0.000710475               0.000531172               0.000000000               0.000000000               0.000000000               0.000000000               0.000156488               0.002002748              -0.000116272              -0.000191660               0.000731463               0.000539803               0.000000000               0.000000000               0.000000000               0.000000000               0.000142365               0.002051478              -0.000083585              -0.000203047               0.000751501               0.000548454               0.000000000               0.000000000               0.000000000               0.000000000               0.000133619               0.002105549              -0.000056559              -0.000213086               0.000772871               0.000559786               0.000000000               0.000000000               0.000000000               0.000000000               0.000133222               0.002173165              -0.000034567              -0.000221687               0.000798277               0.000576590               0.000000000               0.000000000               0.000000000               0.000000000               0.000135751               0.002263759              -0.000020163              -0.000232063               0.000831933               0.000599870               0.000000000               0.000000000               0.000000000               0.000000000               0.000136138               0.002370877              -0.000009196              -0.000245307               0.000872054               0.000626746               0.000000000               0.000000000               0.000000000               0.000000000               0.000127209               0.002419230              -0.000000461              -0.000254700               0.000891302               0.000636602               0.000000000               0.000000000               0.000000000               0.000000000               0.000625964               0.000621701              -0.000532262               0.000157022               0.000154890               0.000311912               0.000000000               0.000000000               0.000000000               0.000000000               0.000535342               0.000857432              -0.000565216               0.000093573               0.000254617               0.000348190               0.000000000               0.000000000               0.000000000               0.000000000               0.000406317               0.001176934              -0.000556778               0.000005251               0.000390557               0.000395808               0.000000000               0.000000000               0.000000000               0.000000000               0.000340837               0.001370099              -0.000492669              -0.000043449               0.000471178               0.000427729               0.000000000               0.000000000               0.000000000               0.000000000               0.000304902               0.001501146              -0.000423778              -0.000073305               0.000524812               0.000451507               0.000000000               0.000000000               0.000000000               0.000000000               0.000285980               0.001601958              -0.000357579              -0.000093002               0.000564981               0.000471979               0.000000000               0.000000000               0.000000000               0.000000000               0.000271058               0.001687225              -0.000297787              -0.000109256               0.000598822               0.000489565               0.000000000               0.000000000               0.000000000               0.000000000               0.000253617               0.001762155              -0.000248321              -0.000125163               0.000629100               0.000503937               0.000000000               0.000000000               0.000000000               0.000000000               0.000231003               0.001826742              -0.000209716              -0.000141716               0.000656147               0.000514430               0.000000000               0.000000000               0.000000000               0.000000000               0.000208239               0.001889453              -0.000177636              -0.000158092               0.000682508               0.000524417               0.000000000               0.000000000               0.000000000               0.000000000               0.000188163               0.001953843              -0.000141151              -0.000173669               0.000709164               0.000535495               0.000000000               0.000000000               0.000000000               0.000000000               0.000176227               0.002017729              -0.000107823              -0.000186131               0.000734613               0.000548482               0.000000000               0.000000000               0.000000000               0.000000000               0.000171559               0.002079834              -0.000083854              -0.000195644               0.000758486               0.000562842               0.000000000               0.000000000               0.000000000               0.000000000               0.000175424               0.002153060              -0.000062266              -0.000203348               0.000785462               0.000582114               0.000000000               0.000000000               0.000000000               0.000000000               0.000180399               0.002246399              -0.000040038              -0.000213150               0.000819842               0.000606693               0.000000000               0.000000000               0.000000000               0.000000000               0.000178551               0.002358904              -0.000018823              -0.000227906               0.000862262               0.000634356               0.000000000               0.000000000               0.000000000               0.000000000               0.000164866               0.002412024              -0.000004556              -0.000239678               0.000883892               0.000644215               0.000000000               0.000000000               0.000000000               0.000000000               0.000533142               0.000418388              -0.000404836               0.000147628               0.000090252               0.000237880               0.000000000               0.000000000               0.000000000               0.000000000               0.000528286               0.000646165              -0.000478173               0.000117335               0.000176274               0.000293609               0.000000000               0.000000000               0.000000000               0.000000000               0.000458983               0.000955748              -0.000516409               0.000052649               0.000301030               0.000353679               0.000000000               0.000000000               0.000000000               0.000000000               0.000405082               0.001173346              -0.000478772               0.000005237               0.000389366               0.000394602               0.000000000               0.000000000               0.000000000               0.000000000               0.000366817               0.001335404              -0.000423799              -0.000029370               0.000454920               0.000425550               0.000000000               0.000000000               0.000000000               0.000000000               0.000338154               0.001460661              -0.000365781              -0.000055775               0.000505474               0.000449699               0.000000000               0.000000000               0.000000000               0.000000000               0.000317890               0.001566977              -0.000309706              -0.000076664               0.000547875               0.000471212               0.000000000               0.000000000               0.000000000               0.000000000               0.000296654               0.001657426              -0.000260988              -0.000095933               0.000584448               0.000488515               0.000000000               0.000000000               0.000000000               0.000000000               0.000274429               0.001735650              -0.000223558              -0.000114045               0.000616559               0.000502514               0.000000000               0.000000000               0.000000000               0.000000000               0.000250319               0.001809988              -0.000191421              -0.000132379               0.000647450               0.000515071               0.000000000               0.000000000               0.000000000               0.000000000               0.000230706               0.001883727              -0.000159121              -0.000148951               0.000677553               0.000528602               0.000000000               0.000000000               0.000000000               0.000000000               0.000221894               0.001961705              -0.000131572              -0.000162002               0.000707896               0.000545893               0.000000000               0.000000000               0.000000000               0.000000000               0.000219353               0.002044886              -0.000108925              -0.000173353               0.000739406               0.000566053               0.000000000               0.000000000               0.000000000               0.000000000               0.000221628               0.002139239              -0.000086081              -0.000184294               0.000774504               0.000590210               0.000000000               0.000000000               0.000000000               0.000000000               0.000227132               0.002243155              -0.000058692              -0.000195219               0.000812784               0.000617564               0.000000000               0.000000000               0.000000000               0.000000000               0.000228196               0.002356579              -0.000028834              -0.000208998               0.000855185               0.000646186               0.000000000               0.000000000               0.000000000               0.000000000               0.000215190               0.002409088              -0.000010352              -0.000220439               0.000876501               0.000656062               0.000000000               0.000000000               0.000000000               0.000000000               0.000428877               0.000260599              -0.000284598               0.000128253               0.000044114               0.000172367               0.000000000               0.000000000               0.000000000               0.000000000               0.000508720               0.000464842              -0.000372366               0.000132663               0.000110724               0.000243388               0.000000000               0.000000000               0.000000000               0.000000000               0.000508422               0.000748948              -0.000434769               0.000097038               0.000217301               0.000314339               0.000000000               0.000000000               0.000000000               0.000000000               0.000474006               0.000978280              -0.000419731               0.000055467               0.000307601               0.000363068               0.000000000               0.000000000               0.000000000               0.000000000               0.000435346               0.001164303              -0.000380462               0.000017716               0.000382192               0.000399908               0.000000000               0.000000000               0.000000000               0.000000000               0.000400535               0.001311956              -0.000334732              -0.000013794               0.000441912               0.000428118               0.000000000               0.000000000               0.000000000               0.000000000               0.000370976               0.001432775              -0.000287889              -0.000039981               0.000490914               0.000450933               0.000000000               0.000000000               0.000000000               0.000000000               0.000345386               0.001536362              -0.000245886              -0.000062525               0.000532957               0.000470432               0.000000000               0.000000000               0.000000000               0.000000000               0.000323096               0.001629703              -0.000212432              -0.000082552               0.000570746               0.000488194               0.000000000               0.000000000               0.000000000               0.000000000               0.000301394               0.001716294              -0.000183362              -0.000101514               0.000605930               0.000504416               0.000000000               0.000000000               0.000000000               0.000000000               0.000283588               0.001803925              -0.000159002              -0.000119145               0.000641017               0.000521872               0.000000000               0.000000000               0.000000000               0.000000000               0.000273402               0.001898958              -0.000138421              -0.000134844               0.000677928               0.000543084               0.000000000               0.000000000               0.000000000               0.000000000               0.000269562               0.002003836              -0.000118552              -0.000149393               0.000717736               0.000568343               0.000000000               0.000000000               0.000000000               0.000000000               0.000273757               0.002123816              -0.000097311              -0.000162818               0.000762204               0.000599386               0.000000000               0.000000000               0.000000000               0.000000000               0.000281974               0.002247950              -0.000070883              -0.000175253               0.000807727               0.000632474               0.000000000               0.000000000               0.000000000               0.000000000               0.000290006               0.002364903              -0.000037942              -0.000186860               0.000850580               0.000663719               0.000000000               0.000000000               0.000000000               0.000000000               0.000283499               0.002415245              -0.000017334              -0.000195593               0.000870271               0.000674678               0.000000000               0.000000000               0.000000000               0.000000000               0.000334202               0.000148028              -0.000176284               0.000106821               0.000013735               0.000120556               0.000000000               0.000000000               0.000000000               0.000000000               0.000485411               0.000325470              -0.000252853               0.000141344               0.000061374               0.000202718               0.000000000               0.000000000               0.000000000               0.000000000               0.000547863               0.000579634              -0.000314525               0.000132993               0.000148878               0.000281871               0.000000000               0.000000000               0.000000000               0.000000000               0.000536421               0.000810190              -0.000313497               0.000099883               0.000236766               0.000336649               0.000000000               0.000000000               0.000000000               0.000000000               0.000500659               0.001010588              -0.000289678               0.000061423               0.000316385               0.000377808               0.000000000               0.000000000               0.000000000               0.000000000               0.000461756               0.001175780              -0.000258236               0.000026185               0.000383194               0.000409380               0.000000000               0.000000000               0.000000000               0.000000000               0.000424063               0.001307362              -0.000224478              -0.000004397               0.000437248               0.000432852               0.000000000               0.000000000               0.000000000               0.000000000               0.000393323               0.001420422              -0.000194841              -0.000030057               0.000483488               0.000453431               0.000000000               0.000000000               0.000000000               0.000000000               0.000367685               0.001523165              -0.000170777              -0.000052514               0.000525221               0.000472707               0.000000000               0.000000000               0.000000000               0.000000000               0.000348247               0.001624681              -0.000148169              -0.000072493               0.000565719               0.000493227               0.000000000               0.000000000               0.000000000               0.000000000               0.000332606               0.001734732              -0.000129172              -0.000092114               0.000608943               0.000516829               0.000000000               0.000000000               0.000000000               0.000000000               0.000321197               0.001849372              -0.000116013              -0.000110722               0.000653358               0.000542636               0.000000000               0.000000000               0.000000000               0.000000000               0.000319944               0.001970524              -0.000105148              -0.000126336               0.000698947               0.000572611               0.000000000               0.000000000               0.000000000               0.000000000               0.000329416               0.002106471              -0.000090071              -0.000139778               0.000748742               0.000608965               0.000000000               0.000000000               0.000000000               0.000000000               0.000344790               0.002249175              -0.000068740              -0.000151850               0.000800334               0.000648484               0.000000000               0.000000000               0.000000000               0.000000000               0.000360123               0.002374997              -0.000039868              -0.000161828               0.000845601               0.000683772               0.000000000               0.000000000               0.000000000               0.000000000               0.000364107               0.002427842              -0.000021770              -0.000166940               0.000864919               0.000697980               0.000000000               0.000000000               0.000000000               0.000000000               0.000267704               0.000083940              -0.000083084               0.000089896              -0.000001986               0.000087910               0.000000000               0.000000000               0.000000000               0.000000000               0.000467043               0.000239493              -0.000127595               0.000145203               0.000031429               0.000176632               0.000000000               0.000000000               0.000000000               0.000000000               0.000574879               0.000469381              -0.000165369               0.000156905               0.000104157               0.000261062               0.000000000               0.000000000               0.000000000               0.000000000               0.000578974               0.000695558              -0.000167829               0.000130169               0.000188461               0.000318630               0.000000000               0.000000000               0.000000000               0.000000000               0.000548531               0.000902482              -0.000157236               0.000092888               0.000269862               0.000362750               0.000000000               0.000000000               0.000000000               0.000000000               0.000506180               0.001077458              -0.000141170               0.000055135               0.000340771               0.000395905               0.000000000               0.000000000               0.000000000               0.000000000               0.000464930               0.001218764              -0.000123368               0.000022003               0.000398916               0.000420919               0.000000000               0.000000000               0.000000000               0.000000000               0.000429545               0.001338326              -0.000108621              -0.000006212               0.000448175               0.000441963               0.000000000               0.000000000               0.000000000               0.000000000               0.000399437               0.001446500              -0.000096750              -0.000031023               0.000492503               0.000461480               0.000000000               0.000000000               0.000000000               0.000000000               0.000376814               0.001557260              -0.000084446              -0.000053352               0.000536865               0.000483513               0.000000000               0.000000000               0.000000000               0.000000000               0.000365294               0.001680716              -0.000072258              -0.000073104               0.000584601               0.000511497               0.000000000               0.000000000               0.000000000               0.000000000               0.000361610               0.001815250              -0.000065915              -0.000091302               0.000635511               0.000544209               0.000000000               0.000000000               0.000000000               0.000000000               0.000364472               0.001956083              -0.000063393              -0.000107833               0.000687965               0.000580132               0.000000000               0.000000000               0.000000000               0.000000000               0.000373214               0.002097692              -0.000056976              -0.000122256               0.000739976               0.000617720               0.000000000               0.000000000               0.000000000               0.000000000               0.000391252               0.002239728              -0.000043640              -0.000133246               0.000790984               0.000657738               0.000000000               0.000000000               0.000000000               0.000000000               0.000416242               0.002369016              -0.000024992              -0.000140036               0.000836343               0.000696307               0.000000000               0.000000000               0.000000000               0.000000000               0.000431475               0.002427082              -0.000014737              -0.000141582               0.000856213               0.000714631               0.000000000               0.000000000               0.000000000               0.000000000               0.000243455               0.000064923              -0.000000000               0.000083180              -0.000006086               0.000077094               0.000000000               0.000000000               0.000000000               0.000000000               0.000459946               0.000210764              -0.000000000               0.000146133               0.000021543               0.000167676               0.000000000               0.000000000               0.000000000               0.000000000               0.000584890               0.000430118              -0.000000000               0.000165567               0.000088182               0.000253749               0.000000000               0.000000000               0.000000000               0.000000000               0.000593602               0.000654895              -0.000000000               0.000140737               0.000171384               0.000312121               0.000000000               0.000000000               0.000000000               0.000000000               0.000565971               0.000864065              -0.000000000               0.000104230               0.000253275               0.000357505               0.000000000               0.000000000               0.000000000               0.000000000               0.000522477               0.001040910               0.000000000               0.000065814               0.000325029               0.000390843               0.000000000               0.000000000               0.000000000               0.000000000               0.000480699               0.001186761               0.000000000               0.000031916               0.000384944               0.000416861               0.000000000               0.000000000               0.000000000               0.000000000               0.000442908               0.001307680              -0.000000000               0.000002630               0.000435012               0.000437642               0.000000000               0.000000000               0.000000000               0.000000000               0.000410291               0.001418825               0.000000000              -0.000023494               0.000480768               0.000457274               0.000000000               0.000000000               0.000000000               0.000000000               0.000386329               0.001535869               0.000000000              -0.000047110               0.000527655               0.000480544               0.000000000               0.000000000               0.000000000               0.000000000               0.000376648               0.001658752               0.000000000              -0.000066101               0.000574946               0.000508845               0.000000000               0.000000000               0.000000000               0.000000000               0.000378551               0.001797785              -0.000000000              -0.000082766               0.000626844               0.000544078               0.000000000               0.000000000               0.000000000               0.000000000               0.000383862               0.001953626              -0.000000000              -0.000100255               0.000684621               0.000584366               0.000000000               0.000000000               0.000000000               0.000000000               0.000390764               0.002101315               0.000000000              -0.000116127               0.000739140               0.000623013               0.000000000               0.000000000               0.000000000               0.000000000               0.000405269               0.002232008               0.000000000              -0.000127025               0.000786337               0.000659312               0.000000000               0.000000000               0.000000000               0.000000000               0.000434829               0.002354550              -0.000000000              -0.000131258               0.000828595               0.000697337               0.000000000               0.000000000               0.000000000               0.000000000               0.000455601               0.002414911              -0.000000000              -0.000131013               0.000848633               0.000717620               0.000000000               0.000000000               0.000000000               0.000000000               0.000000000               0.000000000               0.000000000               0.000000000               0.000000000               0.000000000               0.000000000               0.000000000               0.000000000               0.000000000               0.000000000               0.000000000               0.000000000               0.000000000               0.000000000               0.000000000               0.000000000               0.000000000               0.000000000               0.000000000               0.000000000               0.000000000               0.000000000               0.000000000               0.000000000               0.000000000               0.000000000               0.000000000               0.000000000               0.000000000               0.000000000               0.000000000               0.000000000               0.000000000               0.000000000               0.000000000               0.000000000               0.000000000               0.000000000               0.000000000               0.000000000               0.000000000               0.000000000               0.000000000               0.000000000               0.000000000               0.000000000               0.000000000               0.000000000               0.000000000               0.000000000               0.000000000               0.000000000               0.000000000               0.000000000               0.000000000               0.000000000               0.000000000               0.000000000               0.000000000               0.000000000               0.000000000               0.000000000               0.000000000               0.000000000               0.000000000               0.000000000               0.000000000               0.000000000               0.000000000               0.000000000               0.000000000               0.000000000               0.000000000               0.000000000               0.000000000               0.000000000               0.000000000               0.000000000               0.000000000               0.000000000               0.000000000               0.000000000               0.000000000               0.000000000               0.000000000               0.000000000               0.000000000               0.000000000               0.000000000               0.000000000               0.000000000               0.000000000               0.000000000               0.000000000               0.000000000               0.000000000               0.000000000               0.000000000               0.000000000               0.000000000               0.000000000               0.000000000               0.000000000               0.000000000               0.000000000               0.000000000               0.000000000               0.000000000               0.000000000               0.000000000               0.000000000               0.000000000               0.000000000               0.000000000               0.000000000               0.000000000               0.000000000               0.000000000               0.000000000               0.000000000               0.000000000               0.000000000               0.000000000               0.000000000               0.000000000               0.000000000               0.000000000               0.000000000               0.000000000               0.000000000               0.000000000               0.000000000               0.000000000               0.000000000               0.000000000               0.000000000               0.000000000               0.000000000               0.000000000               0.000000000               0.000000000               0.000000000               0.000000000               0.000000000               0.000000000               0.000000000               0.000000000               0.000000000               0.000000000               0.000000000               0.000000000               0.000000000               0.000000000               0.000000000               0.000000000               0.000000000               0.000000000               0.000000000               0.000000000               0.000000000               0.000000000               0.000000000               0.000000000               0.000000000               0.000000000               0.000000000               0.000000000               0.000000000               0.000000000               0.000340389               0.003516558               0.000280623              -0.000311923               0.001276148               0.000964225               0.000000000               0.000000000               0.000000000               0.000000000               0.000379200               0.002941180               0.000190371              -0.000225447               0.001055533               0.000830086               0.000000000               0.000000000               0.000000000               0.000000000               0.000526233               0.002478224               0.000095680              -0.000112440               0.000863547               0.000751106               0.000000000               0.000000000               0.000000000               0.000000000               0.000561949               0.002222059               0.000049675              -0.000067026               0.000763021               0.000695995               0.000000000               0.000000000               0.000000000               0.000000000               0.000551084               0.002074805               0.000026415              -0.000052694               0.000709160               0.000656466               0.000000000               0.000000000               0.000000000               0.000000000               0.000514805               0.001988888               0.000015101              -0.000055559               0.000681476               0.000625917               0.000000000               0.000000000               0.000000000               0.000000000               0.000467372               0.001940807               0.000009796              -0.000067336               0.000669375               0.000602038               0.000000000               0.000000000               0.000000000               0.000000000               0.000416419               0.001915818               0.000007766              -0.000083320               0.000666373               0.000583053               0.000000000               0.000000000               0.000000000               0.000000000               0.000363901               0.001907417               0.000007176              -0.000101964               0.000669787               0.000567823               0.000000000               0.000000000               0.000000000               0.000000000               0.000310647               0.001909551               0.000006293              -0.000122201               0.000677244               0.000555043               0.000000000               0.000000000               0.000000000               0.000000000               0.000257991               0.001922667               0.000004307              -0.000143586               0.000688745               0.000545158               0.000000000               0.000000000               0.000000000               0.000000000               0.000204914               0.001943488               0.000002327              -0.000166093               0.000703187               0.000537094               0.000000000               0.000000000               0.000000000               0.000000000               0.000153543               0.001970409               0.000002857              -0.000188722               0.000719704               0.000530982               0.000000000               0.000000000               0.000000000               0.000000000               0.000107839               0.001998672               0.000005309              -0.000209394               0.000736015               0.000526621               0.000000000               0.000000000               0.000000000               0.000000000               0.000068693               0.002027128               0.000007468              -0.000227631               0.000751579               0.000523949               0.000000000               0.000000000               0.000000000               0.000000000               0.000033367               0.002058067               0.000004793              -0.000244745               0.000767597               0.000522852               0.000000000               0.000000000               0.000000000               0.000000000               0.000019811               0.002083714               0.000002435              -0.000253034               0.000778909               0.000525875               0.000000000               0.000000000               0.000000000               0.000000000               0.000399089               0.003358547               0.000533541              -0.000270159               0.001209558               0.000939398               0.000000000               0.000000000               0.000000000               0.000000000               0.000401053               0.002827288               0.000361241              -0.000203016               0.001010092               0.000807076               0.000000000               0.000000000               0.000000000               0.000000000               0.000508394               0.002417762               0.000182846              -0.000111572               0.000843103               0.000731531               0.000000000               0.000000000               0.000000000               0.000000000               0.000525154               0.002192220               0.000098607              -0.000077095               0.000756431               0.000679336               0.000000000               0.000000000               0.000000000               0.000000000               0.000506769               0.002062215               0.000056969              -0.000067738               0.000709978               0.000642239               0.000000000               0.000000000               0.000000000               0.000000000               0.000469364               0.001985282               0.000036186              -0.000072149               0.000685804               0.000613655               0.000000000               0.000000000               0.000000000               0.000000000               0.000424892               0.001940994               0.000026833              -0.000083290               0.000674755               0.000591465               0.000000000               0.000000000               0.000000000               0.000000000               0.000380464               0.001919364               0.000022565              -0.000097246               0.000672197               0.000574951               0.000000000               0.000000000               0.000000000               0.000000000               0.000332671               0.001910983               0.000020283              -0.000114121               0.000675028               0.000560907               0.000000000               0.000000000               0.000000000               0.000000000               0.000283127               0.001913908               0.000017320              -0.000133065               0.000682318               0.000549253               0.000000000               0.000000000               0.000000000               0.000000000               0.000233809               0.001926477               0.000012466              -0.000153131               0.000693196               0.000540065               0.000000000               0.000000000               0.000000000               0.000000000               0.000184268               0.001945813               0.000008143              -0.000174126               0.000706640               0.000532514               0.000000000               0.000000000               0.000000000               0.000000000               0.000137736               0.001967889               0.000008706              -0.000194335               0.000720735               0.000526400               0.000000000               0.000000000               0.000000000               0.000000000               0.000096779               0.001988876               0.000014250              -0.000212317               0.000733724               0.000521407               0.000000000               0.000000000               0.000000000               0.000000000               0.000062738               0.002009724               0.000015638              -0.000227688               0.000745797               0.000518109               0.000000000               0.000000000               0.000000000               0.000000000               0.000032936               0.002034542               0.000008594              -0.000241966               0.000758829               0.000516863               0.000000000               0.000000000               0.000000000               0.000000000               0.000020801               0.002054704               0.000004186              -0.000249037               0.000767907               0.000518870               0.000000000               0.000000000               0.000000000               0.000000000               0.000482697               0.003112344               0.000736892              -0.000208032               0.001106781               0.000898750               0.000000000               0.000000000               0.000000000               0.000000000               0.000429164               0.002654568               0.000499275              -0.000170884               0.000941809               0.000770924               0.000000000               0.000000000               0.000000000               0.000000000               0.000476805               0.002326515               0.000256978              -0.000112012               0.000812834               0.000700822               0.000000000               0.000000000               0.000000000               0.000000000               0.000468205               0.002146656               0.000146994              -0.000092755               0.000746463               0.000653708               0.000000000               0.000000000               0.000000000               0.000000000               0.000442194               0.002042987               0.000093576              -0.000089550               0.000710839               0.000621289               0.000000000               0.000000000               0.000000000               0.000000000               0.000405994               0.001979908               0.000067204              -0.000095240               0.000691710               0.000596469               0.000000000               0.000000000               0.000000000               0.000000000               0.000366681               0.001942300               0.000053102              -0.000105282               0.000682521               0.000577239               0.000000000               0.000000000               0.000000000               0.000000000               0.000329533               0.001922797               0.000045703              -0.000116775               0.000679851               0.000563076               0.000000000               0.000000000               0.000000000               0.000000000               0.000289700               0.001915045               0.000039968              -0.000130743               0.000681923               0.000551180               0.000000000               0.000000000               0.000000000               0.000000000               0.000247463               0.001919253               0.000032782              -0.000147108               0.000688780               0.000541673               0.000000000               0.000000000               0.000000000               0.000000000               0.000203158               0.001931119               0.000023698              -0.000165205               0.000698768               0.000533563               0.000000000               0.000000000               0.000000000               0.000000000               0.000159402               0.001948106               0.000017038              -0.000183737               0.000710608               0.000526871               0.000000000               0.000000000               0.000000000               0.000000000               0.000120698               0.001962626               0.000018198              -0.000200066               0.000720891               0.000520825               0.000000000               0.000000000               0.000000000               0.000000000               0.000087774               0.001974287               0.000023600              -0.000213870               0.000729379               0.000515509               0.000000000               0.000000000               0.000000000               0.000000000               0.000056793               0.001984959               0.000021480              -0.000226822               0.000737254               0.000510432               0.000000000               0.000000000               0.000000000               0.000000000               0.000027736               0.001998506               0.000009368              -0.000239412               0.000745966               0.000506554               0.000000000               0.000000000               0.000000000               0.000000000               0.000015579               0.002009728               0.000003040              -0.000245373               0.000751694               0.000506321               0.000000000               0.000000000               0.000000000               0.000000000               0.000573544               0.002804558               0.000876702              -0.000135491               0.000980007               0.000844516               0.000000000               0.000000000               0.000000000               0.000000000               0.000455898               0.002443322               0.000598961              -0.000134454               0.000859250               0.000724797               0.000000000               0.000000000               0.000000000               0.000000000               0.000435436               0.002219766               0.000319028              -0.000114182               0.000777975               0.000663793               0.000000000               0.000000000               0.000000000               0.000000000               0.000402907               0.002093469               0.000196214              -0.000110593               0.000734681               0.000624087               0.000000000               0.000000000               0.000000000               0.000000000               0.000370265               0.002017443               0.000136868              -0.000113331               0.000710251               0.000596920               0.000000000               0.000000000               0.000000000               0.000000000               0.000337043               0.001968984               0.000105013              -0.000119732               0.000696232               0.000576500               0.000000000               0.000000000               0.000000000               0.000000000               0.000304370               0.001939885               0.000086464              -0.000128346               0.000689404               0.000561058               0.000000000               0.000000000               0.000000000               0.000000000               0.000274111               0.001923826               0.000073984              -0.000137686               0.000687164               0.000549478               0.000000000               0.000000000               0.000000000               0.000000000               0.000243506               0.001922179               0.000062570              -0.000148957               0.000690372               0.000541415               0.000000000               0.000000000               0.000000000               0.000000000               0.000208667               0.001928520               0.000049207              -0.000162815               0.000697105               0.000534291               0.000000000               0.000000000               0.000000000               0.000000000               0.000172228               0.001942057               0.000035228              -0.000178171               0.000706736               0.000528565               0.000000000               0.000000000               0.000000000               0.000000000               0.000135672               0.001951834               0.000026187              -0.000193102               0.000714972               0.000521870               0.000000000               0.000000000               0.000000000               0.000000000               0.000106233               0.001957544               0.000025718              -0.000204855               0.000720793               0.000515938               0.000000000               0.000000000               0.000000000               0.000000000               0.000080797               0.001962765               0.000028661              -0.000215046               0.000725930               0.000510884               0.000000000               0.000000000               0.000000000               0.000000000               0.000052168               0.001968980               0.000022383              -0.000226559               0.000731840               0.000505281               0.000000000               0.000000000               0.000000000               0.000000000               0.000025180               0.001977895               0.000007652              -0.000237794               0.000738556               0.000500763               0.000000000               0.000000000               0.000000000               0.000000000               0.000014901               0.001985618               0.000001538              -0.000242614               0.000742737               0.000500124               0.000000000               0.000000000               0.000000000               0.000000000               0.000649807               0.002462509               0.000951699              -0.000064137               0.000842207               0.000778070               0.000000000               0.000000000               0.000000000               0.000000000               0.000475101               0.002214422               0.000661276              -0.000098640               0.000771013               0.000672373               0.000000000               0.000000000               0.000000000               0.000000000               0.000389893               0.002104377               0.000370319              -0.000116837               0.000740398               0.000623561               0.000000000               0.000000000               0.000000000               0.000000000               0.000337637               0.002030253               0.000245232              -0.000127168               0.000719133               0.000591966               0.000000000               0.000000000               0.000000000               0.000000000               0.000303391               0.001982316               0.000182342              -0.000134018               0.000705438               0.000571420               0.000000000               0.000000000               0.000000000               0.000000000               0.000276402               0.001952392               0.000145556              -0.000140398               0.000697590               0.000557192               0.000000000               0.000000000               0.000000000               0.000000000               0.000249828               0.001935047               0.000121523              -0.000148195               0.000694408               0.000546213               0.000000000               0.000000000               0.000000000               0.000000000               0.000225882               0.001929142               0.000102254              -0.000156437               0.000695187               0.000538750               0.000000000               0.000000000               0.000000000               0.000000000               0.000201638               0.001933441               0.000082683              -0.000166066               0.000699829               0.000533763               0.000000000               0.000000000               0.000000000               0.000000000               0.000172542               0.001944815               0.000061932              -0.000178398               0.000707731               0.000529333               0.000000000               0.000000000               0.000000000               0.000000000               0.000144485               0.001956970               0.000044291              -0.000190439               0.000715796               0.000525358               0.000000000               0.000000000               0.000000000               0.000000000               0.000120460               0.001960564               0.000034183              -0.000199897               0.000720147               0.000520250               0.000000000               0.000000000               0.000000000               0.000000000               0.000098561               0.001961020               0.000029446              -0.000208167               0.000723056               0.000514889               0.000000000               0.000000000               0.000000000               0.000000000               0.000075073               0.001965772               0.000027143              -0.000217568               0.000727774               0.000510205               0.000000000               0.000000000               0.000000000               0.000000000               0.000048163               0.001977354               0.000018111              -0.000229107               0.000735480               0.000506373               0.000000000               0.000000000               0.000000000               0.000000000               0.000022899               0.001991899               0.000004596              -0.000240400               0.000744093               0.000503693               0.000000000               0.000000000               0.000000000               0.000000000               0.000014368               0.002003065               0.000000826              -0.000244994               0.000749347               0.000504352               0.000000000               0.000000000               0.000000000               0.000000000               0.000702057               0.002107713               0.000967629              -0.000000194               0.000702628               0.000702434               0.000000000               0.000000000               0.000000000               0.000000000               0.000483589               0.001981793               0.000691182              -0.000066379               0.000682717               0.000616338               0.000000000               0.000000000               0.000000000               0.000000000               0.000345887               0.001983476               0.000412379              -0.000118227               0.000700561               0.000582334               0.000000000               0.000000000               0.000000000               0.000000000               0.000283985               0.001959823               0.000290828              -0.000138483               0.000699429               0.000560945               0.000000000               0.000000000               0.000000000               0.000000000               0.000252821               0.001942239               0.000225122              -0.000147972               0.000696730               0.000548759               0.000000000               0.000000000               0.000000000               0.000000000               0.000231844               0.001933663               0.000182988              -0.000154766               0.000696137               0.000541370               0.000000000               0.000000000               0.000000000               0.000000000               0.000209341               0.001929925               0.000151680              -0.000162737               0.000697548               0.000534810               0.000000000               0.000000000               0.000000000               0.000000000               0.000188494               0.001935085               0.000124620              -0.000171200               0.000702089               0.000530888               0.000000000               0.000000000               0.000000000               0.000000000               0.000167889               0.001948436               0.000097326              -0.000180596               0.000709671               0.000529075               0.000000000               0.000000000               0.000000000               0.000000000               0.000142865               0.001964671               0.000071126              -0.000192009               0.000718887               0.000526878               0.000000000               0.000000000               0.000000000               0.000000000               0.000122701               0.001976235               0.000052344              -0.000201016               0.000725744               0.000524728               0.000000000               0.000000000               0.000000000               0.000000000               0.000110176               0.001981273               0.000041990              -0.000206343               0.000729199               0.000522856               0.000000000               0.000000000               0.000000000               0.000000000               0.000093976               0.001985909               0.000033759              -0.000212997               0.000732962               0.000519965               0.000000000               0.000000000               0.000000000               0.000000000               0.000071754               0.001999091               0.000025408              -0.000222978               0.000740683               0.000517705               0.000000000               0.000000000               0.000000000               0.000000000               0.000047699               0.002021768               0.000013499              -0.000234833               0.000752194               0.000517360               0.000000000               0.000000000               0.000000000               0.000000000               0.000024564               0.002045860               0.000002668              -0.000246520               0.000764120               0.000517600               0.000000000               0.000000000               0.000000000               0.000000000               0.000017456               0.002063471               0.000001643              -0.000251387               0.000771612               0.000520225               0.000000000               0.000000000               0.000000000               0.000000000               0.000731108               0.001762072               0.000930715               0.000053905               0.000569383               0.000623288               0.000000000               0.000000000               0.000000000               0.000000000               0.000483997               0.001758867               0.000693269              -0.000038360               0.000599070               0.000560709               0.000000000               0.000000000               0.000000000               0.000000000               0.000311688               0.001865041               0.000446873              -0.000116247               0.000660423               0.000544176               0.000000000               0.000000000               0.000000000               0.000000000               0.000249038               0.001889359               0.000331035              -0.000142780               0.000677373               0.000534593               0.000000000               0.000000000               0.000000000               0.000000000               0.000222650               0.001900004               0.000260670              -0.000154007               0.000684664               0.000530657               0.000000000               0.000000000               0.000000000               0.000000000               0.000205515               0.001909722               0.000211067              -0.000161647               0.000690450               0.000528803               0.000000000               0.000000000               0.000000000               0.000000000               0.000185778               0.001921578               0.000171437              -0.000170530               0.000697363               0.000526833               0.000000000               0.000000000               0.000000000               0.000000000               0.000162850               0.001941259               0.000136678              -0.000181588               0.000707609               0.000526021               0.000000000               0.000000000               0.000000000               0.000000000               0.000140529               0.001967582               0.000105820              -0.000193249               0.000720270               0.000527021               0.000000000               0.000000000               0.000000000               0.000000000               0.000122782               0.001991708               0.000077616              -0.000202920               0.000731536               0.000528616               0.000000000               0.000000000               0.000000000               0.000000000               0.000110960               0.002007898               0.000057596              -0.000209377               0.000739085               0.000529708               0.000000000               0.000000000               0.000000000               0.000000000               0.000101493               0.002022351               0.000047106              -0.000214733               0.000745688               0.000530955               0.000000000               0.000000000               0.000000000               0.000000000               0.000086534               0.002044688               0.000035567              -0.000223135               0.000755934               0.000532799               0.000000000               0.000000000               0.000000000               0.000000000               0.000065583               0.002078643               0.000021328              -0.000235236               0.000771286               0.000536050               0.000000000               0.000000000               0.000000000               0.000000000               0.000044477               0.002121323               0.000007864              -0.000248486               0.000789929               0.000541443               0.000000000               0.000000000               0.000000000               0.000000000               0.000025667               0.002166078              -0.000000633              -0.000261134               0.000809063               0.000547929               0.000000000               0.000000000               0.000000000               0.000000000               0.000020436               0.002197432               0.000000391              -0.000267015               0.000821475               0.000554460               0.000000000               0.000000000               0.000000000               0.000000000               0.000743617               0.001454613               0.000857331               0.000097028               0.000452523               0.000549551               0.000000000               0.000000000               0.000000000               0.000000000               0.000490182               0.001558006               0.000681160              -0.000010934               0.000522975               0.000512041               0.000000000               0.000000000               0.000000000               0.000000000               0.000300199               0.001756492               0.000483523              -0.000106987               0.000621154               0.000514167               0.000000000               0.000000000               0.000000000               0.000000000               0.000240189               0.001824238               0.000371418              -0.000137959               0.000654059               0.000516101               0.000000000               0.000000000               0.000000000               0.000000000               0.000215446               0.001858458               0.000294870              -0.000151515               0.000669984               0.000518470               0.000000000               0.000000000               0.000000000               0.000000000               0.000200993               0.001885879               0.000236714              -0.000160362               0.000682074               0.000521712               0.000000000               0.000000000               0.000000000               0.000000000               0.000183829               0.001915687               0.000189806              -0.000170525               0.000695398               0.000524873               0.000000000               0.000000000               0.000000000               0.000000000               0.000160910               0.001951217               0.000150646              -0.000183560               0.000711586               0.000528026               0.000000000               0.000000000               0.000000000               0.000000000               0.000136488               0.001989530               0.000118024              -0.000197508               0.000729006               0.000531498               0.000000000               0.000000000               0.000000000               0.000000000               0.000123170               0.002022294               0.000089517              -0.000206597               0.000742957               0.000536360               0.000000000               0.000000000               0.000000000               0.000000000               0.000113681               0.002042757               0.000066269              -0.000212714               0.000751817               0.000539103               0.000000000               0.000000000               0.000000000               0.000000000               0.000103347               0.002067966               0.000049700              -0.000219740               0.000762562               0.000542822               0.000000000               0.000000000               0.000000000               0.000000000               0.000090664               0.002112346               0.000032027              -0.000230044               0.000780790               0.000550746               0.000000000               0.000000000               0.000000000               0.000000000               0.000072835               0.002172146               0.000012443              -0.000244205               0.000805443               0.000561238               0.000000000               0.000000000               0.000000000               0.000000000               0.000056787               0.002242259              -0.000002915              -0.000258987               0.000833741               0.000574754               0.000000000               0.000000000               0.000000000               0.000000000               0.000047533               0.002314724              -0.000008028              -0.000271515               0.000862072               0.000590557               0.000000000               0.000000000               0.000000000               0.000000000               0.000044170               0.002355465              -0.000006155              -0.000277869               0.000877770               0.000599901               0.000000000               0.000000000               0.000000000               0.000000000               0.000734774               0.001152243               0.000765865               0.000131508               0.000340241               0.000471749               0.000000000               0.000000000               0.000000000               0.000000000               0.000509020               0.001323109               0.000663085               0.000025493               0.000432534               0.000458027               0.000000000               0.000000000               0.000000000               0.000000000               0.000317716               0.001587749               0.000527322              -0.000079326               0.000555686               0.000476361               0.000000000               0.000000000               0.000000000               0.000000000               0.000253819               0.001700594               0.000422272              -0.000117392               0.000605990               0.000488597               0.000000000               0.000000000               0.000000000               0.000000000               0.000228714               0.001763787               0.000342030              -0.000134706               0.000632825               0.000498119               0.000000000               0.000000000               0.000000000               0.000000000               0.000214828               0.001813959               0.000276770              -0.000146184               0.000653375               0.000507191               0.000000000               0.000000000               0.000000000               0.000000000               0.000200133               0.001859320               0.000223187              -0.000157365               0.000672222               0.000514857               0.000000000               0.000000000               0.000000000               0.000000000               0.000181513               0.001907316               0.000180150              -0.000170347               0.000692548               0.000522201               0.000000000               0.000000000               0.000000000               0.000000000               0.000159234               0.001956775               0.000146557              -0.000184884               0.000713880               0.000528996               0.000000000               0.000000000               0.000000000               0.000000000               0.000140096               0.001998731               0.000116818              -0.000197305               0.000732005               0.000534700               0.000000000               0.000000000               0.000000000               0.000000000               0.000129082               0.002033690               0.000088177              -0.000205805               0.000746492               0.000540687               0.000000000               0.000000000               0.000000000               0.000000000               0.000117115               0.002069114               0.000063197              -0.000214721               0.000761271               0.000546551               0.000000000               0.000000000               0.000000000               0.000000000               0.000105831               0.002120133               0.000038950              -0.000225329               0.000781814               0.000556484               0.000000000               0.000000000               0.000000000               0.000000000               0.000094997               0.002192022               0.000016381              -0.000238378               0.000810126               0.000571748               0.000000000               0.000000000               0.000000000               0.000000000               0.000089719               0.002283757               0.000004126              -0.000251824               0.000845186               0.000593362               0.000000000               0.000000000               0.000000000               0.000000000               0.000092321               0.002384507               0.000000756              -0.000263443               0.000882642               0.000619199               0.000000000               0.000000000               0.000000000               0.000000000               0.000089968               0.002430893              -0.000001584              -0.000270123               0.000900330               0.000630208               0.000000000               0.000000000               0.000000000               0.000000000               0.000695105               0.000869194               0.000656862               0.000152013               0.000239057               0.000391070               0.000000000               0.000000000               0.000000000               0.000000000               0.000529015               0.001086920               0.000627865               0.000062514               0.000341465               0.000403979               0.000000000               0.000000000               0.000000000               0.000000000               0.000357913               0.001393593               0.000558244              -0.000039982               0.000477853               0.000437871               0.000000000               0.000000000               0.000000000               0.000000000               0.000288491               0.001549373               0.000470276              -0.000085488               0.000544948               0.000459461               0.000000000               0.000000000               0.000000000               0.000000000               0.000258983               0.001646999               0.000392000              -0.000108756               0.000585246               0.000476490               0.000000000               0.000000000               0.000000000               0.000000000               0.000244843               0.001721860               0.000323216              -0.000123416               0.000615086               0.000491670               0.000000000               0.000000000               0.000000000               0.000000000               0.000231567               0.001785004               0.000264947              -0.000136288               0.000640425               0.000504137               0.000000000               0.000000000               0.000000000               0.000000000               0.000215822               0.001845264               0.000217974              -0.000149724               0.000664990               0.000515266               0.000000000               0.000000000               0.000000000               0.000000000               0.000194908               0.001900896               0.000181272              -0.000164521               0.000688466               0.000523945               0.000000000               0.000000000               0.000000000               0.000000000               0.000172574               0.001952141               0.000149883              -0.000179302               0.000710475               0.000531172               0.000000000               0.000000000               0.000000000               0.000000000               0.000156488               0.002002748               0.000116272              -0.000191660               0.000731463               0.000539803               0.000000000               0.000000000               0.000000000               0.000000000               0.000142365               0.002051478               0.000083585              -0.000203047               0.000751501               0.000548454               0.000000000               0.000000000               0.000000000               0.000000000               0.000133619               0.002105549               0.000056559              -0.000213086               0.000772871               0.000559786               0.000000000               0.000000000               0.000000000               0.000000000               0.000133222               0.002173165               0.000034567              -0.000221687               0.000798277               0.000576590               0.000000000               0.000000000               0.000000000               0.000000000               0.000135751               0.002263759               0.000020163              -0.000232063               0.000831933               0.000599870               0.000000000               0.000000000               0.000000000               0.000000000               0.000136138               0.002370877               0.000009196              -0.000245307               0.000872054               0.000626746               0.000000000               0.000000000               0.000000000               0.000000000               0.000127209               0.002419230               0.000000461              -0.000254700               0.000891302               0.000636602               0.000000000               0.000000000               0.000000000               0.000000000               0.000625964               0.000621701               0.000532262               0.000157022               0.000154890               0.000311912               0.000000000               0.000000000               0.000000000               0.000000000               0.000535342               0.000857432               0.000565216               0.000093573               0.000254617               0.000348190               0.000000000               0.000000000               0.000000000               0.000000000               0.000406317               0.001176934               0.000556778               0.000005251               0.000390557               0.000395808               0.000000000               0.000000000               0.000000000               0.000000000               0.000340837               0.001370099               0.000492669              -0.000043449               0.000471178               0.000427729               0.000000000               0.000000000               0.000000000               0.000000000               0.000304902               0.001501146               0.000423778              -0.000073305               0.000524812               0.000451507               0.000000000               0.000000000               0.000000000               0.000000000               0.000285980               0.001601958               0.000357579              -0.000093002               0.000564981               0.000471979               0.000000000               0.000000000               0.000000000               0.000000000               0.000271058               0.001687225               0.000297787              -0.000109256               0.000598822               0.000489565               0.000000000               0.000000000               0.000000000               0.000000000               0.000253617               0.001762155               0.000248321              -0.000125163               0.000629100               0.000503937               0.000000000               0.000000000               0.000000000               0.000000000               0.000231003               0.001826742               0.000209716              -0.000141716               0.000656147               0.000514430               0.000000000               0.000000000               0.000000000               0.000000000               0.000208239               0.001889453               0.000177636              -0.000158092               0.000682508               0.000524417               0.000000000               0.000000000               0.000000000               0.000000000               0.000188163               0.001953843               0.000141151              -0.000173669               0.000709164               0.000535495               0.000000000               0.000000000               0.000000000               0.000000000               0.000176227               0.002017729               0.000107823              -0.000186131               0.000734613               0.000548482               0.000000000               0.000000000               0.000000000               0.000000000               0.000171559               0.002079834               0.000083854              -0.000195644               0.000758486               0.000562842               0.000000000               0.000000000               0.000000000               0.000000000               0.000175424               0.002153060               0.000062266              -0.000203348               0.000785462               0.000582114               0.000000000               0.000000000               0.000000000               0.000000000               0.000180399               0.002246399               0.000040038              -0.000213150               0.000819842               0.000606693               0.000000000               0.000000000               0.000000000               0.000000000               0.000178551               0.002358904               0.000018823              -0.000227906               0.000862262               0.000634356               0.000000000               0.000000000               0.000000000               0.000000000               0.000164866               0.002412024               0.000004556              -0.000239678               0.000883892               0.000644215               0.000000000               0.000000000               0.000000000               0.000000000               0.000533142               0.000418388               0.000404836               0.000147628               0.000090252               0.000237880               0.000000000               0.000000000               0.000000000               0.000000000               0.000528286               0.000646165               0.000478173               0.000117335               0.000176274               0.000293609               0.000000000               0.000000000               0.000000000               0.000000000               0.000458983               0.000955748               0.000516409               0.000052649               0.000301030               0.000353679               0.000000000               0.000000000               0.000000000               0.000000000               0.000405082               0.001173346               0.000478772               0.000005237               0.000389366               0.000394602               0.000000000               0.000000000               0.000000000               0.000000000               0.000366817               0.001335404               0.000423799              -0.000029370               0.000454920               0.000425550               0.000000000               0.000000000               0.000000000               0.000000000               0.000338154               0.001460661               0.000365781              -0.000055775               0.000505474               0.000449699               0.000000000               0.000000000               0.000000000               0.000000000               0.000317890               0.001566977               0.000309706              -0.000076664               0.000547875               0.000471212               0.000000000               0.000000000               0.000000000               0.000000000               0.000296654               0.001657426               0.000260988              -0.000095933               0.000584448               0.000488515               0.000000000               0.000000000               0.000000000               0.000000000               0.000274429               0.001735650               0.000223558              -0.000114045               0.000616559               0.000502514               0.000000000               0.000000000               0.000000000               0.000000000               0.000250319               0.001809988               0.000191421              -0.000132379               0.000647450               0.000515071               0.000000000               0.000000000               0.000000000               0.000000000               0.000230706               0.001883727               0.000159121              -0.000148951               0.000677553               0.000528602               0.000000000               0.000000000               0.000000000               0.000000000               0.000221894               0.001961705               0.000131572              -0.000162002               0.000707896               0.000545893               0.000000000               0.000000000               0.000000000               0.000000000               0.000219353               0.002044886               0.000108925              -0.000173353               0.000739406               0.000566053               0.000000000               0.000000000               0.000000000               0.000000000               0.000221628               0.002139239               0.000086081              -0.000184294               0.000774504               0.000590210               0.000000000               0.000000000               0.000000000               0.000000000               0.000227132               0.002243155               0.000058692              -0.000195219               0.000812784               0.000617564               0.000000000               0.000000000               0.000000000               0.000000000               0.000228196               0.002356579               0.000028834              -0.000208998               0.000855185               0.000646186               0.000000000               0.000000000               0.000000000               0.000000000               0.000215190               0.002409088               0.000010352              -0.000220439               0.000876501               0.000656062               0.000000000               0.000000000               0.000000000               0.000000000               0.000428877               0.000260599               0.000284598               0.000128253               0.000044114               0.000172367               0.000000000               0.000000000               0.000000000               0.000000000               0.000508720               0.000464842               0.000372366               0.000132663               0.000110724               0.000243388               0.000000000               0.000000000               0.000000000               0.000000000               0.000508422               0.000748948               0.000434769               0.000097038               0.000217301               0.000314339               0.000000000               0.000000000               0.000000000               0.000000000               0.000474006               0.000978280               0.000419731               0.000055467               0.000307601               0.000363068               0.000000000               0.000000000               0.000000000               0.000000000               0.000435346               0.001164303               0.000380462               0.000017716               0.000382192               0.000399908               0.000000000               0.000000000               0.000000000               0.000000000               0.000400535               0.001311956               0.000334732              -0.000013794               0.000441912               0.000428118               0.000000000               0.000000000               0.000000000               0.000000000               0.000370976               0.001432775               0.000287889              -0.000039981               0.000490914               0.000450933               0.000000000               0.000000000               0.000000000               0.000000000               0.000345386               0.001536362               0.000245886              -0.000062525               0.000532957               0.000470432               0.000000000               0.000000000               0.000000000               0.000000000               0.000323096               0.001629703               0.000212432              -0.000082552               0.000570746               0.000488194               0.000000000               0.000000000               0.000000000               0.000000000               0.000301394               0.001716294               0.000183362              -0.000101514               0.000605930               0.000504416               0.000000000               0.000000000               0.000000000               0.000000000               0.000283588               0.001803925               0.000159002              -0.000119145               0.000641017               0.000521872               0.000000000               0.000000000               0.000000000               0.000000000               0.000273402               0.001898958               0.000138421              -0.000134844               0.000677928               0.000543084               0.000000000               0.000000000               0.000000000               0.000000000               0.000269562               0.002003836               0.000118552              -0.000149393               0.000717736               0.000568343               0.000000000               0.000000000               0.000000000               0.000000000               0.000273757               0.002123816               0.000097311              -0.000162818               0.000762204               0.000599386               0.000000000               0.000000000               0.000000000               0.000000000               0.000281974               0.002247950               0.000070883              -0.000175253               0.000807727               0.000632474               0.000000000               0.000000000               0.000000000               0.000000000               0.000290006               0.002364903               0.000037942              -0.000186860               0.000850580               0.000663719               0.000000000               0.000000000               0.000000000               0.000000000               0.000283499               0.002415245               0.000017334              -0.000195593               0.000870271               0.000674678               0.000000000               0.000000000               0.000000000               0.000000000               0.000334202               0.000148028               0.000176284               0.000106821               0.000013735               0.000120556               0.000000000               0.000000000               0.000000000               0.000000000               0.000485411               0.000325470               0.000252853               0.000141344               0.000061374               0.000202718               0.000000000               0.000000000               0.000000000               0.000000000               0.000547863               0.000579634               0.000314525               0.000132993               0.000148878               0.000281871               0.000000000               0.000000000               0.000000000               0.000000000               0.000536421               0.000810190               0.000313497               0.000099883               0.000236766               0.000336649               0.000000000               0.000000000               0.000000000               0.000000000               0.000500659               0.001010588               0.000289678               0.000061423               0.000316385               0.000377808               0.000000000               0.000000000               0.000000000               0.000000000               0.000461756               0.001175780               0.000258236               0.000026185               0.000383194               0.000409380               0.000000000               0.000000000               0.000000000               0.000000000               0.000424063               0.001307362               0.000224478              -0.000004397               0.000437248               0.000432852               0.000000000               0.000000000               0.000000000               0.000000000               0.000393323               0.001420422               0.000194841              -0.000030057               0.000483488               0.000453431               0.000000000               0.000000000               0.000000000               0.000000000               0.000367685               0.001523165               0.000170777              -0.000052514               0.000525221               0.000472707               0.000000000               0.000000000               0.000000000               0.000000000               0.000348247               0.001624681               0.000148169              -0.000072493               0.000565719               0.000493227               0.000000000               0.000000000               0.000000000               0.000000000               0.000332606               0.001734732               0.000129172              -0.000092114               0.000608943               0.000516829               0.000000000               0.000000000               0.000000000               0.000000000               0.000321197               0.001849372               0.000116013              -0.000110722               0.000653358               0.000542636               0.000000000               0.000000000               0.000000000               0.000000000               0.000319944               0.001970524               0.000105148              -0.000126336               0.000698947               0.000572611               0.000000000               0.000000000               0.000000000               0.000000000               0.000329416               0.002106471               0.000090071              -0.000139778               0.000748742               0.000608965               0.000000000               0.000000000               0.000000000               0.000000000               0.000344790               0.002249175               0.000068740              -0.000151850               0.000800334               0.000648484               0.000000000               0.000000000               0.000000000               0.000000000               0.000360123               0.002374997               0.000039868              -0.000161828               0.000845601               0.000683772               0.000000000               0.000000000               0.000000000               0.000000000               0.000364107               0.002427842               0.000021770              -0.000166940               0.000864919               0.000697980               0.000000000               0.000000000               0.000000000               0.000000000               0.000267704               0.000083940               0.000083084               0.000089896              -0.000001986               0.000087910               0.000000000               0.000000000               0.000000000               0.000000000               0.000467043               0.000239493               0.000127595               0.000145203               0.000031429               0.000176632               0.000000000               0.000000000               0.000000000               0.000000000               0.000574879               0.000469381               0.000165369               0.000156905               0.000104157               0.000261062               0.000000000               0.000000000               0.000000000               0.000000000               0.000578974               0.000695558               0.000167829               0.000130169               0.000188461               0.000318630               0.000000000               0.000000000               0.000000000               0.000000000               0.000548531               0.000902482               0.000157236               0.000092888               0.000269862               0.000362750               0.000000000               0.000000000               0.000000000               0.000000000               0.000506180               0.001077458               0.000141170               0.000055135               0.000340771               0.000395905               0.000000000               0.000000000               0.000000000               0.000000000               0.000464930               0.001218764               0.000123368               0.000022003               0.000398916               0.000420919               0.000000000               0.000000000               0.000000000               0.000000000               0.000429545               0.001338326               0.000108621              -0.000006212               0.000448175               0.000441963               0.000000000               0.000000000               0.000000000               0.000000000               0.000399437               0.001446500               0.000096750              -0.000031023               0.000492503               0.000461480               0.000000000               0.000000000               0.000000000               0.000000000               0.000376814               0.001557260               0.000084446              -0.000053352               0.000536865               0.000483513               0.000000000               0.000000000               0.000000000               0.000000000               0.000365294               0.001680716               0.000072258              -0.000073104               0.000584601               0.000511497               0.000000000               0.000000000               0.000000000               0.000000000               0.000361610               0.001815250               0.000065915              -0.000091302               0.000635511               0.000544209               0.000000000               0.000000000               0.000000000               0.000000000               0.000364472               0.001956083               0.000063393              -0.000107833               0.000687965               0.000580132               0.000000000               0.000000000               0.000000000               0.000000000               0.000373214               0.002097692               0.000056976              -0.000122256               0.000739976               0.000617720               0.000000000               0.000000000               0.000000000               0.000000000               0.000391252               0.002239728               0.000043640              -0.000133246               0.000790984               0.000657738               0.000000000               0.000000000               0.000000000               0.000000000               0.000416242               0.002369016               0.000024992              -0.000140036               0.000836343               0.000696307               0.000000000               0.000000000               0.000000000               0.000000000               0.000431475               0.002427082               0.000014737              -0.000141582               0.000856213               0.000714631               0.000000000               0.000000000               0.000000000               0.000000000               0.000243455               0.000064923              -0.000000000               0.000083180              -0.000006086               0.000077094               0.000000000               0.000000000               0.000000000               0.000000000               0.000459946               0.000210764               0.000000000               0.000146133               0.000021543               0.000167676               0.000000000               0.000000000               0.000000000               0.000000000               0.000584890               0.000430118               0.000000000               0.000165567               0.000088182               0.000253749               0.000000000               0.000000000               0.000000000               0.000000000               0.000593602               0.000654895              -0.000000000               0.000140737               0.000171384               0.000312121               0.000000000               0.000000000               0.000000000               0.000000000               0.000565971               0.000864065               0.000000000               0.000104230               0.000253275               0.000357505               0.000000000               0.000000000               0.000000000               0.000000000               0.000522477               0.001040910               0.000000000               0.000065814               0.000325029               0.000390843               0.000000000               0.000000000               0.000000000               0.000000000               0.000480699               0.001186761               0.000000000               0.000031916               0.000384944               0.000416861               0.000000000               0.000000000               0.000000000               0.000000000               0.000442908               0.001307680              -0.000000000               0.000002630               0.000435012               0.000437642               0.000000000               0.000000000               0.000000000               0.000000000               0.000410291               0.001418825              -0.000000000              -0.000023494               0.000480768               0.000457274               0.000000000               0.000000000               0.000000000               0.000000000               0.000386329               0.001535869              -0.000000000              -0.000047110               0.000527655               0.000480544               0.000000000               0.000000000               0.000000000               0.000000000               0.000376648               0.001658752              -0.000000000              -0.000066101               0.000574946               0.000508845               0.000000000               0.000000000               0.000000000               0.000000000               0.000378551               0.001797785              -0.000000000              -0.000082766               0.000626844               0.000544078               0.000000000               0.000000000               0.000000000               0.000000000               0.000383862               0.001953626              -0.000000000              -0.000100255               0.000684621               0.000584366               0.000000000               0.000000000               0.000000000               0.000000000               0.000390764               0.002101315              -0.000000000              -0.000116127               0.000739140               0.000623013               0.000000000               0.000000000               0.000000000               0.000000000               0.000405269               0.002232008              -0.000000000              -0.000127025               0.000786337               0.000659312               0.000000000               0.000000000               0.000000000               0.000000000               0.000434829               0.002354550               0.000000000              -0.000131258               0.000828595               0.000697337               0.000000000               0.000000000               0.000000000               0.000000000               0.000455601               0.002414911               0.000000000              -0.000131013               0.000848633               0.000717620               0.000000000               0.000000000               0.000000000               0.000000000               0.000318227               0.003570479              -0.000000000              -0.000326974               0.001299139               0.000972165               0.000000000               0.000000000               0.000000000               0.000000000               0.000370009               0.002980934              -0.000000000              -0.000233863               0.001071589               0.000837726               0.000000000               0.000000000               0.000000000               0.000000000               0.000531400               0.002498910               0.000000000              -0.000113089               0.000870658               0.000757569               0.000000000               0.000000000               0.000000000               0.000000000               0.000574882               0.002231947              -0.000000000              -0.000063413               0.000765112               0.000701700               0.000000000               0.000000000               0.000000000               0.000000000               0.000566581               0.002078635              -0.000000000              -0.000047361               0.000708659               0.000661297               0.000000000               0.000000000               0.000000000               0.000000000               0.000530915               0.001990160              -0.000000000              -0.000049677               0.000679939               0.000630262               0.000000000               0.000000000               0.000000000               0.000000000               0.000481855               0.001939387               0.000000000              -0.000061728               0.000667032               0.000605304               0.000000000               0.000000000               0.000000000               0.000000000               0.000430492               0.001915605               0.000000000              -0.000078016               0.000664534               0.000586518               0.000000000               0.000000000               0.000000000               0.000000000               0.000376208               0.001905755               0.000000000              -0.000097141               0.000667626               0.000570485               0.000000000               0.000000000               0.000000000               0.000000000               0.000320934               0.001908659              -0.000000000              -0.000118232               0.000675624               0.000557392               0.000000000               0.000000000               0.000000000               0.000000000               0.000268662               0.001921515               0.000000000              -0.000139441               0.000686979               0.000547538               0.000000000               0.000000000               0.000000000               0.000000000               0.000214507               0.001944399               0.000000000              -0.000162609               0.000702330               0.000539720               0.000000000               0.000000000               0.000000000               0.000000000               0.000157458               0.001971269               0.000000000              -0.000187361               0.000719537               0.000532175               0.000000000               0.000000000               0.000000000               0.000000000               0.000108848               0.002002010               0.000000000              -0.000209433               0.000737141               0.000527708               0.000000000               0.000000000               0.000000000               0.000000000               0.000070106               0.002033868               0.000000000              -0.000227943               0.000753930               0.000525987               0.000000000               0.000000000               0.000000000               0.000000000               0.000034647               0.002066402               0.000000000              -0.000245307               0.000770563               0.000525256               0.000000000               0.000000000               0.000000000               0.000000000               0.000020654               0.002093317              -0.000000000              -0.000253919               0.000782405               0.000528486               0.000000000               0.000000000               0.000000000               0.000000000               0.000340389               0.003516558              -0.000280623              -0.000311923               0.001276148               0.000964225               0.000000000               0.000000000               0.000000000               0.000000000               0.000379200               0.002941180              -0.000190371              -0.000225447               0.001055533               0.000830086               0.000000000               0.000000000               0.000000000               0.000000000               0.000526233               0.002478224              -0.000095680              -0.000112440               0.000863547               0.000751106               0.000000000               0.000000000               0.000000000               0.000000000               0.000561949               0.002222059              -0.000049675              -0.000067026               0.000763021               0.000695995               0.000000000               0.000000000               0.000000000               0.000000000               0.000551084               0.002074805              -0.000026415              -0.000052694               0.000709160               0.000656466               0.000000000               0.000000000               0.000000000               0.000000000               0.000514805               0.001988888              -0.000015101              -0.000055559               0.000681476               0.000625917               0.000000000               0.000000000               0.000000000               0.000000000               0.000467372               0.001940807              -0.000009796              -0.000067336               0.000669375               0.000602038               0.000000000               0.000000000               0.000000000               0.000000000               0.000416419               0.001915818              -0.000007766              -0.000083320               0.000666373               0.000583053               0.000000000               0.000000000               0.000000000               0.000000000               0.000363901               0.001907417              -0.000007176              -0.000101964               0.000669787               0.000567823               0.000000000               0.000000000               0.000000000               0.000000000               0.000310647               0.001909551              -0.000006293              -0.000122201               0.000677244               0.000555043               0.000000000               0.000000000               0.000000000               0.000000000               0.000257991               0.001922667              -0.000004307              -0.000143586               0.000688745               0.000545158               0.000000000               0.000000000               0.000000000               0.000000000               0.000204914               0.001943488              -0.000002327              -0.000166093               0.000703187               0.000537094               0.000000000               0.000000000               0.000000000               0.000000000               0.000153543               0.001970409              -0.000002857              -0.000188722               0.000719704               0.000530982               0.000000000               0.000000000               0.000000000               0.000000000               0.000107839               0.001998672              -0.000005309              -0.000209394               0.000736015               0.000526621               0.000000000               0.000000000               0.000000000               0.000000000               0.000068693               0.002027128              -0.000007468              -0.000227631               0.000751579               0.000523949               0.000000000               0.000000000               0.000000000               0.000000000               0.000033367               0.002058067              -0.000004793              -0.000244745               0.000767597               0.000522852               0.000000000               0.000000000               0.000000000               0.000000000               0.000019811               0.002083714              -0.000002435              -0.000253034               0.000778909               0.000525875               0.000000000               0.000000000               0.000000000               0.000000000               0.000399089               0.003358547              -0.000533541              -0.000270159               0.001209558               0.000939398               0.000000000               0.000000000               0.000000000               0.000000000               0.000401053               0.002827288              -0.000361241              -0.000203016               0.001010092               0.000807076               0.000000000               0.000000000               0.000000000               0.000000000               0.000508394               0.002417762              -0.000182846              -0.000111572               0.000843103               0.000731531               0.000000000               0.000000000               0.000000000               0.000000000               0.000525154               0.002192220              -0.000098607              -0.000077095               0.000756431               0.000679336               0.000000000               0.000000000               0.000000000               0.000000000               0.000506769               0.002062215              -0.000056969              -0.000067738               0.000709978               0.000642239               0.000000000               0.000000000               0.000000000               0.000000000               0.000469364               0.001985282              -0.000036186              -0.000072149               0.000685804               0.000613655               0.000000000               0.000000000               0.000000000               0.000000000               0.000424892               0.001940994              -0.000026833              -0.000083290               0.000674755               0.000591465               0.000000000               0.000000000               0.000000000               0.000000000               0.000380464               0.001919364              -0.000022565              -0.000097246               0.000672197               0.000574951               0.000000000               0.000000000               0.000000000               0.000000000               0.000332671               0.001910983              -0.000020283              -0.000114121               0.000675028               0.000560907               0.000000000               0.000000000               0.000000000               0.000000000               0.000283127               0.001913908              -0.000017320              -0.000133065               0.000682318               0.000549253               0.000000000               0.000000000               0.000000000               0.000000000               0.000233809               0.001926477              -0.000012466              -0.000153131               0.000693196               0.000540065               0.000000000               0.000000000               0.000000000               0.000000000               0.000184268               0.001945813              -0.000008143              -0.000174126               0.000706640               0.000532514               0.000000000               0.000000000               0.000000000               0.000000000               0.000137736               0.001967889              -0.000008706              -0.000194335               0.000720735               0.000526400               0.000000000               0.000000000               0.000000000               0.000000000               0.000096779               0.001988876              -0.000014250              -0.000212317               0.000733724               0.000521407               0.000000000               0.000000000               0.000000000               0.000000000               0.000062738               0.002009724              -0.000015638              -0.000227688               0.000745797               0.000518109               0.000000000               0.000000000               0.000000000               0.000000000               0.000032936               0.002034542              -0.000008594              -0.000241966               0.000758829               0.000516863               0.000000000               0.000000000               0.000000000               0.000000000               0.000020801               0.002054704              -0.000004186              -0.000249037               0.000767907               0.000518870               0.000000000               0.000000000               0.000000000               0.000000000               0.000482697               0.003112344              -0.000736892              -0.000208032               0.001106781               0.000898750               0.000000000               0.000000000               0.000000000               0.000000000               0.000429164               0.002654568              -0.000499275              -0.000170884               0.000941809               0.000770924               0.000000000               0.000000000               0.000000000               0.000000000               0.000476805               0.002326515              -0.000256978              -0.000112012               0.000812834               0.000700822               0.000000000               0.000000000               0.000000000               0.000000000               0.000468205               0.002146656              -0.000146994              -0.000092755               0.000746463               0.000653708               0.000000000               0.000000000               0.000000000               0.000000000               0.000442194               0.002042987              -0.000093576              -0.000089550               0.000710839               0.000621289               0.000000000               0.000000000               0.000000000               0.000000000               0.000405994               0.001979908              -0.000067204              -0.000095240               0.000691710               0.000596469               0.000000000               0.000000000               0.000000000               0.000000000               0.000366681               0.001942300              -0.000053102              -0.000105282               0.000682521               0.000577239               0.000000000               0.000000000               0.000000000               0.000000000               0.000329533               0.001922797              -0.000045703              -0.000116775               0.000679851               0.000563076               0.000000000               0.000000000               0.000000000               0.000000000               0.000289700               0.001915045              -0.000039968              -0.000130743               0.000681923               0.000551180               0.000000000               0.000000000               0.000000000               0.000000000               0.000247463               0.001919253              -0.000032782              -0.000147108               0.000688780               0.000541673               0.000000000               0.000000000               0.000000000               0.000000000               0.000203158               0.001931119              -0.000023698              -0.000165205               0.000698768               0.000533563               0.000000000               0.000000000               0.000000000               0.000000000               0.000159402               0.001948106              -0.000017038              -0.000183737               0.000710608               0.000526871               0.000000000               0.000000000               0.000000000               0.000000000               0.000120698               0.001962626              -0.000018198              -0.000200066               0.000720891               0.000520825               0.000000000               0.000000000               0.000000000               0.000000000               0.000087774               0.001974287              -0.000023600              -0.000213870               0.000729379               0.000515509               0.000000000               0.000000000               0.000000000               0.000000000               0.000056793               0.001984959              -0.000021480              -0.000226822               0.000737254               0.000510432               0.000000000               0.000000000               0.000000000               0.000000000               0.000027736               0.001998506              -0.000009368              -0.000239412               0.000745966               0.000506554               0.000000000               0.000000000               0.000000000               0.000000000               0.000015579               0.002009728              -0.000003040              -0.000245373               0.000751694               0.000506321               0.000000000               0.000000000               0.000000000               0.000000000               0.000573544               0.002804558              -0.000876702              -0.000135491               0.000980007               0.000844516               0.000000000               0.000000000               0.000000000               0.000000000               0.000455898               0.002443322              -0.000598961              -0.000134454               0.000859250               0.000724797               0.000000000               0.000000000               0.000000000               0.000000000               0.000435436               0.002219766              -0.000319028              -0.000114182               0.000777975               0.000663793               0.000000000               0.000000000               0.000000000               0.000000000               0.000402907               0.002093469              -0.000196214              -0.000110593               0.000734681               0.000624087               0.000000000               0.000000000               0.000000000               0.000000000               0.000370265               0.002017443              -0.000136868              -0.000113331               0.000710251               0.000596920               0.000000000               0.000000000               0.000000000               0.000000000               0.000337043               0.001968984              -0.000105013              -0.000119732               0.000696232               0.000576500               0.000000000               0.000000000               0.000000000               0.000000000               0.000304370               0.001939885              -0.000086464              -0.000128346               0.000689404               0.000561058               0.000000000               0.000000000               0.000000000               0.000000000               0.000274111               0.001923826              -0.000073984              -0.000137686               0.000687164               0.000549478               0.000000000               0.000000000               0.000000000               0.000000000               0.000243506               0.001922179              -0.000062570              -0.000148957               0.000690372               0.000541415               0.000000000               0.000000000               0.000000000               0.000000000               0.000208667               0.001928520              -0.000049207              -0.000162815               0.000697105               0.000534291               0.000000000               0.000000000               0.000000000               0.000000000               0.000172228               0.001942057              -0.000035228              -0.000178171               0.000706736               0.000528565               0.000000000               0.000000000               0.000000000               0.000000000               0.000135672               0.001951834              -0.000026187              -0.000193102               0.000714972               0.000521870               0.000000000               0.000000000               0.000000000               0.000000000               0.000106233               0.001957544              -0.000025718              -0.000204855               0.000720793               0.000515938               0.000000000               0.000000000               0.000000000               0.000000000               0.000080797               0.001962765              -0.000028661              -0.000215046               0.000725930               0.000510884               0.000000000               0.000000000               0.000000000               0.000000000               0.000052168               0.001968980              -0.000022383              -0.000226559               0.000731840               0.000505281               0.000000000               0.000000000               0.000000000               0.000000000               0.000025180               0.001977895              -0.000007652              -0.000237794               0.000738556               0.000500763               0.000000000               0.000000000               0.000000000               0.000000000               0.000014901               0.001985618              -0.000001538              -0.000242614               0.000742737               0.000500124               0.000000000               0.000000000               0.000000000               0.000000000               0.000649807               0.002462509              -0.000951699              -0.000064137               0.000842207               0.000778070               0.000000000               0.000000000               0.000000000               0.000000000               0.000475101               0.002214422              -0.000661276              -0.000098640               0.000771013               0.000672373               0.000000000               0.000000000               0.000000000               0.000000000               0.000389893               0.002104377              -0.000370319              -0.000116837               0.000740398               0.000623561               0.000000000               0.000000000               0.000000000               0.000000000               0.000337637               0.002030253              -0.000245232              -0.000127168               0.000719133               0.000591966               0.000000000               0.000000000               0.000000000               0.000000000               0.000303391               0.001982316              -0.000182342              -0.000134018               0.000705438               0.000571420               0.000000000               0.000000000               0.000000000               0.000000000               0.000276402               0.001952392              -0.000145556              -0.000140398               0.000697590               0.000557192               0.000000000               0.000000000               0.000000000               0.000000000               0.000249828               0.001935047              -0.000121523              -0.000148195               0.000694408               0.000546213               0.000000000               0.000000000               0.000000000               0.000000000               0.000225882               0.001929142              -0.000102254              -0.000156437               0.000695187               0.000538750               0.000000000               0.000000000               0.000000000               0.000000000               0.000201638               0.001933441              -0.000082683              -0.000166066               0.000699829               0.000533763               0.000000000               0.000000000               0.000000000               0.000000000               0.000172542               0.001944815              -0.000061932              -0.000178398               0.000707731               0.000529333               0.000000000               0.000000000               0.000000000               0.000000000               0.000144485               0.001956970              -0.000044291              -0.000190439               0.000715796               0.000525358               0.000000000               0.000000000               0.000000000               0.000000000               0.000120460               0.001960564              -0.000034183              -0.000199897               0.000720147               0.000520250               0.000000000               0.000000000               0.000000000               0.000000000               0.000098561               0.001961020              -0.000029446              -0.000208167               0.000723056               0.000514889               0.000000000               0.000000000               0.000000000               0.000000000               0.000075073               0.001965772              -0.000027143              -0.000217568               0.000727774               0.000510205               0.000000000               0.000000000               0.000000000               0.000000000               0.000048163               0.001977354              -0.000018111              -0.000229107               0.000735480               0.000506373               0.000000000               0.000000000               0.000000000               0.000000000               0.000022899               0.001991899              -0.000004596              -0.000240400               0.000744093               0.000503693               0.000000000               0.000000000               0.000000000               0.000000000               0.000014368               0.002003065              -0.000000826              -0.000244994               0.000749347               0.000504352               0.000000000               0.000000000               0.000000000               0.000000000               0.000702057               0.002107713              -0.000967629              -0.000000194               0.000702628               0.000702434               0.000000000               0.000000000               0.000000000               0.000000000               0.000483589               0.001981793              -0.000691182              -0.000066379               0.000682717               0.000616338               0.000000000               0.000000000               0.000000000               0.000000000               0.000345887               0.001983476              -0.000412379              -0.000118227               0.000700561               0.000582334               0.000000000               0.000000000               0.000000000               0.000000000               0.000283985               0.001959823              -0.000290828              -0.000138483               0.000699429               0.000560945               0.000000000               0.000000000               0.000000000               0.000000000               0.000252821               0.001942239              -0.000225122              -0.000147972               0.000696730               0.000548759               0.000000000               0.000000000               0.000000000               0.000000000               0.000231844               0.001933663              -0.000182988              -0.000154766               0.000696137               0.000541370               0.000000000               0.000000000               0.000000000               0.000000000               0.000209341               0.001929925              -0.000151680              -0.000162737               0.000697548               0.000534810               0.000000000               0.000000000               0.000000000               0.000000000               0.000188494               0.001935085              -0.000124620              -0.000171200               0.000702089               0.000530888               0.000000000               0.000000000               0.000000000               0.000000000               0.000167889               0.001948436              -0.000097326              -0.000180596               0.000709671               0.000529075               0.000000000               0.000000000               0.000000000               0.000000000               0.000142865               0.001964671              -0.000071126              -0.000192009               0.000718887               0.000526878               0.000000000               0.000000000               0.000000000               0.000000000               0.000122701               0.001976235              -0.000052344              -0.000201016               0.000725744               0.000524728               0.000000000               0.000000000               0.000000000               0.000000000               0.000110176               0.001981273              -0.000041990              -0.000206343               0.000729199               0.000522856               0.000000000               0.000000000               0.000000000               0.000000000               0.000093976               0.001985909              -0.000033759              -0.000212997               0.000732962               0.000519965               0.000000000               0.000000000               0.000000000               0.000000000               0.000071754               0.001999091              -0.000025408              -0.000222978               0.000740683               0.000517705               0.000000000               0.000000000               0.000000000               0.000000000               0.000047699               0.002021768              -0.000013499              -0.000234833               0.000752194               0.000517360               0.000000000               0.000000000               0.000000000               0.000000000               0.000024564               0.002045860              -0.000002668              -0.000246520               0.000764120               0.000517600               0.000000000               0.000000000               0.000000000               0.000000000               0.000017456               0.002063471              -0.000001643              -0.000251387               0.000771612               0.000520225               0.000000000               0.000000000               0.000000000               0.000000000               0.000731108               0.001762072              -0.000930715               0.000053905               0.000569383               0.000623288               0.000000000               0.000000000               0.000000000               0.000000000               0.000483997               0.001758867              -0.000693269              -0.000038360               0.000599070               0.000560709               0.000000000               0.000000000               0.000000000               0.000000000               0.000311688               0.001865041              -0.000446873              -0.000116247               0.000660423               0.000544176               0.000000000               0.000000000               0.000000000               0.000000000               0.000249038               0.001889359              -0.000331035              -0.000142780               0.000677373               0.000534593               0.000000000               0.000000000               0.000000000               0.000000000               0.000222650               0.001900004              -0.000260670              -0.000154007               0.000684664               0.000530657               0.000000000               0.000000000               0.000000000               0.000000000               0.000205515               0.001909722              -0.000211067              -0.000161647               0.000690450               0.000528803               0.000000000               0.000000000               0.000000000               0.000000000               0.000185778               0.001921578              -0.000171437              -0.000170530               0.000697363               0.000526833               0.000000000               0.000000000               0.000000000               0.000000000               0.000162850               0.001941259              -0.000136678              -0.000181588               0.000707609               0.000526021               0.000000000               0.000000000               0.000000000               0.000000000               0.000140529               0.001967582              -0.000105820              -0.000193249               0.000720270               0.000527021               0.000000000               0.000000000               0.000000000               0.000000000               0.000122782               0.001991708              -0.000077616              -0.000202920               0.000731536               0.000528616               0.000000000               0.000000000               0.000000000               0.000000000               0.000110960               0.002007898              -0.000057596              -0.000209377               0.000739085               0.000529708               0.000000000               0.000000000               0.000000000               0.000000000               0.000101493               0.002022351              -0.000047106              -0.000214733               0.000745688               0.000530955               0.000000000               0.000000000               0.000000000               0.000000000               0.000086534               0.002044688              -0.000035567              -0.000223135               0.000755934               0.000532799               0.000000000               0.000000000               0.000000000               0.000000000               0.000065583               0.002078643              -0.000021328              -0.000235236               0.000771286               0.000536050               0.000000000               0.000000000               0.000000000               0.000000000               0.000044477               0.002121323              -0.000007864              -0.000248486               0.000789929               0.000541443               0.000000000               0.000000000               0.000000000               0.000000000               0.000025667               0.002166078               0.000000633              -0.000261134               0.000809063               0.000547929               0.000000000               0.000000000               0.000000000               0.000000000               0.000020436               0.002197432              -0.000000391              -0.000267015               0.000821475               0.000554460               0.000000000               0.000000000               0.000000000               0.000000000               0.000743617               0.001454613              -0.000857331               0.000097028               0.000452523               0.000549551               0.000000000               0.000000000               0.000000000               0.000000000               0.000490182               0.001558006              -0.000681160              -0.000010934               0.000522975               0.000512041               0.000000000               0.000000000               0.000000000               0.000000000               0.000300199               0.001756492              -0.000483523              -0.000106987               0.000621154               0.000514167               0.000000000               0.000000000               0.000000000               0.000000000               0.000240189               0.001824238              -0.000371418              -0.000137959               0.000654059               0.000516101               0.000000000               0.000000000               0.000000000               0.000000000               0.000215446               0.001858458              -0.000294870              -0.000151515               0.000669984               0.000518470               0.000000000               0.000000000               0.000000000               0.000000000               0.000200993               0.001885879              -0.000236714              -0.000160362               0.000682074               0.000521712               0.000000000               0.000000000               0.000000000               0.000000000               0.000183829               0.001915687              -0.000189806              -0.000170525               0.000695398               0.000524873               0.000000000               0.000000000               0.000000000               0.000000000               0.000160910               0.001951217              -0.000150646              -0.000183560               0.000711586               0.000528026               0.000000000               0.000000000               0.000000000               0.000000000               0.000136488               0.001989530              -0.000118024              -0.000197508               0.000729006               0.000531498               0.000000000               0.000000000               0.000000000               0.000000000               0.000123170               0.002022294              -0.000089517              -0.000206597               0.000742957               0.000536360               0.000000000               0.000000000               0.000000000               0.000000000               0.000113681               0.002042757              -0.000066269              -0.000212714               0.000751817               0.000539103               0.000000000               0.000000000               0.000000000               0.000000000               0.000103347               0.002067966              -0.000049700              -0.000219740               0.000762562               0.000542822               0.000000000               0.000000000               0.000000000               0.000000000               0.000090664               0.002112346              -0.000032027              -0.000230044               0.000780790               0.000550746               0.000000000               0.000000000               0.000000000               0.000000000               0.000072835               0.002172146              -0.000012443              -0.000244205               0.000805443               0.000561238               0.000000000               0.000000000               0.000000000               0.000000000               0.000056787               0.002242259               0.000002915              -0.000258987               0.000833741               0.000574754               0.000000000               0.000000000               0.000000000               0.000000000               0.000047533               0.002314724               0.000008028              -0.000271515               0.000862072               0.000590557               0.000000000               0.000000000               0.000000000               0.000000000               0.000044170               0.002355465               0.000006155              -0.000277869               0.000877770               0.000599901               0.000000000               0.000000000               0.000000000               0.000000000               0.000734774               0.001152243              -0.000765865               0.000131508               0.000340241               0.000471749               0.000000000               0.000000000               0.000000000               0.000000000               0.000509020               0.001323109              -0.000663085               0.000025493               0.000432534               0.000458027               0.000000000               0.000000000               0.000000000               0.000000000               0.000317716               0.001587749              -0.000527322              -0.000079326               0.000555686               0.000476361               0.000000000               0.000000000               0.000000000               0.000000000               0.000253819               0.001700594              -0.000422272              -0.000117392               0.000605990               0.000488597               0.000000000               0.000000000               0.000000000               0.000000000               0.000228714               0.001763787              -0.000342030              -0.000134706               0.000632825               0.000498119               0.000000000               0.000000000               0.000000000               0.000000000               0.000214828               0.001813959              -0.000276770              -0.000146184               0.000653375               0.000507191               0.000000000               0.000000000               0.000000000               0.000000000               0.000200133               0.001859320              -0.000223187              -0.000157365               0.000672222               0.000514857               0.000000000               0.000000000               0.000000000               0.000000000               0.000181513               0.001907316              -0.000180150              -0.000170347               0.000692548               0.000522201               0.000000000               0.000000000               0.000000000               0.000000000               0.000159234               0.001956775              -0.000146557              -0.000184884               0.000713880               0.000528996               0.000000000               0.000000000               0.000000000               0.000000000               0.000140096               0.001998731              -0.000116818              -0.000197305               0.000732005               0.000534700               0.000000000               0.000000000               0.000000000               0.000000000               0.000129082               0.002033690              -0.000088177              -0.000205805               0.000746492               0.000540687               0.000000000               0.000000000               0.000000000               0.000000000               0.000117115               0.002069114              -0.000063197              -0.000214721               0.000761271               0.000546551               0.000000000               0.000000000               0.000000000               0.000000000               0.000105831               0.002120133              -0.000038950              -0.000225329               0.000781814               0.000556484               0.000000000               0.000000000               0.000000000               0.000000000               0.000094997               0.002192022              -0.000016381              -0.000238378               0.000810126               0.000571748               0.000000000               0.000000000               0.000000000               0.000000000               0.000089719               0.002283757              -0.000004126              -0.000251824               0.000845186               0.000593362               0.000000000               0.000000000               0.000000000               0.000000000               0.000092321               0.002384507              -0.000000756              -0.000263443               0.000882642               0.000619199               0.000000000               0.000000000               0.000000000               0.000000000               0.000089968               0.002430893               0.000001584              -0.000270123               0.000900330               0.000630208               0.000000000               0.000000000               0.000000000               0.000000000               0.000695105               0.000869194              -0.000656862               0.000152013               0.000239057               0.000391070               0.000000000               0.000000000               0.000000000               0.000000000               0.000529015               0.001086920              -0.000627865               0.000062514               0.000341465               0.000403979               0.000000000               0.000000000               0.000000000               0.000000000               0.000357913               0.001393593              -0.000558244              -0.000039982               0.000477853               0.000437871               0.000000000               0.000000000               0.000000000               0.000000000               0.000288491               0.001549373              -0.000470276              -0.000085488               0.000544948               0.000459461               0.000000000               0.000000000               0.000000000               0.000000000               0.000258983               0.001646999              -0.000392000              -0.000108756               0.000585246               0.000476490               0.000000000               0.000000000               0.000000000               0.000000000               0.000244843               0.001721860              -0.000323216              -0.000123416               0.000615086               0.000491670               0.000000000               0.000000000               0.000000000               0.000000000               0.000231567               0.001785004              -0.000264947              -0.000136288               0.000640425               0.000504137               0.000000000               0.000000000               0.000000000               0.000000000               0.000215822               0.001845264              -0.000217974              -0.000149724               0.000664990               0.000515266               0.000000000               0.000000000               0.000000000               0.000000000               0.000194908               0.001900896              -0.000181272              -0.000164521               0.000688466               0.000523945               0.000000000               0.000000000               0.000000000               0.000000000               0.000172574               0.001952141              -0.000149883              -0.000179302               0.000710475               0.000531172               0.000000000               0.000000000               0.000000000               0.000000000               0.000156488               0.002002748              -0.000116272              -0.000191660               0.000731463               0.000539803               0.000000000               0.000000000               0.000000000               0.000000000               0.000142365               0.002051478              -0.000083585              -0.000203047               0.000751501               0.000548454               0.000000000               0.000000000               0.000000000               0.000000000               0.000133619               0.002105549              -0.000056559              -0.000213086               0.000772871               0.000559786               0.000000000               0.000000000               0.000000000               0.000000000               0.000133222               0.002173165              -0.000034567              -0.000221687               0.000798277               0.000576590               0.000000000               0.000000000               0.000000000               0.000000000               0.000135751               0.002263759              -0.000020163              -0.000232063               0.000831933               0.000599870               0.000000000               0.000000000               0.000000000               0.000000000               0.000136138               0.002370877              -0.000009196              -0.000245307               0.000872054               0.000626746               0.000000000               0.000000000               0.000000000               0.000000000               0.000127209               0.002419230              -0.000000461              -0.000254700               0.000891302               0.000636602               0.000000000               0.000000000               0.000000000               0.000000000               0.000625964               0.000621701              -0.000532262               0.000157022               0.000154890               0.000311912               0.000000000               0.000000000               0.000000000               0.000000000               0.000535342               0.000857432              -0.000565216               0.000093573               0.000254617               0.000348190               0.000000000               0.000000000               0.000000000               0.000000000               0.000406317               0.001176934              -0.000556778               0.000005251               0.000390557               0.000395808               0.000000000               0.000000000               0.000000000               0.000000000               0.000340837               0.001370099              -0.000492669              -0.000043449               0.000471178               0.000427729               0.000000000               0.000000000               0.000000000               0.000000000               0.000304902               0.001501146              -0.000423778              -0.000073305               0.000524812               0.000451507               0.000000000               0.000000000               0.000000000               0.000000000               0.000285980               0.001601958              -0.000357579              -0.000093002               0.000564981               0.000471979               0.000000000               0.000000000               0.000000000               0.000000000               0.000271058               0.001687225              -0.000297787              -0.000109256               0.000598822               0.000489565               0.000000000               0.000000000               0.000000000               0.000000000               0.000253617               0.001762155              -0.000248321              -0.000125163               0.000629100               0.000503937               0.000000000               0.000000000               0.000000000               0.000000000               0.000231003               0.001826742              -0.000209716              -0.000141716               0.000656147               0.000514430               0.000000000               0.000000000               0.000000000               0.000000000               0.000208239               0.001889453              -0.000177636              -0.000158092               0.000682508               0.000524417               0.000000000               0.000000000               0.000000000               0.000000000               0.000188163               0.001953843              -0.000141151              -0.000173669               0.000709164               0.000535495               0.000000000               0.000000000               0.000000000               0.000000000               0.000176227               0.002017729              -0.000107823              -0.000186131               0.000734613               0.000548482               0.000000000               0.000000000               0.000000000               0.000000000               0.000171559               0.002079834              -0.000083854              -0.000195644               0.000758486               0.000562842               0.000000000               0.000000000               0.000000000               0.000000000               0.000175424               0.002153060              -0.000062266              -0.000203348               0.000785462               0.000582114               0.000000000               0.000000000               0.000000000               0.000000000               0.000180399               0.002246399              -0.000040038              -0.000213150               0.000819842               0.000606693               0.000000000               0.000000000               0.000000000               0.000000000               0.000178551               0.002358904              -0.000018823              -0.000227906               0.000862262               0.000634356               0.000000000               0.000000000               0.000000000               0.000000000               0.000164866               0.002412024              -0.000004556              -0.000239678               0.000883892               0.000644215               0.000000000               0.000000000               0.000000000               0.000000000               0.000533142               0.000418388              -0.000404836               0.000147628               0.000090252               0.000237880               0.000000000               0.000000000               0.000000000               0.000000000               0.000528286               0.000646165              -0.000478173               0.000117335               0.000176274               0.000293609               0.000000000               0.000000000               0.000000000               0.000000000               0.000458983               0.000955748              -0.000516409               0.000052649               0.000301030               0.000353679               0.000000000               0.000000000               0.000000000               0.000000000               0.000405082               0.001173346              -0.000478772               0.000005237               0.000389366               0.000394602               0.000000000               0.000000000               0.000000000               0.000000000               0.000366817               0.001335404              -0.000423799              -0.000029370               0.000454920               0.000425550               0.000000000               0.000000000               0.000000000               0.000000000               0.000338154               0.001460661              -0.000365781              -0.000055775               0.000505474               0.000449699               0.000000000               0.000000000               0.000000000               0.000000000               0.000317890               0.001566977              -0.000309706              -0.000076664               0.000547875               0.000471212               0.000000000               0.000000000               0.000000000               0.000000000               0.000296654               0.001657426              -0.000260988              -0.000095933               0.000584448               0.000488515               0.000000000               0.000000000               0.000000000               0.000000000               0.000274429               0.001735650              -0.000223558              -0.000114045               0.000616559               0.000502514               0.000000000               0.000000000               0.000000000               0.000000000               0.000250319               0.001809988              -0.000191421              -0.000132379               0.000647450               0.000515071               0.000000000               0.000000000               0.000000000               0.000000000               0.000230706               0.001883727              -0.000159121              -0.000148951               0.000677553               0.000528602               0.000000000               0.000000000               0.000000000               0.000000000               0.000221894               0.001961705              -0.000131572              -0.000162002               0.000707896               0.000545893               0.000000000               0.000000000               0.000000000               0.000000000               0.000219353               0.002044886              -0.000108925              -0.000173353               0.000739406               0.000566053               0.000000000               0.000000000               0.000000000               0.000000000               0.000221628               0.002139239              -0.000086081              -0.000184294               0.000774504               0.000590210               0.000000000               0.000000000               0.000000000               0.000000000               0.000227132               0.002243155              -0.000058692              -0.000195219               0.000812784               0.000617564               0.000000000               0.000000000               0.000000000               0.000000000               0.000228196               0.002356579              -0.000028834              -0.000208998               0.000855185               0.000646186               0.000000000               0.000000000               0.000000000               0.000000000               0.000215190               0.002409088              -0.000010352              -0.000220439               0.000876501               0.000656062               0.000000000               0.000000000               0.000000000               0.000000000               0.000428877               0.000260599              -0.000284598               0.000128253               0.000044114               0.000172367               0.000000000               0.000000000               0.000000000               0.000000000               0.000508720               0.000464842              -0.000372366               0.000132663               0.000110724               0.000243388               0.000000000               0.000000000               0.000000000               0.000000000               0.000508422               0.000748948              -0.000434769               0.000097038               0.000217301               0.000314339               0.000000000               0.000000000               0.000000000               0.000000000               0.000474006               0.000978280              -0.000419731               0.000055467               0.000307601               0.000363068               0.000000000               0.000000000               0.000000000               0.000000000               0.000435346               0.001164303              -0.000380462               0.000017716               0.000382192               0.000399908               0.000000000               0.000000000               0.000000000               0.000000000               0.000400535               0.001311956              -0.000334732              -0.000013794               0.000441912               0.000428118               0.000000000               0.000000000               0.000000000               0.000000000               0.000370976               0.001432775              -0.000287889              -0.000039981               0.000490914               0.000450933               0.000000000               0.000000000               0.000000000               0.000000000               0.000345386               0.001536362              -0.000245886              -0.000062525               0.000532957               0.000470432               0.000000000               0.000000000               0.000000000               0.000000000               0.000323096               0.001629703              -0.000212432              -0.000082552               0.000570746               0.000488194               0.000000000               0.000000000               0.000000000               0.000000000               0.000301394               0.001716294              -0.000183362              -0.000101514               0.000605930               0.000504416               0.000000000               0.000000000               0.000000000               0.000000000               0.000283588               0.001803925              -0.000159002              -0.000119145               0.000641017               0.000521872               0.000000000               0.000000000               0.000000000               0.000000000               0.000273402               0.001898958              -0.000138421              -0.000134844               0.000677928               0.000543084               0.000000000               0.000000000               0.000000000               0.000000000               0.000269562               0.002003836              -0.000118552              -0.000149393               0.000717736               0.000568343               0.000000000               0.000000000               0.000000000               0.000000000               0.000273757               0.002123816              -0.000097311              -0.000162818               0.000762204               0.000599386               0.000000000               0.000000000               0.000000000               0.000000000               0.000281974               0.002247950              -0.000070883              -0.000175253               0.000807727               0.000632474               0.000000000               0.000000000               0.000000000               0.000000000               0.000290006               0.002364903              -0.000037942              -0.000186860               0.000850580               0.000663719               0.000000000               0.000000000               0.000000000               0.000000000               0.000283499               0.002415245              -0.000017334              -0.000195593               0.000870271               0.000674678               0.000000000               0.000000000               0.000000000               0.000000000               0.000334202               0.000148028              -0.000176284               0.000106821               0.000013735               0.000120556               0.000000000               0.000000000               0.000000000               0.000000000               0.000485411               0.000325470              -0.000252853               0.000141344               0.000061374               0.000202718               0.000000000               0.000000000               0.000000000               0.000000000               0.000547863               0.000579634              -0.000314525               0.000132993               0.000148878               0.000281871               0.000000000               0.000000000               0.000000000               0.000000000               0.000536421               0.000810190              -0.000313497               0.000099883               0.000236766               0.000336649               0.000000000               0.000000000               0.000000000               0.000000000               0.000500659               0.001010588              -0.000289678               0.000061423               0.000316385               0.000377808               0.000000000               0.000000000               0.000000000               0.000000000               0.000461756               0.001175780              -0.000258236               0.000026185               0.000383194               0.000409380               0.000000000               0.000000000               0.000000000               0.000000000               0.000424063               0.001307362              -0.000224478              -0.000004397               0.000437248               0.000432852               0.000000000               0.000000000               0.000000000               0.000000000               0.000393323               0.001420422              -0.000194841              -0.000030057               0.000483488               0.000453431               0.000000000               0.000000000               0.000000000               0.000000000               0.000367685               0.001523165              -0.000170777              -0.000052514               0.000525221               0.000472707               0.000000000               0.000000000               0.000000000               0.000000000               0.000348247               0.001624681              -0.000148169              -0.000072493               0.000565719               0.000493227               0.000000000               0.000000000               0.000000000               0.000000000               0.000332606               0.001734732              -0.000129172              -0.000092114               0.000608943               0.000516829               0.000000000               0.000000000               0.000000000               0.000000000               0.000321197               0.001849372              -0.000116013              -0.000110722               0.000653358               0.000542636               0.000000000               0.000000000               0.000000000               0.000000000               0.000319944               0.001970524              -0.000105148              -0.000126336               0.000698947               0.000572611               0.000000000               0.000000000               0.000000000               0.000000000               0.000329416               0.002106471              -0.000090071              -0.000139778               0.000748742               0.000608965               0.000000000               0.000000000               0.000000000               0.000000000               0.000344790               0.002249175              -0.000068740              -0.000151850               0.000800334               0.000648484               0.000000000               0.000000000               0.000000000               0.000000000               0.000360123               0.002374997              -0.000039868              -0.000161828               0.000845601               0.000683772               0.000000000               0.000000000               0.000000000               0.000000000               0.000364107               0.002427842              -0.000021770              -0.000166940               0.000864919               0.000697980               0.000000000               0.000000000               0.000000000               0.000000000               0.000267704               0.000083940              -0.000083084               0.000089896              -0.000001986               0.000087910               0.000000000               0.000000000               0.000000000               0.000000000               0.000467043               0.000239493              -0.000127595               0.000145203               0.000031429               0.000176632               0.000000000               0.000000000               0.000000000               0.000000000               0.000574879               0.000469381              -0.000165369               0.000156905               0.000104157               0.000261062               0.000000000               0.000000000               0.000000000               0.000000000               0.000578974               0.000695558              -0.000167829               0.000130169               0.000188461               0.000318630               0.000000000               0.000000000               0.000000000               0.000000000               0.000548531               0.000902482              -0.000157236               0.000092888               0.000269862               0.000362750               0.000000000               0.000000000               0.000000000               0.000000000               0.000506180               0.001077458              -0.000141170               0.000055135               0.000340771               0.000395905               0.000000000               0.000000000               0.000000000               0.000000000               0.000464930               0.001218764              -0.000123368               0.000022003               0.000398916               0.000420919               0.000000000               0.000000000               0.000000000               0.000000000               0.000429545               0.001338326              -0.000108621              -0.000006212               0.000448175               0.000441963               0.000000000               0.000000000               0.000000000               0.000000000               0.000399437               0.001446500              -0.000096750              -0.000031023               0.000492503               0.000461480               0.000000000               0.000000000               0.000000000               0.000000000               0.000376814               0.001557260              -0.000084446              -0.000053352               0.000536865               0.000483513               0.000000000               0.000000000               0.000000000               0.000000000               0.000365294               0.001680716              -0.000072258              -0.000073104               0.000584601               0.000511497               0.000000000               0.000000000               0.000000000               0.000000000               0.000361610               0.001815250              -0.000065915              -0.000091302               0.000635511               0.000544209               0.000000000               0.000000000               0.000000000               0.000000000               0.000364472               0.001956083              -0.000063393              -0.000107833               0.000687965               0.000580132               0.000000000               0.000000000               0.000000000               0.000000000               0.000373214               0.002097692              -0.000056976              -0.000122256               0.000739976               0.000617720               0.000000000               0.000000000               0.000000000               0.000000000               0.000391252               0.002239728              -0.000043640              -0.000133246               0.000790984               0.000657738               0.000000000               0.000000000               0.000000000               0.000000000               0.000416242               0.002369016              -0.000024992              -0.000140036               0.000836343               0.000696307               0.000000000               0.000000000               0.000000000               0.000000000               0.000431475               0.002427082              -0.000014737              -0.000141582               0.000856213               0.000714631               0.000000000               0.000000000               0.000000000               0.000000000               0.000000000               0.000000000               0.000000000               0.000000000               0.000000000               0.000000000               0.000000000               0.000000000               0.000000000               0.000000000               0.000000000               0.000000000               0.000000000               0.000000000               0.000000000               0.000000000               0.000000000               0.000000000               0.000000000               0.000000000               0.000000000               0.000000000               0.000000000               0.000000000               0.000000000               0.000000000               0.000000000               0.000000000               0.000000000               0.000000000               0.000000000               0.000000000               0.000000000               0.000000000               0.000000000               0.000000000               0.000000000               0.000000000               0.000000000               0.000000000               0.000000000               0.000000000               0.000000000               0.000000000               0.000000000               0.000000000               0.000000000               0.000000000               0.000000000               0.000000000               0.000000000               0.000000000               0.000000000               0.000000000               0.000000000               0.000000000               0.000000000               0.000000000               0.000000000               0.000000000               0.000000000               0.000000000               0.000000000               0.000000000               0.000000000               0.000000000               0.000000000               0.000000000               0.000000000               0.000000000               0.000000000               0.000000000               0.000000000               0.000000000               0.000000000               0.000000000               0.000000000               0.000000000               0.000000000               0.000000000               0.000000000               0.000000000               0.000000000               0.000000000               0.000000000               0.000000000               0.000000000               0.000000000               0.000000000               0.000000000               0.000000000               0.000000000               0.000000000               0.000000000               0.000000000               0.000000000               0.000000000               0.000000000               0.000000000               0.000000000               0.000000000               0.000000000               0.000000000               0.000000000               0.000000000               0.000000000               0.000000000               0.000000000               0.000000000               0.000000000               0.000000000               0.000000000               0.000000000               0.000000000               0.000000000               0.000000000               0.000000000               0.000000000               0.000000000               0.000000000               0.000000000               0.000000000               0.000000000               0.000000000               0.000000000               0.000000000               0.000000000               0.000000000               0.000000000               0.000000000               0.000000000               0.000000000               0.000000000               0.000000000               0.000000000               0.000000000               0.000000000               0.000000000               0.000000000               0.000000000               0.000000000               0.000000000               0.000000000               0.000000000               0.000000000               0.000000000               0.000000000               0.000000000               0.000000000               0.000000000               0.000000000               0.000000000               0.000000000               0.000000000               0.000000000               0.000000000               0.000000000               0.000000000               0.000000000               0.000000000               0.000000000               0.000000000               0.000000000               0.000000000               0.000000000               0.000000000               0.000000000               0.000000000               0.000000000               0.000000000               0.000000000               0.000000000               0.000000000               0.000000000               0.000000000               0.000000000               0.000000000               0.000000000               0.000000000               0.000000000               0.000000000               0.000000000               0.000000000               0.000000000               0.000000000               0.000000000               0.000000000               0.000000000               0.000000000               0.000000000               0.000000000               0.000000000               0.000000000               0.000000000               0.000000000               0.000000000               0.000000000               0.000000000               0.000000000               0.000000000               0.000000000               0.000000000               0.000000000               0.000000000               0.000000000               0.000000000               0.000000000               0.000000000               0.000000000               0.000000000               0.000000000               0.000000000               0.000000000               0.000000000               0.000000000               0.000000000               0.000000000               0.000000000               0.000000000               0.000000000               0.000000000               0.000000000               0.000000000               0.000000000               0.000000000               0.000000000               0.000000000               0.000000000               0.000000000               0.000000000               0.000000000               0.000000000               0.000000000               0.000000000               0.000000000               0.000000000               0.000000000               0.000000000               0.000000000               0.000000000               0.000000000               0.000000000               0.000000000               0.000000000               0.000000000               0.000000000               0.000000000               0.000000000               0.000000000               0.000000000               0.000000000               0.000000000               0.000000000               0.000000000               0.000000000               0.000000000               0.000000000               0.000000000               0.000000000               0.000000000               0.000000000               0.000000000               0.000000000               0.000000000               0.000000000               0.000000000               0.000000000               0.000000000               0.000000000               0.000000000               0.000000000               0.000000000               0.000000000               0.000000000               0.000000000               0.000000000               0.000000000               0.000000000               0.000000000               0.000000000               0.000000000               0.000000000               0.000000000               0.000000000               0.000000000               0.000000000               0.000000000               0.000000000               0.000000000               0.000000000               0.000000000               0.000000000               0.000000000               0.000000000               0.000000000               0.000000000               0.000000000               0.000000000               0.000000000               0.000000000               0.000000000               0.000000000               0.000000000               0.000000000               0.000000000               0.000000000               0.000000000               0.000000000               0.000000000               0.000000000               0.000000000               0.000000000               0.000000000               0.000000000               0.000000000               0.000000000               0.000000000               0.000000000               0.000000000               0.000000000               0.000000000               0.000000000               0.000000000               0.000000000               0.000000000               0.000000000               0.000000000               0.000000000               0.000000000               0.000000000               0.000000000               0.000000000               0.000000000               0.000000000               0.000000000               0.000000000               0.000000000               0.000000000               0.000000000               0.000000000               0.000340389               0.003516558               0.000280623              -0.000311923               0.001276148               0.000964225               0.000000000               0.000000000               0.000000000               0.000000000               0.000379200               0.002941180               0.000190371              -0.000225447               0.001055533               0.000830086               0.000000000               0.000000000               0.000000000               0.000000000               0.000526233               0.002478224               0.000095680              -0.000112440               0.000863547               0.000751106               0.000000000               0.000000000               0.000000000               0.000000000               0.000561949               0.002222059               0.000049675              -0.000067026               0.000763021               0.000695995               0.000000000               0.000000000               0.000000000               0.000000000               0.000551084               0.002074805               0.000026415              -0.000052694               0.000709160               0.000656466               0.000000000               0.000000000               0.000000000               0.000000000               0.000514805               0.001988888               0.000015101              -0.000055559               0.000681476               0.000625917               0.000000000               0.000000000               0.000000000               0.000000000               0.000467372               0.001940807               0.000009796              -0.000067336               0.000669375               0.000602038               0.000000000               0.000000000               0.000000000               0.000000000               0.000416419               0.001915818               0.000007766              -0.000083320               0.000666373               0.000583053               0.000000000               0.000000000               0.000000000               0.000000000               0.000363901               0.001907417               0.000007176              -0.000101964               0.000669787               0.000567823               0.000000000               0.000000000               0.000000000               0.000000000               0.000310647               0.001909551               0.000006293              -0.000122201               0.000677244               0.000555043               0.000000000               0.000000000               0.000000000               0.000000000               0.000257991               0.001922667               0.000004307              -0.000143586               0.000688745               0.000545158               0.000000000               0.000000000               0.000000000               0.000000000               0.000204914               0.001943488               0.000002327              -0.000166093               0.000703187               0.000537094               0.000000000               0.000000000               0.000000000               0.000000000               0.000153543               0.001970409               0.000002857              -0.000188722               0.000719704               0.000530982               0.000000000               0.000000000               0.000000000               0.000000000               0.000107839               0.001998672               0.000005309              -0.000209394               0.000736015               0.000526621               0.000000000               0.000000000               0.000000000               0.000000000               0.000068693               0.002027128               0.000007468              -0.000227631               0.000751579               0.000523949               0.000000000               0.000000000               0.000000000               0.000000000               0.000033367               0.002058067               0.000004793              -0.000244745               0.000767597               0.000522852               0.000000000               0.000000000               0.000000000               0.000000000               0.000019811               0.002083714               0.000002435              -0.000253034               0.000778909               0.000525875               0.000000000               0.000000000               0.000000000               0.000000000               0.000399089               0.003358547               0.000533541              -0.000270159               0.001209558               0.000939398               0.000000000               0.000000000               0.000000000               0.000000000               0.000401053               0.002827288               0.000361241              -0.000203016               0.001010092               0.000807076               0.000000000               0.000000000               0.000000000               0.000000000               0.000508394               0.002417762               0.000182846              -0.000111572               0.000843103               0.000731531               0.000000000               0.000000000               0.000000000               0.000000000               0.000525154               0.002192220               0.000098607              -0.000077095               0.000756431               0.000679336               0.000000000               0.000000000               0.000000000               0.000000000               0.000506769               0.002062215               0.000056969              -0.000067738               0.000709978               0.000642239               0.000000000               0.000000000               0.000000000               0.000000000               0.000469364               0.001985282               0.000036186              -0.000072149               0.000685804               0.000613655               0.000000000               0.000000000               0.000000000               0.000000000               0.000424892               0.001940994               0.000026833              -0.000083290               0.000674755               0.000591465               0.000000000               0.000000000               0.000000000               0.000000000               0.000380464               0.001919364               0.000022565              -0.000097246               0.000672197               0.000574951               0.000000000               0.000000000               0.000000000               0.000000000               0.000332671               0.001910983               0.000020283              -0.000114121               0.000675028               0.000560907               0.000000000               0.000000000               0.000000000               0.000000000               0.000283127               0.001913908               0.000017320              -0.000133065               0.000682318               0.000549253               0.000000000               0.000000000               0.000000000               0.000000000               0.000233809               0.001926477               0.000012466              -0.000153131               0.000693196               0.000540065               0.000000000               0.000000000               0.000000000               0.000000000               0.000184268               0.001945813               0.000008143              -0.000174126               0.000706640               0.000532514               0.000000000               0.000000000               0.000000000               0.000000000               0.000137736               0.001967889               0.000008706              -0.000194335               0.000720735               0.000526400               0.000000000               0.000000000               0.000000000               0.000000000               0.000096779               0.001988876               0.000014250              -0.000212317               0.000733724               0.000521407               0.000000000               0.000000000               0.000000000               0.000000000               0.000062738               0.002009724               0.000015638              -0.000227688               0.000745797               0.000518109               0.000000000               0.000000000               0.000000000               0.000000000               0.000032936               0.002034542               0.000008594              -0.000241966               0.000758829               0.000516863               0.000000000               0.000000000               0.000000000               0.000000000               0.000020801               0.002054704               0.000004186              -0.000249037               0.000767907               0.000518870               0.000000000               0.000000000               0.000000000               0.000000000               0.000482697               0.003112344               0.000736892              -0.000208032               0.001106781               0.000898750               0.000000000               0.000000000               0.000000000               0.000000000               0.000429164               0.002654568               0.000499275              -0.000170884               0.000941809               0.000770924               0.000000000               0.000000000               0.000000000               0.000000000               0.000476805               0.002326515               0.000256978              -0.000112012               0.000812834               0.000700822               0.000000000               0.000000000               0.000000000               0.000000000               0.000468205               0.002146656               0.000146994              -0.000092755               0.000746463               0.000653708               0.000000000               0.000000000               0.000000000               0.000000000               0.000442194               0.002042987               0.000093576              -0.000089550               0.000710839               0.000621289               0.000000000               0.000000000               0.000000000               0.000000000               0.000405994               0.001979908               0.000067204              -0.000095240               0.000691710               0.000596469               0.000000000               0.000000000               0.000000000               0.000000000               0.000366681               0.001942300               0.000053102              -0.000105282               0.000682521               0.000577239               0.000000000               0.000000000               0.000000000               0.000000000               0.000329533               0.001922797               0.000045703              -0.000116775               0.000679851               0.000563076               0.000000000               0.000000000               0.000000000               0.000000000               0.000289700               0.001915045               0.000039968              -0.000130743               0.000681923               0.000551180               0.000000000               0.000000000               0.000000000               0.000000000               0.000247463               0.001919253               0.000032782              -0.000147108               0.000688780               0.000541673               0.000000000               0.000000000               0.000000000               0.000000000               0.000203158               0.001931119               0.000023698              -0.000165205               0.000698768               0.000533563               0.000000000               0.000000000               0.000000000               0.000000000               0.000159402               0.001948106               0.000017038              -0.000183737               0.000710608               0.000526871               0.000000000               0.000000000               0.000000000               0.000000000               0.000120698               0.001962626               0.000018198              -0.000200066               0.000720891               0.000520825               0.000000000               0.000000000               0.000000000               0.000000000               0.000087774               0.001974287               0.000023600              -0.000213870               0.000729379               0.000515509               0.000000000               0.000000000               0.000000000               0.000000000               0.000056793               0.001984959               0.000021480              -0.000226822               0.000737254               0.000510432               0.000000000               0.000000000               0.000000000               0.000000000               0.000027736               0.001998506               0.000009368              -0.000239412               0.000745966               0.000506554               0.000000000               0.000000000               0.000000000               0.000000000               0.000015579               0.002009728               0.000003040              -0.000245373               0.000751694               0.000506321               0.000000000               0.000000000               0.000000000               0.000000000               0.000573544               0.002804558               0.000876702              -0.000135491               0.000980007               0.000844516               0.000000000               0.000000000               0.000000000               0.000000000               0.000455898               0.002443322               0.000598961              -0.000134454               0.000859250               0.000724797               0.000000000               0.000000000               0.000000000               0.000000000               0.000435436               0.002219766               0.000319028              -0.000114182               0.000777975               0.000663793               0.000000000               0.000000000               0.000000000               0.000000000               0.000402907               0.002093469               0.000196214              -0.000110593               0.000734681               0.000624087               0.000000000               0.000000000               0.000000000               0.000000000               0.000370265               0.002017443               0.000136868              -0.000113331               0.000710251               0.000596920               0.000000000               0.000000000               0.000000000               0.000000000               0.000337043               0.001968984               0.000105013              -0.000119732               0.000696232               0.000576500               0.000000000               0.000000000               0.000000000               0.000000000               0.000304370               0.001939885               0.000086464              -0.000128346               0.000689404               0.000561058               0.000000000               0.000000000               0.000000000               0.000000000               0.000274111               0.001923826               0.000073984              -0.000137686               0.000687164               0.000549478               0.000000000               0.000000000               0.000000000               0.000000000               0.000243506               0.001922179               0.000062570              -0.000148957               0.000690372               0.000541415               0.000000000               0.000000000               0.000000000               0.000000000               0.000208667               0.001928520               0.000049207              -0.000162815               0.000697105               0.000534291               0.000000000               0.000000000               0.000000000               0.000000000               0.000172228               0.001942057               0.000035228              -0.000178171               0.000706736               0.000528565               0.000000000               0.000000000               0.000000000               0.000000000               0.000135672               0.001951834               0.000026187              -0.000193102               0.000714972               0.000521870               0.000000000               0.000000000               0.000000000               0.000000000               0.000106233               0.001957544               0.000025718              -0.000204855               0.000720793               0.000515938               0.000000000               0.000000000               0.000000000               0.000000000               0.000080797               0.001962765               0.000028661              -0.000215046               0.000725930               0.000510884               0.000000000               0.000000000               0.000000000               0.000000000               0.000052168               0.001968980               0.000022383              -0.000226559               0.000731840               0.000505281               0.000000000               0.000000000               0.000000000               0.000000000               0.000025180               0.001977895               0.000007652              -0.000237794               0.000738556               0.000500763               0.000000000               0.000000000               0.000000000               0.000000000               0.000014901               0.001985618               0.000001538              -0.000242614               0.000742737               0.000500124               0.000000000               0.000000000               0.000000000               0.000000000               0.000649807               0.002462509               0.000951699              -0.000064137               0.000842207               0.000778070               0.000000000               0.000000000               0.000000000               0.000000000               0.000475101               0.002214422               0.000661276              -0.000098640               0.000771013               0.000672373               0.000000000               0.000000000               0.000000000               0.000000000               0.000389893               0.002104377               0.000370319              -0.000116837               0.000740398               0.000623561               0.000000000               0.000000000               0.000000000               0.000000000               0.000337637               0.002030253               0.000245232              -0.000127168               0.000719133               0.000591966               0.000000000               0.000000000               0.000000000               0.000000000               0.000303391               0.001982316               0.000182342              -0.000134018               0.000705438               0.000571420               0.000000000               0.000000000               0.000000000               0.000000000               0.000276402               0.001952392               0.000145556              -0.000140398               0.000697590               0.000557192               0.000000000               0.000000000               0.000000000               0.000000000               0.000249828               0.001935047               0.000121523              -0.000148195               0.000694408               0.000546213               0.000000000               0.000000000               0.000000000               0.000000000               0.000225882               0.001929142               0.000102254              -0.000156437               0.000695187               0.000538750               0.000000000               0.000000000               0.000000000               0.000000000               0.000201638               0.001933441               0.000082683              -0.000166066               0.000699829               0.000533763               0.000000000               0.000000000               0.000000000               0.000000000               0.000172542               0.001944815               0.000061932              -0.000178398               0.000707731               0.000529333               0.000000000               0.000000000               0.000000000               0.000000000               0.000144485               0.001956970               0.000044291              -0.000190439               0.000715796               0.000525358               0.000000000               0.000000000               0.000000000               0.000000000               0.000120460               0.001960564               0.000034183              -0.000199897               0.000720147               0.000520250               0.000000000               0.000000000               0.000000000               0.000000000               0.000098561               0.001961020               0.000029446              -0.000208167               0.000723056               0.000514889               0.000000000               0.000000000               0.000000000               0.000000000               0.000075073               0.001965772               0.000027143              -0.000217568               0.000727774               0.000510205               0.000000000               0.000000000               0.000000000               0.000000000               0.000048163               0.001977354               0.000018111              -0.000229107               0.000735480               0.000506373               0.000000000               0.000000000               0.000000000               0.000000000               0.000022899               0.001991899               0.000004596              -0.000240400               0.000744093               0.000503693               0.000000000               0.000000000               0.000000000               0.000000000               0.000014368               0.002003065               0.000000826              -0.000244994               0.000749347               0.000504352               0.000000000               0.000000000               0.000000000               0.000000000               0.000702057               0.002107713               0.000967629              -0.000000194               0.000702628               0.000702434               0.000000000               0.000000000               0.000000000               0.000000000               0.000483589               0.001981793               0.000691182              -0.000066379               0.000682717               0.000616338               0.000000000               0.000000000               0.000000000               0.000000000               0.000345887               0.001983476               0.000412379              -0.000118227               0.000700561               0.000582334               0.000000000               0.000000000               0.000000000               0.000000000               0.000283985               0.001959823               0.000290828              -0.000138483               0.000699429               0.000560945               0.000000000               0.000000000               0.000000000               0.000000000               0.000252821               0.001942239               0.000225122              -0.000147972               0.000696730               0.000548759               0.000000000               0.000000000               0.000000000               0.000000000               0.000231844               0.001933663               0.000182988              -0.000154766               0.000696137               0.000541370               0.000000000               0.000000000               0.000000000               0.000000000               0.000209341               0.001929925               0.000151680              -0.000162737               0.000697548               0.000534810               0.000000000               0.000000000               0.000000000               0.000000000               0.000188494               0.001935085               0.000124620              -0.000171200               0.000702089               0.000530888               0.000000000               0.000000000               0.000000000               0.000000000               0.000167889               0.001948436               0.000097326              -0.000180596               0.000709671               0.000529075               0.000000000               0.000000000               0.000000000               0.000000000               0.000142865               0.001964671               0.000071126              -0.000192009               0.000718887               0.000526878               0.000000000               0.000000000               0.000000000               0.000000000               0.000122701               0.001976235               0.000052344              -0.000201016               0.000725744               0.000524728               0.000000000               0.000000000               0.000000000               0.000000000               0.000110176               0.001981273               0.000041990              -0.000206343               0.000729199               0.000522856               0.000000000               0.000000000               0.000000000               0.000000000               0.000093976               0.001985909               0.000033759              -0.000212997               0.000732962               0.000519965               0.000000000               0.000000000               0.000000000               0.000000000               0.000071754               0.001999091               0.000025408              -0.000222978               0.000740683               0.000517705               0.000000000               0.000000000               0.000000000               0.000000000               0.000047699               0.002021768               0.000013499              -0.000234833               0.000752194               0.000517360               0.000000000               0.000000000               0.000000000               0.000000000               0.000024564               0.002045860               0.000002668              -0.000246520               0.000764120               0.000517600               0.000000000               0.000000000               0.000000000               0.000000000               0.000017456               0.002063471               0.000001643              -0.000251387               0.000771612               0.000520225               0.000000000               0.000000000               0.000000000               0.000000000               0.000731108               0.001762072               0.000930715               0.000053905               0.000569383               0.000623288               0.000000000               0.000000000               0.000000000               0.000000000               0.000483997               0.001758867               0.000693269              -0.000038360               0.000599070               0.000560709               0.000000000               0.000000000               0.000000000               0.000000000               0.000311688               0.001865041               0.000446873              -0.000116247               0.000660423               0.000544176               0.000000000               0.000000000               0.000000000               0.000000000               0.000249038               0.001889359               0.000331035              -0.000142780               0.000677373               0.000534593               0.000000000               0.000000000               0.000000000               0.000000000               0.000222650               0.001900004               0.000260670              -0.000154007               0.000684664               0.000530657               0.000000000               0.000000000               0.000000000               0.000000000               0.000205515               0.001909722               0.000211067              -0.000161647               0.000690450               0.000528803               0.000000000               0.000000000               0.000000000               0.000000000               0.000185778               0.001921578               0.000171437              -0.000170530               0.000697363               0.000526833               0.000000000               0.000000000               0.000000000               0.000000000               0.000162850               0.001941259               0.000136678              -0.000181588               0.000707609               0.000526021               0.000000000               0.000000000               0.000000000               0.000000000               0.000140529               0.001967582               0.000105820              -0.000193249               0.000720270               0.000527021               0.000000000               0.000000000               0.000000000               0.000000000               0.000122782               0.001991708               0.000077616              -0.000202920               0.000731536               0.000528616               0.000000000               0.000000000               0.000000000               0.000000000               0.000110960               0.002007898               0.000057596              -0.000209377               0.000739085               0.000529708               0.000000000               0.000000000               0.000000000               0.000000000               0.000101493               0.002022351               0.000047106              -0.000214733               0.000745688               0.000530955               0.000000000               0.000000000               0.000000000               0.000000000               0.000086534               0.002044688               0.000035567              -0.000223135               0.000755934               0.000532799               0.000000000               0.000000000               0.000000000               0.000000000               0.000065583               0.002078643               0.000021328              -0.000235236               0.000771286               0.000536050               0.000000000               0.000000000               0.000000000               0.000000000               0.000044477               0.002121323               0.000007864              -0.000248486               0.000789929               0.000541443               0.000000000               0.000000000               0.000000000               0.000000000               0.000025667               0.002166078              -0.000000633              -0.000261134               0.000809063               0.000547929               0.000000000               0.000000000               0.000000000               0.000000000               0.000020436               0.002197432               0.000000391              -0.000267015               0.000821475               0.000554460               0.000000000               0.000000000               0.000000000               0.000000000               0.000743617               0.001454613               0.000857331               0.000097028               0.000452523               0.000549551               0.000000000               0.000000000               0.000000000               0.000000000               0.000490182               0.001558006               0.000681160              -0.000010934               0.000522975               0.000512041               0.000000000               0.000000000               0.000000000               0.000000000               0.000300199               0.001756492               0.000483523              -0.000106987               0.000621154               0.000514167               0.000000000               0.000000000               0.000000000               0.000000000               0.000240189               0.001824238               0.000371418              -0.000137959               0.000654059               0.000516101               0.000000000               0.000000000               0.000000000               0.000000000               0.000215446               0.001858458               0.000294870              -0.000151515               0.000669984               0.000518470               0.000000000               0.000000000               0.000000000               0.000000000               0.000200993               0.001885879               0.000236714              -0.000160362               0.000682074               0.000521712               0.000000000               0.000000000               0.000000000               0.000000000               0.000183829               0.001915687               0.000189806              -0.000170525               0.000695398               0.000524873               0.000000000               0.000000000               0.000000000               0.000000000               0.000160910               0.001951217               0.000150646              -0.000183560               0.000711586               0.000528026               0.000000000               0.000000000               0.000000000               0.000000000               0.000136488               0.001989530               0.000118024              -0.000197508               0.000729006               0.000531498               0.000000000               0.000000000               0.000000000               0.000000000               0.000123170               0.002022294               0.000089517              -0.000206597               0.000742957               0.000536360               0.000000000               0.000000000               0.000000000               0.000000000               0.000113681               0.002042757               0.000066269              -0.000212714               0.000751817               0.000539103               0.000000000               0.000000000               0.000000000               0.000000000               0.000103347               0.002067966               0.000049700              -0.000219740               0.000762562               0.000542822               0.000000000               0.000000000               0.000000000               0.000000000               0.000090664               0.002112346               0.000032027              -0.000230044               0.000780790               0.000550746               0.000000000               0.000000000               0.000000000               0.000000000               0.000072835               0.002172146               0.000012443              -0.000244205               0.000805443               0.000561238               0.000000000               0.000000000               0.000000000               0.000000000               0.000056787               0.002242259              -0.000002915              -0.000258987               0.000833741               0.000574754               0.000000000               0.000000000               0.000000000               0.000000000               0.000047533               0.002314724              -0.000008028              -0.000271515               0.000862072               0.000590557               0.000000000               0.000000000               0.000000000               0.000000000               0.000044170               0.002355465              -0.000006155              -0.000277869               0.000877770               0.000599901               0.000000000               0.000000000               0.000000000               0.000000000               0.000734774               0.001152243               0.000765865               0.000131508               0.000340241               0.000471749               0.000000000               0.000000000               0.000000000               0.000000000               0.000509020               0.001323109               0.000663085               0.000025493               0.000432534               0.000458027               0.000000000               0.000000000               0.000000000               0.000000000               0.000317716               0.001587749               0.000527322              -0.000079326               0.000555686               0.000476361               0.000000000               0.000000000               0.000000000               0.000000000               0.000253819               0.001700594               0.000422272              -0.000117392               0.000605990               0.000488597               0.000000000               0.000000000               0.000000000               0.000000000               0.000228714               0.001763787               0.000342030              -0.000134706               0.000632825               0.000498119               0.000000000               0.000000000               0.000000000               0.000000000               0.000214828               0.001813959               0.000276770              -0.000146184               0.000653375               0.000507191               0.000000000               0.000000000               0.000000000               0.000000000               0.000200133               0.001859320               0.000223187              -0.000157365               0.000672222               0.000514857               0.000000000               0.000000000               0.000000000               0.000000000               0.000181513               0.001907316               0.000180150              -0.000170347               0.000692548               0.000522201               0.000000000               0.000000000               0.000000000               0.000000000               0.000159234               0.001956775               0.000146557              -0.000184884               0.000713880               0.000528996               0.000000000               0.000000000               0.000000000               0.000000000               0.000140096               0.001998731               0.000116818              -0.000197305               0.000732005               0.000534700               0.000000000               0.000000000               0.000000000               0.000000000               0.000129082               0.002033690               0.000088177              -0.000205805               0.000746492               0.000540687               0.000000000               0.000000000               0.000000000               0.000000000               0.000117115               0.002069114               0.000063197              -0.000214721               0.000761271               0.000546551               0.000000000               0.000000000               0.000000000               0.000000000               0.000105831               0.002120133               0.000038950              -0.000225329               0.000781814               0.000556484               0.000000000               0.000000000               0.000000000               0.000000000               0.000094997               0.002192022               0.000016381              -0.000238378               0.000810126               0.000571748               0.000000000               0.000000000               0.000000000               0.000000000               0.000089719               0.002283757               0.000004126              -0.000251824               0.000845186               0.000593362               0.000000000               0.000000000               0.000000000               0.000000000               0.000092321               0.002384507               0.000000756              -0.000263443               0.000882642               0.000619199               0.000000000               0.000000000               0.000000000               0.000000000               0.000089968               0.002430893              -0.000001584              -0.000270123               0.000900330               0.000630208               0.000000000               0.000000000               0.000000000               0.000000000               0.000695105               0.000869194               0.000656862               0.000152013               0.000239057               0.000391070               0.000000000               0.000000000               0.000000000               0.000000000               0.000529015               0.001086920               0.000627865               0.000062514               0.000341465               0.000403979               0.000000000               0.000000000               0.000000000               0.000000000               0.000357913               0.001393593               0.000558244              -0.000039982               0.000477853               0.000437871               0.000000000               0.000000000               0.000000000               0.000000000               0.000288491               0.001549373               0.000470276              -0.000085488               0.000544948               0.000459461               0.000000000               0.000000000               0.000000000               0.000000000               0.000258983               0.001646999               0.000392000              -0.000108756               0.000585246               0.000476490               0.000000000               0.000000000               0.000000000               0.000000000               0.000244843               0.001721860               0.000323216              -0.000123416               0.000615086               0.000491670               0.000000000               0.000000000               0.000000000               0.000000000               0.000231567               0.001785004               0.000264947              -0.000136288               0.000640425               0.000504137               0.000000000               0.000000000               0.000000000               0.000000000               0.000215822               0.001845264               0.000217974              -0.000149724               0.000664990               0.000515266               0.000000000               0.000000000               0.000000000               0.000000000               0.000194908               0.001900896               0.000181272              -0.000164521               0.000688466               0.000523945               0.000000000               0.000000000               0.000000000               0.000000000               0.000172574               0.001952141               0.000149883              -0.000179302               0.000710475               0.000531172               0.000000000               0.000000000               0.000000000               0.000000000               0.000156488               0.002002748               0.000116272              -0.000191660               0.000731463               0.000539803               0.000000000               0.000000000               0.000000000               0.000000000               0.000142365               0.002051478               0.000083585              -0.000203047               0.000751501               0.000548454               0.000000000               0.000000000               0.000000000               0.000000000               0.000133619               0.002105549               0.000056559              -0.000213086               0.000772871               0.000559786               0.000000000               0.000000000               0.000000000               0.000000000               0.000133222               0.002173165               0.000034567              -0.000221687               0.000798277               0.000576590               0.000000000               0.000000000               0.000000000               0.000000000               0.000135751               0.002263759               0.000020163              -0.000232063               0.000831933               0.000599870               0.000000000               0.000000000               0.000000000               0.000000000               0.000136138               0.002370877               0.000009196              -0.000245307               0.000872054               0.000626746               0.000000000               0.000000000               0.000000000               0.000000000               0.000127209               0.002419230               0.000000461              -0.000254700               0.000891302               0.000636602               0.000000000               0.000000000               0.000000000               0.000000000               0.000625964               0.000621701               0.000532262               0.000157022               0.000154890               0.000311912               0.000000000               0.000000000               0.000000000               0.000000000               0.000535342               0.000857432               0.000565216               0.000093573               0.000254617               0.000348190               0.000000000               0.000000000               0.000000000               0.000000000               0.000406317               0.001176934               0.000556778               0.000005251               0.000390557               0.000395808               0.000000000               0.000000000               0.000000000               0.000000000               0.000340837               0.001370099               0.000492669              -0.000043449               0.000471178               0.000427729               0.000000000               0.000000000               0.000000000               0.000000000               0.000304902               0.001501146               0.000423778              -0.000073305               0.000524812               0.000451507               0.000000000               0.000000000               0.000000000               0.000000000               0.000285980               0.001601958               0.000357579              -0.000093002               0.000564981               0.000471979               0.000000000               0.000000000               0.000000000               0.000000000               0.000271058               0.001687225               0.000297787              -0.000109256               0.000598822               0.000489565               0.000000000               0.000000000               0.000000000               0.000000000               0.000253617               0.001762155               0.000248321              -0.000125163               0.000629100               0.000503937               0.000000000               0.000000000               0.000000000               0.000000000               0.000231003               0.001826742               0.000209716              -0.000141716               0.000656147               0.000514430               0.000000000               0.000000000               0.000000000               0.000000000               0.000208239               0.001889453               0.000177636              -0.000158092               0.000682508               0.000524417               0.000000000               0.000000000               0.000000000               0.000000000               0.000188163               0.001953843               0.000141151              -0.000173669               0.000709164               0.000535495               0.000000000               0.000000000               0.000000000               0.000000000               0.000176227               0.002017729               0.000107823              -0.000186131               0.000734613               0.000548482               0.000000000               0.000000000               0.000000000               0.000000000               0.000171559               0.002079834               0.000083854              -0.000195644               0.000758486               0.000562842               0.000000000               0.000000000               0.000000000               0.000000000               0.000175424               0.002153060               0.000062266              -0.000203348               0.000785462               0.000582114               0.000000000               0.000000000               0.000000000               0.000000000               0.000180399               0.002246399               0.000040038              -0.000213150               0.000819842               0.000606693               0.000000000               0.000000000               0.000000000               0.000000000               0.000178551               0.002358904               0.000018823              -0.000227906               0.000862262               0.000634356               0.000000000               0.000000000               0.000000000               0.000000000               0.000164866               0.002412024               0.000004556              -0.000239678               0.000883892               0.000644215               0.000000000               0.000000000               0.000000000               0.000000000               0.000533142               0.000418388               0.000404836               0.000147628               0.000090252               0.000237880               0.000000000               0.000000000               0.000000000               0.000000000               0.000528286               0.000646165               0.000478173               0.000117335               0.000176274               0.000293609               0.000000000               0.000000000               0.000000000               0.000000000               0.000458983               0.000955748               0.000516409               0.000052649               0.000301030               0.000353679               0.000000000               0.000000000               0.000000000               0.000000000               0.000405082               0.001173346               0.000478772               0.000005237               0.000389366               0.000394602               0.000000000               0.000000000               0.000000000               0.000000000               0.000366817               0.001335404               0.000423799              -0.000029370               0.000454920               0.000425550               0.000000000               0.000000000               0.000000000               0.000000000               0.000338154               0.001460661               0.000365781              -0.000055775               0.000505474               0.000449699               0.000000000               0.000000000               0.000000000               0.000000000               0.000317890               0.001566977               0.000309706              -0.000076664               0.000547875               0.000471212               0.000000000               0.000000000               0.000000000               0.000000000               0.000296654               0.001657426               0.000260988              -0.000095933               0.000584448               0.000488515               0.000000000               0.000000000               0.000000000               0.000000000               0.000274429               0.001735650               0.000223558              -0.000114045               0.000616559               0.000502514               0.000000000               0.000000000               0.000000000               0.000000000               0.000250319               0.001809988               0.000191421              -0.000132379               0.000647450               0.000515071               0.000000000               0.000000000               0.000000000               0.000000000               0.000230706               0.001883727               0.000159121              -0.000148951               0.000677553               0.000528602               0.000000000               0.000000000               0.000000000               0.000000000               0.000221894               0.001961705               0.000131572              -0.000162002               0.000707896               0.000545893               0.000000000               0.000000000               0.000000000               0.000000000               0.000219353               0.002044886               0.000108925              -0.000173353               0.000739406               0.000566053               0.000000000               0.000000000               0.000000000               0.000000000               0.000221628               0.002139239               0.000086081              -0.000184294               0.000774504               0.000590210               0.000000000               0.000000000               0.000000000               0.000000000               0.000227132               0.002243155               0.000058692              -0.000195219               0.000812784               0.000617564               0.000000000               0.000000000               0.000000000               0.000000000               0.000228196               0.002356579               0.000028834              -0.000208998               0.000855185               0.000646186               0.000000000               0.000000000               0.000000000               0.000000000               0.000215190               0.002409088               0.000010352              -0.000220439               0.000876501               0.000656062               0.000000000               0.000000000               0.000000000               0.000000000               0.000428877               0.000260599               0.000284598               0.000128253               0.000044114               0.000172367               0.000000000               0.000000000               0.000000000               0.000000000               0.000508720               0.000464842               0.000372366               0.000132663               0.000110724               0.000243388               0.000000000               0.000000000               0.000000000               0.000000000               0.000508422               0.000748948               0.000434769               0.000097038               0.000217301               0.000314339               0.000000000               0.000000000               0.000000000               0.000000000               0.000474006               0.000978280               0.000419731               0.000055467               0.000307601               0.000363068               0.000000000               0.000000000               0.000000000               0.000000000               0.000435346               0.001164303               0.000380462               0.000017716               0.000382192               0.000399908               0.000000000               0.000000000               0.000000000               0.000000000               0.000400535               0.001311956               0.000334732              -0.000013794               0.000441912               0.000428118               0.000000000               0.000000000               0.000000000               0.000000000               0.000370976               0.001432775               0.000287889              -0.000039981               0.000490914               0.000450933               0.000000000               0.000000000               0.000000000               0.000000000               0.000345386               0.001536362               0.000245886              -0.000062525               0.000532957               0.000470432               0.000000000               0.000000000               0.000000000               0.000000000               0.000323096               0.001629703               0.000212432              -0.000082552               0.000570746               0.000488194               0.000000000               0.000000000               0.000000000               0.000000000               0.000301394               0.001716294               0.000183362              -0.000101514               0.000605930               0.000504416               0.000000000               0.000000000               0.000000000               0.000000000               0.000283588               0.001803925               0.000159002              -0.000119145               0.000641017               0.000521872               0.000000000               0.000000000               0.000000000               0.000000000               0.000273402               0.001898958               0.000138421              -0.000134844               0.000677928               0.000543084               0.000000000               0.000000000               0.000000000               0.000000000               0.000269562               0.002003836               0.000118552              -0.000149393               0.000717736               0.000568343               0.000000000               0.000000000               0.000000000               0.000000000               0.000273757               0.002123816               0.000097311              -0.000162818               0.000762204               0.000599386               0.000000000               0.000000000               0.000000000               0.000000000               0.000281974               0.002247950               0.000070883              -0.000175253               0.000807727               0.000632474               0.000000000               0.000000000               0.000000000               0.000000000               0.000290006               0.002364903               0.000037942              -0.000186860               0.000850580               0.000663719               0.000000000               0.000000000               0.000000000               0.000000000               0.000283499               0.002415245               0.000017334              -0.000195593               0.000870271               0.000674678               0.000000000               0.000000000               0.000000000               0.000000000               0.000334202               0.000148028               0.000176284               0.000106821               0.000013735               0.000120556               0.000000000               0.000000000               0.000000000               0.000000000               0.000485411               0.000325470               0.000252853               0.000141344               0.000061374               0.000202718               0.000000000               0.000000000               0.000000000               0.000000000               0.000547863               0.000579634               0.000314525               0.000132993               0.000148878               0.000281871               0.000000000               0.000000000               0.000000000               0.000000000               0.000536421               0.000810190               0.000313497               0.000099883               0.000236766               0.000336649               0.000000000               0.000000000               0.000000000               0.000000000               0.000500659               0.001010588               0.000289678               0.000061423               0.000316385               0.000377808               0.000000000               0.000000000               0.000000000               0.000000000               0.000461756               0.001175780               0.000258236               0.000026185               0.000383194               0.000409380               0.000000000               0.000000000               0.000000000               0.000000000               0.000424063               0.001307362               0.000224478              -0.000004397               0.000437248               0.000432852               0.000000000               0.000000000               0.000000000               0.000000000               0.000393323               0.001420422               0.000194841              -0.000030057               0.000483488               0.000453431               0.000000000               0.000000000               0.000000000               0.000000000               0.000367685               0.001523165               0.000170777              -0.000052514               0.000525221               0.000472707               0.000000000               0.000000000               0.000000000               0.000000000               0.000348247               0.001624681               0.000148169              -0.000072493               0.000565719               0.000493227               0.000000000               0.000000000               0.000000000               0.000000000               0.000332606               0.001734732               0.000129172              -0.000092114               0.000608943               0.000516829               0.000000000               0.000000000               0.000000000               0.000000000               0.000321197               0.001849372               0.000116013              -0.000110722               0.000653358               0.000542636               0.000000000               0.000000000               0.000000000               0.000000000               0.000319944               0.001970524               0.000105148              -0.000126336               0.000698947               0.000572611               0.000000000               0.000000000               0.000000000               0.000000000               0.000329416               0.002106471               0.000090071              -0.000139778               0.000748742               0.000608965               0.000000000               0.000000000               0.000000000               0.000000000               0.000344790               0.002249175               0.000068740              -0.000151850               0.000800334               0.000648484               0.000000000               0.000000000               0.000000000               0.000000000               0.000360123               0.002374997               0.000039868              -0.000161828               0.000845601               0.000683772               0.000000000               0.000000000               0.000000000               0.000000000               0.000364107               0.002427842               0.000021770              -0.000166940               0.000864919               0.000697980               0.000000000               0.000000000               0.000000000               0.000000000               0.000267704               0.000083940               0.000083084               0.000089896              -0.000001986               0.000087910               0.000000000               0.000000000               0.000000000               0.000000000               0.000467043               0.000239493               0.000127595               0.000145203               0.000031429               0.000176632               0.000000000               0.000000000               0.000000000               0.000000000               0.000574879               0.000469381               0.000165369               0.000156905               0.000104157               0.000261062               0.000000000               0.000000000               0.000000000               0.000000000               0.000578974               0.000695558               0.000167829               0.000130169               0.000188461               0.000318630               0.000000000               0.000000000               0.000000000               0.000000000               0.000548531               0.000902482               0.000157236               0.000092888               0.000269862               0.000362750               0.000000000               0.000000000               0.000000000               0.000000000               0.000506180               0.001077458               0.000141170               0.000055135               0.000340771               0.000395905               0.000000000               0.000000000               0.000000000               0.000000000               0.000464930               0.001218764               0.000123368               0.000022003               0.000398916               0.000420919               0.000000000               0.000000000               0.000000000               0.000000000               0.000429545               0.001338326               0.000108621              -0.000006212               0.000448175               0.000441963               0.000000000               0.000000000               0.000000000               0.000000000               0.000399437               0.001446500               0.000096750              -0.000031023               0.000492503               0.000461480               0.000000000               0.000000000               0.000000000               0.000000000               0.000376814               0.001557260               0.000084446              -0.000053352               0.000536865               0.000483513               0.000000000               0.000000000               0.000000000               0.000000000               0.000365294               0.001680716               0.000072258              -0.000073104               0.000584601               0.000511497               0.000000000               0.000000000               0.000000000               0.000000000               0.000361610               0.001815250               0.000065915              -0.000091302               0.000635511               0.000544209               0.000000000               0.000000000               0.000000000               0.000000000               0.000364472               0.001956083               0.000063393              -0.000107833               0.000687965               0.000580132               0.000000000               0.000000000               0.000000000               0.000000000               0.000373214               0.002097692               0.000056976              -0.000122256               0.000739976               0.000617720               0.000000000               0.000000000               0.000000000               0.000000000               0.000391252               0.002239728               0.000043640              -0.000133246               0.000790984               0.000657738               0.000000000               0.000000000               0.000000000               0.000000000               0.000416242               0.002369016               0.000024992              -0.000140036               0.000836343               0.000696307               0.000000000               0.000000000               0.000000000               0.000000000               0.000431475               0.002427082               0.000014737              -0.000141582               0.000856213               0.000714631               0.000000000               0.000000000               0.000000000               0.000000000               0.000000000               0.000000000               0.000000000               0.000000000               0.000000000               0.000000000               0.000000000               0.000000000               0.000000000               0.000000000               0.000000000               0.000000000               0.000000000               0.000000000               0.000000000               0.000000000               0.000000000               0.000000000               0.000000000               0.000000000               0.000000000               0.000000000               0.000000000               0.000000000               0.000000000               0.000000000               0.000000000               0.000000000               0.000000000               0.000000000               0.000000000               0.000000000               0.000000000               0.000000000               0.000000000               0.000000000               0.000000000               0.000000000               0.000000000               0.000000000               0.000000000               0.000000000               0.000000000               0.000000000               0.000000000               0.000000000               0.000000000               0.000000000               0.000000000               0.000000000               0.000000000               0.000000000               0.000000000               0.000000000               0.000000000               0.000000000               0.000000000               0.000000000               0.000000000               0.000000000               0.000000000               0.000000000               0.000000000               0.000000000               0.000000000               0.000000000               0.000000000               0.000000000               0.000000000               0.000000000               0.000000000               0.000000000               0.000000000               0.000000000               0.000000000               0.000000000               0.000000000               0.000000000               0.000000000               0.000000000               0.000000000               0.000000000               0.000000000               0.000000000               0.000000000               0.000000000               0.000000000               0.000000000               0.000000000               0.000000000               0.000000000               0.000000000               0.000000000               0.000000000               0.000000000               0.000000000               0.000000000               0.000000000               0.000000000               0.000000000               0.000000000               0.000000000               0.000000000               0.000000000               0.000000000               0.000000000               0.000000000               0.000000000               0.000000000               0.000000000               0.000000000               0.000000000               0.000000000               0.000000000               0.000000000               0.000000000               0.000000000               0.000000000               0.000000000               0.000000000               0.000000000               0.000000000               0.000000000               0.000000000               0.000000000               0.000000000               0.000000000               0.000000000               0.000000000               0.000000000               0.000000000               0.000000000               0.000000000               0.000000000               0.000000000               0.000000000               0.000000000               0.000000000               0.000000000               0.000000000               0.000000000               0.000000000               0.000000000               0.000000000               0.000000000               0.000000000               0.000000000               0.000000000               0.000000000               0.000000000               0.000000000               0.000000000               0.000000000               0.000000000               0.000000000               0.000000000               0.000000000               0.000000000               0.000000000               0.000000000               0.000000000               0.000000000               0.000000000               0.000000000               0.000000000               0.000000000               0.000000000               0.000000000               0.000000000               0.000000000 </DataArray>
</PointData>
</Piece>
</UnstructuredGrid> </VTKFile>
