<?xml version="1.0"?>
<VTKFile type="UnstructuredGrid" version="0.1">
<UnstructuredGrid>
<Piece NumberOfPoints="      1156" NumberOfCells="      1024">
<Points>
<DataArray type="Float64"                                    Name="coordinates"                                                      NumberOfComponents=" 3" format="ascii">
              0.133000000               0.000000000               0.000000000               0.155937500               0.000000000               0.000000000               0.178875000               0.000000000               0.000000000               0.201812500               0.000000000               0.000000000               0.224750000               0.000000000               0.000000000               0.247687500               0.000000000               0.000000000               0.270625000               0.000000000               0.000000000               0.293562500               0.000000000               0.000000000               0.316500000               0.000000000               0.000000000               0.339437500               0.000000000               0.000000000               0.362375000               0.000000000               0.000000000               0.385312500               0.000000000               0.000000000               0.408250000               0.000000000               0.000000000               0.431187500               0.000000000               0.000000000               0.454125000               0.000000000               0.000000000               0.477062500               0.000000000               0.000000000               0.500000000               0.000000000               0.000000000               0.132359569               0.013036280               0.000000000               0.155337096               0.016127762               0.000000000               0.178314623               0.019219245               0.000000000               0.201292150               0.022310727               0.000000000               0.224269676               0.025402210               0.000000000               0.247247203               0.028493692               0.000000000               0.270224730               0.031585175               0.000000000               0.293202257               0.034676657               0.000000000               0.316179784               0.037768140               0.000000000               0.339157311               0.040859622               0.000000000               0.362134838               0.043951105               0.000000000               0.385112365               0.047042587               0.000000000               0.408089892               0.050134070               0.000000000               0.431067419               0.053225552               0.000000000               0.454044946               0.056317035               0.000000000               0.477022473               0.059408517               0.000000000               0.500000000               0.062500000               0.000000000               0.130444442               0.025947013               0.000000000               0.153541665               0.032137825               0.000000000               0.176638887               0.038328636               0.000000000               0.199736109               0.044519448               0.000000000               0.222833332               0.050710260               0.000000000               0.245930554               0.056901071               0.000000000               0.269027776               0.063091883               0.000000000               0.292124999               0.069282695               0.000000000               0.315222221               0.075473506               0.000000000               0.338319444               0.081664318               0.000000000               0.361416666               0.087855130               0.000000000               0.384513888               0.094045942               0.000000000               0.407611111               0.100236753               0.000000000               0.430708333               0.106427565               0.000000000               0.453805555               0.112618377               0.000000000               0.476902778               0.118809188               0.000000000               0.500000000               0.125000000               0.000000000               0.127273065               0.038607862               0.000000000               0.150568498               0.047913621               0.000000000               0.173863932               0.057219379               0.000000000               0.197159365               0.066525138               0.000000000               0.220454798               0.075830897               0.000000000               0.243750232               0.085136655               0.000000000               0.267045665               0.094442414               0.000000000               0.290341099               0.103748172               0.000000000               0.313636532               0.113053931               0.000000000               0.336931966               0.122359690               0.000000000               0.360227399               0.131665448               0.000000000               0.383522833               0.140971207               0.000000000               0.406818266               0.150276966               0.000000000               0.430113700               0.159582724               0.000000000               0.453409133               0.168888483               0.000000000               0.476704567               0.178194241               0.000000000               0.500000000               0.187500000               0.000000000               0.122875978               0.050896897               0.000000000               0.146446229               0.063340840               0.000000000               0.170016481               0.075784784               0.000000000               0.193586732               0.088228728               0.000000000               0.217156983               0.100672672               0.000000000               0.240727235               0.113116616               0.000000000               0.264297486               0.125560560               0.000000000               0.287867738               0.138004504               0.000000000               0.311437989               0.150448448               0.000000000               0.335008240               0.162892392               0.000000000               0.358578492               0.175336336               0.000000000               0.382148743               0.187780280               0.000000000               0.405718994               0.200224224               0.000000000               0.429289246               0.212668168               0.000000000               0.452859497               0.225112112               0.000000000               0.476429749               0.237556056               0.000000000               0.500000000               0.250000000               0.000000000               0.117295528               0.062695766               0.000000000               0.141214558               0.078308531               0.000000000               0.165133587               0.093921295               0.000000000               0.189052617               0.109534060               0.000000000               0.212971646               0.125146824               0.000000000               0.236890676               0.140759589               0.000000000               0.260809705               0.156372354               0.000000000               0.284728735               0.171985118               0.000000000               0.308647764               0.187597883               0.000000000               0.332566794               0.203210648               0.000000000               0.356485823               0.218823412               0.000000000               0.380404853               0.234436177               0.000000000               0.404323882               0.250048941               0.000000000               0.428242912               0.265661706               0.000000000               0.452161941               0.281274471               0.000000000               0.476080971               0.296887235               0.000000000               0.500000000               0.312500000               0.000000000               0.110585458               0.073890841               0.000000000               0.134923867               0.092710163               0.000000000               0.159262276               0.111529486               0.000000000               0.183600685               0.130348808               0.000000000               0.207939094               0.149168131               0.000000000               0.232277503               0.167987453               0.000000000               0.256615912               0.186806776               0.000000000               0.280954320               0.205626098               0.000000000               0.305292729               0.224445420               0.000000000               0.329631138               0.243264743               0.000000000               0.353969547               0.262084065               0.000000000               0.378307956               0.280903388               0.000000000               0.402646365               0.299722710               0.000000000               0.426984773               0.318542033               0.000000000               0.451323182               0.337361355               0.000000000               0.475661591               0.356180678               0.000000000               0.500000000               0.375000000               0.000000000               0.102810390               0.084374307               0.000000000               0.127634741               0.106444663               0.000000000               0.152459092               0.128515018               0.000000000               0.177283442               0.150585374               0.000000000               0.202107793               0.172655730               0.000000000               0.226932143               0.194726086               0.000000000               0.251756494               0.216796442               0.000000000               0.276580845               0.238866798               0.000000000               0.301405195               0.260937153               0.000000000               0.326229546               0.283007509               0.000000000               0.351053896               0.305077865               0.000000000               0.375878247               0.327148221               0.000000000               0.400702598               0.349218577               0.000000000               0.425526948               0.371288933               0.000000000               0.450351299               0.393359288               0.000000000               0.475175649               0.415429644               0.000000000               0.500000000               0.437500000               0.000000000               0.094045202               0.094045202               0.000000000               0.119417377               0.119417377               0.000000000               0.144789552               0.144789552               0.000000000               0.170161727               0.170161727               0.000000000               0.195533901               0.195533901               0.000000000               0.220906076               0.220906076               0.000000000               0.246278251               0.246278251               0.000000000               0.271650426               0.271650426               0.000000000               0.297022601               0.297022601               0.000000000               0.322394776               0.322394776               0.000000000               0.347766951               0.347766951               0.000000000               0.373139126               0.373139126               0.000000000               0.398511300               0.398511300               0.000000000               0.423883475               0.423883475               0.000000000               0.449255650               0.449255650               0.000000000               0.474627825               0.474627825               0.000000000               0.500000000               0.500000000               0.000000000               0.084374307               0.102810390               0.000000000               0.106444663               0.127634741               0.000000000               0.128515018               0.152459092               0.000000000               0.150585374               0.177283442               0.000000000               0.172655730               0.202107793               0.000000000               0.194726086               0.226932143               0.000000000               0.216796442               0.251756494               0.000000000               0.238866798               0.276580845               0.000000000               0.260937153               0.301405195               0.000000000               0.283007509               0.326229546               0.000000000               0.305077865               0.351053896               0.000000000               0.327148221               0.375878247               0.000000000               0.349218577               0.400702598               0.000000000               0.371288933               0.425526948               0.000000000               0.393359288               0.450351299               0.000000000               0.415429644               0.475175649               0.000000000               0.437500000               0.500000000               0.000000000               0.073890841               0.110585458               0.000000000               0.092710163               0.134923867               0.000000000               0.111529486               0.159262276               0.000000000               0.130348808               0.183600685               0.000000000               0.149168131               0.207939094               0.000000000               0.167987453               0.232277503               0.000000000               0.186806776               0.256615912               0.000000000               0.205626098               0.280954320               0.000000000               0.224445420               0.305292729               0.000000000               0.243264743               0.329631138               0.000000000               0.262084065               0.353969547               0.000000000               0.280903388               0.378307956               0.000000000               0.299722710               0.402646365               0.000000000               0.318542033               0.426984773               0.000000000               0.337361355               0.451323182               0.000000000               0.356180678               0.475661591               0.000000000               0.375000000               0.500000000               0.000000000               0.062695766               0.117295528               0.000000000               0.078308531               0.141214558               0.000000000               0.093921295               0.165133587               0.000000000               0.109534060               0.189052617               0.000000000               0.125146824               0.212971646               0.000000000               0.140759589               0.236890676               0.000000000               0.156372354               0.260809705               0.000000000               0.171985118               0.284728735               0.000000000               0.187597883               0.308647764               0.000000000               0.203210648               0.332566794               0.000000000               0.218823412               0.356485823               0.000000000               0.234436177               0.380404853               0.000000000               0.250048941               0.404323882               0.000000000               0.265661706               0.428242912               0.000000000               0.281274471               0.452161941               0.000000000               0.296887235               0.476080971               0.000000000               0.312500000               0.500000000               0.000000000               0.050896897               0.122875978               0.000000000               0.063340840               0.146446229               0.000000000               0.075784784               0.170016481               0.000000000               0.088228728               0.193586732               0.000000000               0.100672672               0.217156983               0.000000000               0.113116616               0.240727235               0.000000000               0.125560560               0.264297486               0.000000000               0.138004504               0.287867738               0.000000000               0.150448448               0.311437989               0.000000000               0.162892392               0.335008240               0.000000000               0.175336336               0.358578492               0.000000000               0.187780280               0.382148743               0.000000000               0.200224224               0.405718994               0.000000000               0.212668168               0.429289246               0.000000000               0.225112112               0.452859497               0.000000000               0.237556056               0.476429749               0.000000000               0.250000000               0.500000000               0.000000000               0.038607862               0.127273065               0.000000000               0.047913621               0.150568498               0.000000000               0.057219379               0.173863932               0.000000000               0.066525138               0.197159365               0.000000000               0.075830897               0.220454798               0.000000000               0.085136655               0.243750232               0.000000000               0.094442414               0.267045665               0.000000000               0.103748172               0.290341099               0.000000000               0.113053931               0.313636532               0.000000000               0.122359690               0.336931966               0.000000000               0.131665448               0.360227399               0.000000000               0.140971207               0.383522833               0.000000000               0.150276966               0.406818266               0.000000000               0.159582724               0.430113700               0.000000000               0.168888483               0.453409133               0.000000000               0.178194241               0.476704567               0.000000000               0.187500000               0.500000000               0.000000000               0.025947013               0.130444442               0.000000000               0.032137825               0.153541665               0.000000000               0.038328636               0.176638887               0.000000000               0.044519448               0.199736109               0.000000000               0.050710260               0.222833332               0.000000000               0.056901071               0.245930554               0.000000000               0.063091883               0.269027776               0.000000000               0.069282695               0.292124999               0.000000000               0.075473506               0.315222221               0.000000000               0.081664318               0.338319444               0.000000000               0.087855130               0.361416666               0.000000000               0.094045942               0.384513888               0.000000000               0.100236753               0.407611111               0.000000000               0.106427565               0.430708333               0.000000000               0.112618377               0.453805555               0.000000000               0.118809188               0.476902778               0.000000000               0.125000000               0.500000000               0.000000000               0.013036280               0.132359569               0.000000000               0.016127762               0.155337096               0.000000000               0.019219245               0.178314623               0.000000000               0.022310727               0.201292150               0.000000000               0.025402210               0.224269676               0.000000000               0.028493692               0.247247203               0.000000000               0.031585175               0.270224730               0.000000000               0.034676657               0.293202257               0.000000000               0.037768140               0.316179784               0.000000000               0.040859622               0.339157311               0.000000000               0.043951105               0.362134838               0.000000000               0.047042587               0.385112365               0.000000000               0.050134070               0.408089892               0.000000000               0.053225552               0.431067419               0.000000000               0.056317035               0.454044946               0.000000000               0.059408517               0.477022473               0.000000000               0.062500000               0.500000000               0.000000000               0.000000000               0.133000000               0.000000000               0.000000000               0.155937500               0.000000000               0.000000000               0.178875000               0.000000000               0.000000000               0.201812500               0.000000000               0.000000000               0.224750000               0.000000000               0.000000000               0.247687500               0.000000000               0.000000000               0.270625000               0.000000000               0.000000000               0.293562500               0.000000000               0.000000000               0.316500000               0.000000000               0.000000000               0.339437500               0.000000000               0.000000000               0.362375000               0.000000000               0.000000000               0.385312500               0.000000000               0.000000000               0.408250000               0.000000000               0.000000000               0.431187500               0.000000000               0.000000000               0.454125000               0.000000000               0.000000000               0.477062500               0.000000000               0.000000000               0.500000000               0.000000000               0.133000000               0.000000000               0.000000000               0.155937500               0.000000000               0.000000000               0.178875000               0.000000000               0.000000000               0.201812500               0.000000000               0.000000000               0.224750000               0.000000000               0.000000000               0.247687500               0.000000000               0.000000000               0.270625000               0.000000000               0.000000000               0.293562500               0.000000000               0.000000000               0.316500000               0.000000000               0.000000000               0.339437500               0.000000000               0.000000000               0.362375000               0.000000000               0.000000000               0.385312500               0.000000000               0.000000000               0.408250000               0.000000000               0.000000000               0.431187500               0.000000000               0.000000000               0.454125000               0.000000000               0.000000000               0.477062500               0.000000000               0.000000000               0.500000000               0.000000000               0.000000000               0.132359569              -0.013036280               0.000000000               0.155337096              -0.016127762               0.000000000               0.178314623              -0.019219245               0.000000000               0.201292150              -0.022310727               0.000000000               0.224269676              -0.025402210               0.000000000               0.247247203              -0.028493692               0.000000000               0.270224730              -0.031585175               0.000000000               0.293202257              -0.034676657               0.000000000               0.316179784              -0.037768140               0.000000000               0.339157311              -0.040859622               0.000000000               0.362134838              -0.043951105               0.000000000               0.385112365              -0.047042587               0.000000000               0.408089892              -0.050134070               0.000000000               0.431067419              -0.053225552               0.000000000               0.454044946              -0.056317035               0.000000000               0.477022473              -0.059408517               0.000000000               0.500000000              -0.062500000               0.000000000               0.130444442              -0.025947013               0.000000000               0.153541665              -0.032137825               0.000000000               0.176638887              -0.038328636               0.000000000               0.199736109              -0.044519448               0.000000000               0.222833332              -0.050710260               0.000000000               0.245930554              -0.056901071               0.000000000               0.269027776              -0.063091883               0.000000000               0.292124999              -0.069282695               0.000000000               0.315222221              -0.075473506               0.000000000               0.338319444              -0.081664318               0.000000000               0.361416666              -0.087855130               0.000000000               0.384513888              -0.094045942               0.000000000               0.407611111              -0.100236753               0.000000000               0.430708333              -0.106427565               0.000000000               0.453805555              -0.112618377               0.000000000               0.476902778              -0.118809188               0.000000000               0.500000000              -0.125000000               0.000000000               0.127273065              -0.038607862               0.000000000               0.150568498              -0.047913621               0.000000000               0.173863932              -0.057219379               0.000000000               0.197159365              -0.066525138               0.000000000               0.220454798              -0.075830897               0.000000000               0.243750232              -0.085136655               0.000000000               0.267045665              -0.094442414               0.000000000               0.290341099              -0.103748172               0.000000000               0.313636532              -0.113053931               0.000000000               0.336931966              -0.122359690               0.000000000               0.360227399              -0.131665448               0.000000000               0.383522833              -0.140971207               0.000000000               0.406818266              -0.150276966               0.000000000               0.430113700              -0.159582724               0.000000000               0.453409133              -0.168888483               0.000000000               0.476704567              -0.178194241               0.000000000               0.500000000              -0.187500000               0.000000000               0.122875978              -0.050896897               0.000000000               0.146446229              -0.063340840               0.000000000               0.170016481              -0.075784784               0.000000000               0.193586732              -0.088228728               0.000000000               0.217156983              -0.100672672               0.000000000               0.240727235              -0.113116616               0.000000000               0.264297486              -0.125560560               0.000000000               0.287867738              -0.138004504               0.000000000               0.311437989              -0.150448448               0.000000000               0.335008240              -0.162892392               0.000000000               0.358578492              -0.175336336               0.000000000               0.382148743              -0.187780280               0.000000000               0.405718994              -0.200224224               0.000000000               0.429289246              -0.212668168               0.000000000               0.452859497              -0.225112112               0.000000000               0.476429749              -0.237556056               0.000000000               0.500000000              -0.250000000               0.000000000               0.117295528              -0.062695766               0.000000000               0.141214558              -0.078308531               0.000000000               0.165133587              -0.093921295               0.000000000               0.189052617              -0.109534060               0.000000000               0.212971646              -0.125146824               0.000000000               0.236890676              -0.140759589               0.000000000               0.260809705              -0.156372354               0.000000000               0.284728735              -0.171985118               0.000000000               0.308647764              -0.187597883               0.000000000               0.332566794              -0.203210648               0.000000000               0.356485823              -0.218823412               0.000000000               0.380404853              -0.234436177               0.000000000               0.404323882              -0.250048941               0.000000000               0.428242912              -0.265661706               0.000000000               0.452161941              -0.281274471               0.000000000               0.476080971              -0.296887235               0.000000000               0.500000000              -0.312500000               0.000000000               0.110585458              -0.073890841               0.000000000               0.134923867              -0.092710163               0.000000000               0.159262276              -0.111529486               0.000000000               0.183600685              -0.130348808               0.000000000               0.207939094              -0.149168131               0.000000000               0.232277503              -0.167987453               0.000000000               0.256615912              -0.186806776               0.000000000               0.280954320              -0.205626098               0.000000000               0.305292729              -0.224445420               0.000000000               0.329631138              -0.243264743               0.000000000               0.353969547              -0.262084065               0.000000000               0.378307956              -0.280903388               0.000000000               0.402646365              -0.299722710               0.000000000               0.426984773              -0.318542033               0.000000000               0.451323182              -0.337361355               0.000000000               0.475661591              -0.356180678               0.000000000               0.500000000              -0.375000000               0.000000000               0.102810390              -0.084374307               0.000000000               0.127634741              -0.106444663               0.000000000               0.152459092              -0.128515018               0.000000000               0.177283442              -0.150585374               0.000000000               0.202107793              -0.172655730               0.000000000               0.226932143              -0.194726086               0.000000000               0.251756494              -0.216796442               0.000000000               0.276580845              -0.238866798               0.000000000               0.301405195              -0.260937153               0.000000000               0.326229546              -0.283007509               0.000000000               0.351053896              -0.305077865               0.000000000               0.375878247              -0.327148221               0.000000000               0.400702598              -0.349218577               0.000000000               0.425526948              -0.371288933               0.000000000               0.450351299              -0.393359288               0.000000000               0.475175649              -0.415429644               0.000000000               0.500000000              -0.437500000               0.000000000               0.094045202              -0.094045202               0.000000000               0.119417377              -0.119417377               0.000000000               0.144789552              -0.144789552               0.000000000               0.170161727              -0.170161727               0.000000000               0.195533901              -0.195533901               0.000000000               0.220906076              -0.220906076               0.000000000               0.246278251              -0.246278251               0.000000000               0.271650426              -0.271650426               0.000000000               0.297022601              -0.297022601               0.000000000               0.322394776              -0.322394776               0.000000000               0.347766951              -0.347766951               0.000000000               0.373139126              -0.373139126               0.000000000               0.398511300              -0.398511300               0.000000000               0.423883475              -0.423883475               0.000000000               0.449255650              -0.449255650               0.000000000               0.474627825              -0.474627825               0.000000000               0.500000000              -0.500000000               0.000000000               0.084374307              -0.102810390               0.000000000               0.106444663              -0.127634741               0.000000000               0.128515018              -0.152459092               0.000000000               0.150585374              -0.177283442               0.000000000               0.172655730              -0.202107793               0.000000000               0.194726086              -0.226932143               0.000000000               0.216796442              -0.251756494               0.000000000               0.238866798              -0.276580845               0.000000000               0.260937153              -0.301405195               0.000000000               0.283007509              -0.326229546               0.000000000               0.305077865              -0.351053896               0.000000000               0.327148221              -0.375878247               0.000000000               0.349218577              -0.400702598               0.000000000               0.371288933              -0.425526948               0.000000000               0.393359288              -0.450351299               0.000000000               0.415429644              -0.475175649               0.000000000               0.437500000              -0.500000000               0.000000000               0.073890841              -0.110585458               0.000000000               0.092710163              -0.134923867               0.000000000               0.111529486              -0.159262276               0.000000000               0.130348808              -0.183600685               0.000000000               0.149168131              -0.207939094               0.000000000               0.167987453              -0.232277503               0.000000000               0.186806776              -0.256615912               0.000000000               0.205626098              -0.280954320               0.000000000               0.224445420              -0.305292729               0.000000000               0.243264743              -0.329631138               0.000000000               0.262084065              -0.353969547               0.000000000               0.280903388              -0.378307956               0.000000000               0.299722710              -0.402646365               0.000000000               0.318542033              -0.426984773               0.000000000               0.337361355              -0.451323182               0.000000000               0.356180678              -0.475661591               0.000000000               0.375000000              -0.500000000               0.000000000               0.062695766              -0.117295528               0.000000000               0.078308531              -0.141214558               0.000000000               0.093921295              -0.165133587               0.000000000               0.109534060              -0.189052617               0.000000000               0.125146824              -0.212971646               0.000000000               0.140759589              -0.236890676               0.000000000               0.156372354              -0.260809705               0.000000000               0.171985118              -0.284728735               0.000000000               0.187597883              -0.308647764               0.000000000               0.203210648              -0.332566794               0.000000000               0.218823412              -0.356485823               0.000000000               0.234436177              -0.380404853               0.000000000               0.250048941              -0.404323882               0.000000000               0.265661706              -0.428242912               0.000000000               0.281274471              -0.452161941               0.000000000               0.296887235              -0.476080971               0.000000000               0.312500000              -0.500000000               0.000000000               0.050896897              -0.122875978               0.000000000               0.063340840              -0.146446229               0.000000000               0.075784784              -0.170016481               0.000000000               0.088228728              -0.193586732               0.000000000               0.100672672              -0.217156983               0.000000000               0.113116616              -0.240727235               0.000000000               0.125560560              -0.264297486               0.000000000               0.138004504              -0.287867738               0.000000000               0.150448448              -0.311437989               0.000000000               0.162892392              -0.335008240               0.000000000               0.175336336              -0.358578492               0.000000000               0.187780280              -0.382148743               0.000000000               0.200224224              -0.405718994               0.000000000               0.212668168              -0.429289246               0.000000000               0.225112112              -0.452859497               0.000000000               0.237556056              -0.476429749               0.000000000               0.250000000              -0.500000000               0.000000000               0.038607862              -0.127273065               0.000000000               0.047913621              -0.150568498               0.000000000               0.057219379              -0.173863932               0.000000000               0.066525138              -0.197159365               0.000000000               0.075830897              -0.220454798               0.000000000               0.085136655              -0.243750232               0.000000000               0.094442414              -0.267045665               0.000000000               0.103748172              -0.290341099               0.000000000               0.113053931              -0.313636532               0.000000000               0.122359690              -0.336931966               0.000000000               0.131665448              -0.360227399               0.000000000               0.140971207              -0.383522833               0.000000000               0.150276966              -0.406818266               0.000000000               0.159582724              -0.430113700               0.000000000               0.168888483              -0.453409133               0.000000000               0.178194241              -0.476704567               0.000000000               0.187500000              -0.500000000               0.000000000               0.025947013              -0.130444442               0.000000000               0.032137825              -0.153541665               0.000000000               0.038328636              -0.176638887               0.000000000               0.044519448              -0.199736109               0.000000000               0.050710260              -0.222833332               0.000000000               0.056901071              -0.245930554               0.000000000               0.063091883              -0.269027776               0.000000000               0.069282695              -0.292124999               0.000000000               0.075473506              -0.315222221               0.000000000               0.081664318              -0.338319444               0.000000000               0.087855130              -0.361416666               0.000000000               0.094045942              -0.384513888               0.000000000               0.100236753              -0.407611111               0.000000000               0.106427565              -0.430708333               0.000000000               0.112618377              -0.453805555               0.000000000               0.118809188              -0.476902778               0.000000000               0.125000000              -0.500000000               0.000000000               0.013036280              -0.132359569               0.000000000               0.016127762              -0.155337096               0.000000000               0.019219245              -0.178314623               0.000000000               0.022310727              -0.201292150               0.000000000               0.025402210              -0.224269676               0.000000000               0.028493692              -0.247247203               0.000000000               0.031585175              -0.270224730               0.000000000               0.034676657              -0.293202257               0.000000000               0.037768140              -0.316179784               0.000000000               0.040859622              -0.339157311               0.000000000               0.043951105              -0.362134838               0.000000000               0.047042587              -0.385112365               0.000000000               0.050134070              -0.408089892               0.000000000               0.053225552              -0.431067419               0.000000000               0.056317035              -0.454044946               0.000000000               0.059408517              -0.477022473               0.000000000               0.062500000              -0.500000000               0.000000000               0.000000000              -0.133000000               0.000000000               0.000000000              -0.155937500               0.000000000               0.000000000              -0.178875000               0.000000000               0.000000000              -0.201812500               0.000000000               0.000000000              -0.224750000               0.000000000               0.000000000              -0.247687500               0.000000000               0.000000000              -0.270625000               0.000000000               0.000000000              -0.293562500               0.000000000               0.000000000              -0.316500000               0.000000000               0.000000000              -0.339437500               0.000000000               0.000000000              -0.362375000               0.000000000               0.000000000              -0.385312500               0.000000000               0.000000000              -0.408250000               0.000000000               0.000000000              -0.431187500               0.000000000               0.000000000              -0.454125000               0.000000000               0.000000000              -0.477062500               0.000000000               0.000000000              -0.500000000               0.000000000              -0.133000000               0.000000000               0.000000000              -0.155937500               0.000000000               0.000000000              -0.178875000               0.000000000               0.000000000              -0.201812500               0.000000000               0.000000000              -0.224750000               0.000000000               0.000000000              -0.247687500               0.000000000               0.000000000              -0.270625000               0.000000000               0.000000000              -0.293562500               0.000000000               0.000000000              -0.316500000               0.000000000               0.000000000              -0.339437500               0.000000000               0.000000000              -0.362375000               0.000000000               0.000000000              -0.385312500               0.000000000               0.000000000              -0.408250000               0.000000000               0.000000000              -0.431187500               0.000000000               0.000000000              -0.454125000               0.000000000               0.000000000              -0.477062500               0.000000000               0.000000000              -0.500000000               0.000000000               0.000000000              -0.132359569              -0.013036280               0.000000000              -0.155337096              -0.016127762               0.000000000              -0.178314623              -0.019219245               0.000000000              -0.201292150              -0.022310727               0.000000000              -0.224269676              -0.025402210               0.000000000              -0.247247203              -0.028493692               0.000000000              -0.270224730              -0.031585175               0.000000000              -0.293202257              -0.034676657               0.000000000              -0.316179784              -0.037768140               0.000000000              -0.339157311              -0.040859622               0.000000000              -0.362134838              -0.043951105               0.000000000              -0.385112365              -0.047042587               0.000000000              -0.408089892              -0.050134070               0.000000000              -0.431067419              -0.053225552               0.000000000              -0.454044946              -0.056317035               0.000000000              -0.477022473              -0.059408517               0.000000000              -0.500000000              -0.062500000               0.000000000              -0.130444442              -0.025947013               0.000000000              -0.153541665              -0.032137825               0.000000000              -0.176638887              -0.038328636               0.000000000              -0.199736109              -0.044519448               0.000000000              -0.222833332              -0.050710260               0.000000000              -0.245930554              -0.056901071               0.000000000              -0.269027776              -0.063091883               0.000000000              -0.292124999              -0.069282695               0.000000000              -0.315222221              -0.075473506               0.000000000              -0.338319444              -0.081664318               0.000000000              -0.361416666              -0.087855130               0.000000000              -0.384513888              -0.094045942               0.000000000              -0.407611111              -0.100236753               0.000000000              -0.430708333              -0.106427565               0.000000000              -0.453805555              -0.112618377               0.000000000              -0.476902778              -0.118809188               0.000000000              -0.500000000              -0.125000000               0.000000000              -0.127273065              -0.038607862               0.000000000              -0.150568498              -0.047913621               0.000000000              -0.173863932              -0.057219379               0.000000000              -0.197159365              -0.066525138               0.000000000              -0.220454798              -0.075830897               0.000000000              -0.243750232              -0.085136655               0.000000000              -0.267045665              -0.094442414               0.000000000              -0.290341099              -0.103748172               0.000000000              -0.313636532              -0.113053931               0.000000000              -0.336931966              -0.122359690               0.000000000              -0.360227399              -0.131665448               0.000000000              -0.383522833              -0.140971207               0.000000000              -0.406818266              -0.150276966               0.000000000              -0.430113700              -0.159582724               0.000000000              -0.453409133              -0.168888483               0.000000000              -0.476704567              -0.178194241               0.000000000              -0.500000000              -0.187500000               0.000000000              -0.122875978              -0.050896897               0.000000000              -0.146446229              -0.063340840               0.000000000              -0.170016481              -0.075784784               0.000000000              -0.193586732              -0.088228728               0.000000000              -0.217156983              -0.100672672               0.000000000              -0.240727235              -0.113116616               0.000000000              -0.264297486              -0.125560560               0.000000000              -0.287867738              -0.138004504               0.000000000              -0.311437989              -0.150448448               0.000000000              -0.335008240              -0.162892392               0.000000000              -0.358578492              -0.175336336               0.000000000              -0.382148743              -0.187780280               0.000000000              -0.405718994              -0.200224224               0.000000000              -0.429289246              -0.212668168               0.000000000              -0.452859497              -0.225112112               0.000000000              -0.476429749              -0.237556056               0.000000000              -0.500000000              -0.250000000               0.000000000              -0.117295528              -0.062695766               0.000000000              -0.141214558              -0.078308531               0.000000000              -0.165133587              -0.093921295               0.000000000              -0.189052617              -0.109534060               0.000000000              -0.212971646              -0.125146824               0.000000000              -0.236890676              -0.140759589               0.000000000              -0.260809705              -0.156372354               0.000000000              -0.284728735              -0.171985118               0.000000000              -0.308647764              -0.187597883               0.000000000              -0.332566794              -0.203210648               0.000000000              -0.356485823              -0.218823412               0.000000000              -0.380404853              -0.234436177               0.000000000              -0.404323882              -0.250048941               0.000000000              -0.428242912              -0.265661706               0.000000000              -0.452161941              -0.281274471               0.000000000              -0.476080971              -0.296887235               0.000000000              -0.500000000              -0.312500000               0.000000000              -0.110585458              -0.073890841               0.000000000              -0.134923867              -0.092710163               0.000000000              -0.159262276              -0.111529486               0.000000000              -0.183600685              -0.130348808               0.000000000              -0.207939094              -0.149168131               0.000000000              -0.232277503              -0.167987453               0.000000000              -0.256615912              -0.186806776               0.000000000              -0.280954320              -0.205626098               0.000000000              -0.305292729              -0.224445420               0.000000000              -0.329631138              -0.243264743               0.000000000              -0.353969547              -0.262084065               0.000000000              -0.378307956              -0.280903388               0.000000000              -0.402646365              -0.299722710               0.000000000              -0.426984773              -0.318542033               0.000000000              -0.451323182              -0.337361355               0.000000000              -0.475661591              -0.356180678               0.000000000              -0.500000000              -0.375000000               0.000000000              -0.102810390              -0.084374307               0.000000000              -0.127634741              -0.106444663               0.000000000              -0.152459092              -0.128515018               0.000000000              -0.177283442              -0.150585374               0.000000000              -0.202107793              -0.172655730               0.000000000              -0.226932143              -0.194726086               0.000000000              -0.251756494              -0.216796442               0.000000000              -0.276580845              -0.238866798               0.000000000              -0.301405195              -0.260937153               0.000000000              -0.326229546              -0.283007509               0.000000000              -0.351053896              -0.305077865               0.000000000              -0.375878247              -0.327148221               0.000000000              -0.400702598              -0.349218577               0.000000000              -0.425526948              -0.371288933               0.000000000              -0.450351299              -0.393359288               0.000000000              -0.475175649              -0.415429644               0.000000000              -0.500000000              -0.437500000               0.000000000              -0.094045202              -0.094045202               0.000000000              -0.119417377              -0.119417377               0.000000000              -0.144789552              -0.144789552               0.000000000              -0.170161727              -0.170161727               0.000000000              -0.195533901              -0.195533901               0.000000000              -0.220906076              -0.220906076               0.000000000              -0.246278251              -0.246278251               0.000000000              -0.271650426              -0.271650426               0.000000000              -0.297022601              -0.297022601               0.000000000              -0.322394776              -0.322394776               0.000000000              -0.347766951              -0.347766951               0.000000000              -0.373139126              -0.373139126               0.000000000              -0.398511300              -0.398511300               0.000000000              -0.423883475              -0.423883475               0.000000000              -0.449255650              -0.449255650               0.000000000              -0.474627825              -0.474627825               0.000000000              -0.500000000              -0.500000000               0.000000000              -0.084374307              -0.102810390               0.000000000              -0.106444663              -0.127634741               0.000000000              -0.128515018              -0.152459092               0.000000000              -0.150585374              -0.177283442               0.000000000              -0.172655730              -0.202107793               0.000000000              -0.194726086              -0.226932143               0.000000000              -0.216796442              -0.251756494               0.000000000              -0.238866798              -0.276580845               0.000000000              -0.260937153              -0.301405195               0.000000000              -0.283007509              -0.326229546               0.000000000              -0.305077865              -0.351053896               0.000000000              -0.327148221              -0.375878247               0.000000000              -0.349218577              -0.400702598               0.000000000              -0.371288933              -0.425526948               0.000000000              -0.393359288              -0.450351299               0.000000000              -0.415429644              -0.475175649               0.000000000              -0.437500000              -0.500000000               0.000000000              -0.073890841              -0.110585458               0.000000000              -0.092710163              -0.134923867               0.000000000              -0.111529486              -0.159262276               0.000000000              -0.130348808              -0.183600685               0.000000000              -0.149168131              -0.207939094               0.000000000              -0.167987453              -0.232277503               0.000000000              -0.186806776              -0.256615912               0.000000000              -0.205626098              -0.280954320               0.000000000              -0.224445420              -0.305292729               0.000000000              -0.243264743              -0.329631138               0.000000000              -0.262084065              -0.353969547               0.000000000              -0.280903388              -0.378307956               0.000000000              -0.299722710              -0.402646365               0.000000000              -0.318542033              -0.426984773               0.000000000              -0.337361355              -0.451323182               0.000000000              -0.356180678              -0.475661591               0.000000000              -0.375000000              -0.500000000               0.000000000              -0.062695766              -0.117295528               0.000000000              -0.078308531              -0.141214558               0.000000000              -0.093921295              -0.165133587               0.000000000              -0.109534060              -0.189052617               0.000000000              -0.125146824              -0.212971646               0.000000000              -0.140759589              -0.236890676               0.000000000              -0.156372354              -0.260809705               0.000000000              -0.171985118              -0.284728735               0.000000000              -0.187597883              -0.308647764               0.000000000              -0.203210648              -0.332566794               0.000000000              -0.218823412              -0.356485823               0.000000000              -0.234436177              -0.380404853               0.000000000              -0.250048941              -0.404323882               0.000000000              -0.265661706              -0.428242912               0.000000000              -0.281274471              -0.452161941               0.000000000              -0.296887235              -0.476080971               0.000000000              -0.312500000              -0.500000000               0.000000000              -0.050896897              -0.122875978               0.000000000              -0.063340840              -0.146446229               0.000000000              -0.075784784              -0.170016481               0.000000000              -0.088228728              -0.193586732               0.000000000              -0.100672672              -0.217156983               0.000000000              -0.113116616              -0.240727235               0.000000000              -0.125560560              -0.264297486               0.000000000              -0.138004504              -0.287867738               0.000000000              -0.150448448              -0.311437989               0.000000000              -0.162892392              -0.335008240               0.000000000              -0.175336336              -0.358578492               0.000000000              -0.187780280              -0.382148743               0.000000000              -0.200224224              -0.405718994               0.000000000              -0.212668168              -0.429289246               0.000000000              -0.225112112              -0.452859497               0.000000000              -0.237556056              -0.476429749               0.000000000              -0.250000000              -0.500000000               0.000000000              -0.038607862              -0.127273065               0.000000000              -0.047913621              -0.150568498               0.000000000              -0.057219379              -0.173863932               0.000000000              -0.066525138              -0.197159365               0.000000000              -0.075830897              -0.220454798               0.000000000              -0.085136655              -0.243750232               0.000000000              -0.094442414              -0.267045665               0.000000000              -0.103748172              -0.290341099               0.000000000              -0.113053931              -0.313636532               0.000000000              -0.122359690              -0.336931966               0.000000000              -0.131665448              -0.360227399               0.000000000              -0.140971207              -0.383522833               0.000000000              -0.150276966              -0.406818266               0.000000000              -0.159582724              -0.430113700               0.000000000              -0.168888483              -0.453409133               0.000000000              -0.178194241              -0.476704567               0.000000000              -0.187500000              -0.500000000               0.000000000              -0.025947013              -0.130444442               0.000000000              -0.032137825              -0.153541665               0.000000000              -0.038328636              -0.176638887               0.000000000              -0.044519448              -0.199736109               0.000000000              -0.050710260              -0.222833332               0.000000000              -0.056901071              -0.245930554               0.000000000              -0.063091883              -0.269027776               0.000000000              -0.069282695              -0.292124999               0.000000000              -0.075473506              -0.315222221               0.000000000              -0.081664318              -0.338319444               0.000000000              -0.087855130              -0.361416666               0.000000000              -0.094045942              -0.384513888               0.000000000              -0.100236753              -0.407611111               0.000000000              -0.106427565              -0.430708333               0.000000000              -0.112618377              -0.453805555               0.000000000              -0.118809188              -0.476902778               0.000000000              -0.125000000              -0.500000000               0.000000000              -0.013036280              -0.132359569               0.000000000              -0.016127762              -0.155337096               0.000000000              -0.019219245              -0.178314623               0.000000000              -0.022310727              -0.201292150               0.000000000              -0.025402210              -0.224269676               0.000000000              -0.028493692              -0.247247203               0.000000000              -0.031585175              -0.270224730               0.000000000              -0.034676657              -0.293202257               0.000000000              -0.037768140              -0.316179784               0.000000000              -0.040859622              -0.339157311               0.000000000              -0.043951105              -0.362134838               0.000000000              -0.047042587              -0.385112365               0.000000000              -0.050134070              -0.408089892               0.000000000              -0.053225552              -0.431067419               0.000000000              -0.056317035              -0.454044946               0.000000000              -0.059408517              -0.477022473               0.000000000              -0.062500000              -0.500000000               0.000000000               0.000000000              -0.133000000               0.000000000               0.000000000              -0.155937500               0.000000000               0.000000000              -0.178875000               0.000000000               0.000000000              -0.201812500               0.000000000               0.000000000              -0.224750000               0.000000000               0.000000000              -0.247687500               0.000000000               0.000000000              -0.270625000               0.000000000               0.000000000              -0.293562500               0.000000000               0.000000000              -0.316500000               0.000000000               0.000000000              -0.339437500               0.000000000               0.000000000              -0.362375000               0.000000000               0.000000000              -0.385312500               0.000000000               0.000000000              -0.408250000               0.000000000               0.000000000              -0.431187500               0.000000000               0.000000000              -0.454125000               0.000000000               0.000000000              -0.477062500               0.000000000               0.000000000              -0.500000000               0.000000000              -0.133000000               0.000000000               0.000000000              -0.155937500               0.000000000               0.000000000              -0.178875000               0.000000000               0.000000000              -0.201812500               0.000000000               0.000000000              -0.224750000               0.000000000               0.000000000              -0.247687500               0.000000000               0.000000000              -0.270625000               0.000000000               0.000000000              -0.293562500               0.000000000               0.000000000              -0.316500000               0.000000000               0.000000000              -0.339437500               0.000000000               0.000000000              -0.362375000               0.000000000               0.000000000              -0.385312500               0.000000000               0.000000000              -0.408250000               0.000000000               0.000000000              -0.431187500               0.000000000               0.000000000              -0.454125000               0.000000000               0.000000000              -0.477062500               0.000000000               0.000000000              -0.500000000               0.000000000               0.000000000              -0.132359569               0.013036280               0.000000000              -0.155337096               0.016127762               0.000000000              -0.178314623               0.019219245               0.000000000              -0.201292150               0.022310727               0.000000000              -0.224269676               0.025402210               0.000000000              -0.247247203               0.028493692               0.000000000              -0.270224730               0.031585175               0.000000000              -0.293202257               0.034676657               0.000000000              -0.316179784               0.037768140               0.000000000              -0.339157311               0.040859622               0.000000000              -0.362134838               0.043951105               0.000000000              -0.385112365               0.047042587               0.000000000              -0.408089892               0.050134070               0.000000000              -0.431067419               0.053225552               0.000000000              -0.454044946               0.056317035               0.000000000              -0.477022473               0.059408517               0.000000000              -0.500000000               0.062500000               0.000000000              -0.130444442               0.025947013               0.000000000              -0.153541665               0.032137825               0.000000000              -0.176638887               0.038328636               0.000000000              -0.199736109               0.044519448               0.000000000              -0.222833332               0.050710260               0.000000000              -0.245930554               0.056901071               0.000000000              -0.269027776               0.063091883               0.000000000              -0.292124999               0.069282695               0.000000000              -0.315222221               0.075473506               0.000000000              -0.338319444               0.081664318               0.000000000              -0.361416666               0.087855130               0.000000000              -0.384513888               0.094045942               0.000000000              -0.407611111               0.100236753               0.000000000              -0.430708333               0.106427565               0.000000000              -0.453805555               0.112618377               0.000000000              -0.476902778               0.118809188               0.000000000              -0.500000000               0.125000000               0.000000000              -0.127273065               0.038607862               0.000000000              -0.150568498               0.047913621               0.000000000              -0.173863932               0.057219379               0.000000000              -0.197159365               0.066525138               0.000000000              -0.220454798               0.075830897               0.000000000              -0.243750232               0.085136655               0.000000000              -0.267045665               0.094442414               0.000000000              -0.290341099               0.103748172               0.000000000              -0.313636532               0.113053931               0.000000000              -0.336931966               0.122359690               0.000000000              -0.360227399               0.131665448               0.000000000              -0.383522833               0.140971207               0.000000000              -0.406818266               0.150276966               0.000000000              -0.430113700               0.159582724               0.000000000              -0.453409133               0.168888483               0.000000000              -0.476704567               0.178194241               0.000000000              -0.500000000               0.187500000               0.000000000              -0.122875978               0.050896897               0.000000000              -0.146446229               0.063340840               0.000000000              -0.170016481               0.075784784               0.000000000              -0.193586732               0.088228728               0.000000000              -0.217156983               0.100672672               0.000000000              -0.240727235               0.113116616               0.000000000              -0.264297486               0.125560560               0.000000000              -0.287867738               0.138004504               0.000000000              -0.311437989               0.150448448               0.000000000              -0.335008240               0.162892392               0.000000000              -0.358578492               0.175336336               0.000000000              -0.382148743               0.187780280               0.000000000              -0.405718994               0.200224224               0.000000000              -0.429289246               0.212668168               0.000000000              -0.452859497               0.225112112               0.000000000              -0.476429749               0.237556056               0.000000000              -0.500000000               0.250000000               0.000000000              -0.117295528               0.062695766               0.000000000              -0.141214558               0.078308531               0.000000000              -0.165133587               0.093921295               0.000000000              -0.189052617               0.109534060               0.000000000              -0.212971646               0.125146824               0.000000000              -0.236890676               0.140759589               0.000000000              -0.260809705               0.156372354               0.000000000              -0.284728735               0.171985118               0.000000000              -0.308647764               0.187597883               0.000000000              -0.332566794               0.203210648               0.000000000              -0.356485823               0.218823412               0.000000000              -0.380404853               0.234436177               0.000000000              -0.404323882               0.250048941               0.000000000              -0.428242912               0.265661706               0.000000000              -0.452161941               0.281274471               0.000000000              -0.476080971               0.296887235               0.000000000              -0.500000000               0.312500000               0.000000000              -0.110585458               0.073890841               0.000000000              -0.134923867               0.092710163               0.000000000              -0.159262276               0.111529486               0.000000000              -0.183600685               0.130348808               0.000000000              -0.207939094               0.149168131               0.000000000              -0.232277503               0.167987453               0.000000000              -0.256615912               0.186806776               0.000000000              -0.280954320               0.205626098               0.000000000              -0.305292729               0.224445420               0.000000000              -0.329631138               0.243264743               0.000000000              -0.353969547               0.262084065               0.000000000              -0.378307956               0.280903388               0.000000000              -0.402646365               0.299722710               0.000000000              -0.426984773               0.318542033               0.000000000              -0.451323182               0.337361355               0.000000000              -0.475661591               0.356180678               0.000000000              -0.500000000               0.375000000               0.000000000              -0.102810390               0.084374307               0.000000000              -0.127634741               0.106444663               0.000000000              -0.152459092               0.128515018               0.000000000              -0.177283442               0.150585374               0.000000000              -0.202107793               0.172655730               0.000000000              -0.226932143               0.194726086               0.000000000              -0.251756494               0.216796442               0.000000000              -0.276580845               0.238866798               0.000000000              -0.301405195               0.260937153               0.000000000              -0.326229546               0.283007509               0.000000000              -0.351053896               0.305077865               0.000000000              -0.375878247               0.327148221               0.000000000              -0.400702598               0.349218577               0.000000000              -0.425526948               0.371288933               0.000000000              -0.450351299               0.393359288               0.000000000              -0.475175649               0.415429644               0.000000000              -0.500000000               0.437500000               0.000000000              -0.094045202               0.094045202               0.000000000              -0.119417377               0.119417377               0.000000000              -0.144789552               0.144789552               0.000000000              -0.170161727               0.170161727               0.000000000              -0.195533901               0.195533901               0.000000000              -0.220906076               0.220906076               0.000000000              -0.246278251               0.246278251               0.000000000              -0.271650426               0.271650426               0.000000000              -0.297022601               0.297022601               0.000000000              -0.322394776               0.322394776               0.000000000              -0.347766951               0.347766951               0.000000000              -0.373139126               0.373139126               0.000000000              -0.398511300               0.398511300               0.000000000              -0.423883475               0.423883475               0.000000000              -0.449255650               0.449255650               0.000000000              -0.474627825               0.474627825               0.000000000              -0.500000000               0.500000000               0.000000000              -0.084374307               0.102810390               0.000000000              -0.106444663               0.127634741               0.000000000              -0.128515018               0.152459092               0.000000000              -0.150585374               0.177283442               0.000000000              -0.172655730               0.202107793               0.000000000              -0.194726086               0.226932143               0.000000000              -0.216796442               0.251756494               0.000000000              -0.238866798               0.276580845               0.000000000              -0.260937153               0.301405195               0.000000000              -0.283007509               0.326229546               0.000000000              -0.305077865               0.351053896               0.000000000              -0.327148221               0.375878247               0.000000000              -0.349218577               0.400702598               0.000000000              -0.371288933               0.425526948               0.000000000              -0.393359288               0.450351299               0.000000000              -0.415429644               0.475175649               0.000000000              -0.437500000               0.500000000               0.000000000              -0.073890841               0.110585458               0.000000000              -0.092710163               0.134923867               0.000000000              -0.111529486               0.159262276               0.000000000              -0.130348808               0.183600685               0.000000000              -0.149168131               0.207939094               0.000000000              -0.167987453               0.232277503               0.000000000              -0.186806776               0.256615912               0.000000000              -0.205626098               0.280954320               0.000000000              -0.224445420               0.305292729               0.000000000              -0.243264743               0.329631138               0.000000000              -0.262084065               0.353969547               0.000000000              -0.280903388               0.378307956               0.000000000              -0.299722710               0.402646365               0.000000000              -0.318542033               0.426984773               0.000000000              -0.337361355               0.451323182               0.000000000              -0.356180678               0.475661591               0.000000000              -0.375000000               0.500000000               0.000000000              -0.062695766               0.117295528               0.000000000              -0.078308531               0.141214558               0.000000000              -0.093921295               0.165133587               0.000000000              -0.109534060               0.189052617               0.000000000              -0.125146824               0.212971646               0.000000000              -0.140759589               0.236890676               0.000000000              -0.156372354               0.260809705               0.000000000              -0.171985118               0.284728735               0.000000000              -0.187597883               0.308647764               0.000000000              -0.203210648               0.332566794               0.000000000              -0.218823412               0.356485823               0.000000000              -0.234436177               0.380404853               0.000000000              -0.250048941               0.404323882               0.000000000              -0.265661706               0.428242912               0.000000000              -0.281274471               0.452161941               0.000000000              -0.296887235               0.476080971               0.000000000              -0.312500000               0.500000000               0.000000000              -0.050896897               0.122875978               0.000000000              -0.063340840               0.146446229               0.000000000              -0.075784784               0.170016481               0.000000000              -0.088228728               0.193586732               0.000000000              -0.100672672               0.217156983               0.000000000              -0.113116616               0.240727235               0.000000000              -0.125560560               0.264297486               0.000000000              -0.138004504               0.287867738               0.000000000              -0.150448448               0.311437989               0.000000000              -0.162892392               0.335008240               0.000000000              -0.175336336               0.358578492               0.000000000              -0.187780280               0.382148743               0.000000000              -0.200224224               0.405718994               0.000000000              -0.212668168               0.429289246               0.000000000              -0.225112112               0.452859497               0.000000000              -0.237556056               0.476429749               0.000000000              -0.250000000               0.500000000               0.000000000              -0.038607862               0.127273065               0.000000000              -0.047913621               0.150568498               0.000000000              -0.057219379               0.173863932               0.000000000              -0.066525138               0.197159365               0.000000000              -0.075830897               0.220454798               0.000000000              -0.085136655               0.243750232               0.000000000              -0.094442414               0.267045665               0.000000000              -0.103748172               0.290341099               0.000000000              -0.113053931               0.313636532               0.000000000              -0.122359690               0.336931966               0.000000000              -0.131665448               0.360227399               0.000000000              -0.140971207               0.383522833               0.000000000              -0.150276966               0.406818266               0.000000000              -0.159582724               0.430113700               0.000000000              -0.168888483               0.453409133               0.000000000              -0.178194241               0.476704567               0.000000000              -0.187500000               0.500000000               0.000000000              -0.025947013               0.130444442               0.000000000              -0.032137825               0.153541665               0.000000000              -0.038328636               0.176638887               0.000000000              -0.044519448               0.199736109               0.000000000              -0.050710260               0.222833332               0.000000000              -0.056901071               0.245930554               0.000000000              -0.063091883               0.269027776               0.000000000              -0.069282695               0.292124999               0.000000000              -0.075473506               0.315222221               0.000000000              -0.081664318               0.338319444               0.000000000              -0.087855130               0.361416666               0.000000000              -0.094045942               0.384513888               0.000000000              -0.100236753               0.407611111               0.000000000              -0.106427565               0.430708333               0.000000000              -0.112618377               0.453805555               0.000000000              -0.118809188               0.476902778               0.000000000              -0.125000000               0.500000000               0.000000000              -0.013036280               0.132359569               0.000000000              -0.016127762               0.155337096               0.000000000              -0.019219245               0.178314623               0.000000000              -0.022310727               0.201292150               0.000000000              -0.025402210               0.224269676               0.000000000              -0.028493692               0.247247203               0.000000000              -0.031585175               0.270224730               0.000000000              -0.034676657               0.293202257               0.000000000              -0.037768140               0.316179784               0.000000000              -0.040859622               0.339157311               0.000000000              -0.043951105               0.362134838               0.000000000              -0.047042587               0.385112365               0.000000000              -0.050134070               0.408089892               0.000000000              -0.053225552               0.431067419               0.000000000              -0.056317035               0.454044946               0.000000000              -0.059408517               0.477022473               0.000000000              -0.062500000               0.500000000               0.000000000               0.000000000               0.133000000               0.000000000               0.000000000               0.155937500               0.000000000               0.000000000               0.178875000               0.000000000               0.000000000               0.201812500               0.000000000               0.000000000               0.224750000               0.000000000               0.000000000               0.247687500               0.000000000               0.000000000               0.270625000               0.000000000               0.000000000               0.293562500               0.000000000               0.000000000               0.316500000               0.000000000               0.000000000               0.339437500               0.000000000               0.000000000               0.362375000               0.000000000               0.000000000               0.385312500               0.000000000               0.000000000               0.408250000               0.000000000               0.000000000               0.431187500               0.000000000               0.000000000               0.454125000               0.000000000               0.000000000               0.477062500               0.000000000               0.000000000               0.500000000               0.000000000 </DataArray>
</Points>
<Cells>
<DataArray type="Int32"                                    Name="connectivity"                                                      NumberOfComponents=" 1" format="ascii">
         0          1         18         17          1          2         19         18          2          3         20         19          3          4         21         20          4          5         22         21          5          6         23         22          6          7         24         23          7          8         25         24          8          9         26         25          9         10         27         26         10         11         28         27         11         12         29         28         12         13         30         29         13         14         31         30         14         15         32         31         15         16         33         32         17         18         35         34         18         19         36         35         19         20         37         36         20         21         38         37         21         22         39         38         22         23         40         39         23         24         41         40         24         25         42         41         25         26         43         42         26         27         44         43         27         28         45         44         28         29         46         45         29         30         47         46         30         31         48         47         31         32         49         48         32         33         50         49         34         35         52         51         35         36         53         52         36         37         54         53         37         38         55         54         38         39         56         55         39         40         57         56         40         41         58         57         41         42         59         58         42         43         60         59         43         44         61         60         44         45         62         61         45         46         63         62         46         47         64         63         47         48         65         64         48         49         66         65         49         50         67         66         51         52         69         68         52         53         70         69         53         54         71         70         54         55         72         71         55         56         73         72         56         57         74         73         57         58         75         74         58         59         76         75         59         60         77         76         60         61         78         77         61         62         79         78         62         63         80         79         63         64         81         80         64         65         82         81         65         66         83         82         66         67         84         83         68         69         86         85         69         70         87         86         70         71         88         87         71         72         89         88         72         73         90         89         73         74         91         90         74         75         92         91         75         76         93         92         76         77         94         93         77         78         95         94         78         79         96         95         79         80         97         96         80         81         98         97         81         82         99         98         82         83        100         99         83         84        101        100         85         86        103        102         86         87        104        103         87         88        105        104         88         89        106        105         89         90        107        106         90         91        108        107         91         92        109        108         92         93        110        109         93         94        111        110         94         95        112        111         95         96        113        112         96         97        114        113         97         98        115        114         98         99        116        115         99        100        117        116        100        101        118        117        102        103        120        119        103        104        121        120        104        105        122        121        105        106        123        122        106        107        124        123        107        108        125        124        108        109        126        125        109        110        127        126        110        111        128        127        111        112        129        128        112        113        130        129        113        114        131        130        114        115        132        131        115        116        133        132        116        117        134        133        117        118        135        134        119        120        137        136        120        121        138        137        121        122        139        138        122        123        140        139        123        124        141        140        124        125        142        141        125        126        143        142        126        127        144        143        127        128        145        144        128        129        146        145        129        130        147        146        130        131        148        147        131        132        149        148        132        133        150        149        133        134        151        150        134        135        152        151        136        137        154        153        137        138        155        154        138        139        156        155        139        140        157        156        140        141        158        157        141        142        159        158        142        143        160        159        143        144        161        160        144        145        162        161        145        146        163        162        146        147        164        163        147        148        165        164        148        149        166        165        149        150        167        166        150        151        168        167        151        152        169        168        153        154        171        170        154        155        172        171        155        156        173        172        156        157        174        173        157        158        175        174        158        159        176        175        159        160        177        176        160        161        178        177        161        162        179        178        162        163        180        179        163        164        181        180        164        165        182        181        165        166        183        182        166        167        184        183        167        168        185        184        168        169        186        185        170        171        188        187        171        172        189        188        172        173        190        189        173        174        191        190        174        175        192        191        175        176        193        192        176        177        194        193        177        178        195        194        178        179        196        195        179        180        197        196        180        181        198        197        181        182        199        198        182        183        200        199        183        184        201        200        184        185        202        201        185        186        203        202        187        188        205        204        188        189        206        205        189        190        207        206        190        191        208        207        191        192        209        208        192        193        210        209        193        194        211        210        194        195        212        211        195        196        213        212        196        197        214        213        197        198        215        214        198        199        216        215        199        200        217        216        200        201        218        217        201        202        219        218        202        203        220        219        204        205        222        221        205        206        223        222        206        207        224        223        207        208        225        224        208        209        226        225        209        210        227        226        210        211        228        227        211        212        229        228        212        213        230        229        213        214        231        230        214        215        232        231        215        216        233        232        216        217        234        233        217        218        235        234        218        219        236        235        219        220        237        236        221        222        239        238        222        223        240        239        223        224        241        240        224        225        242        241        225        226        243        242        226        227        244        243        227        228        245        244        228        229        246        245        229        230        247        246        230        231        248        247        231        232        249        248        232        233        250        249        233        234        251        250        234        235        252        251        235        236        253        252        236        237        254        253        238        239        256        255        239        240        257        256        240        241        258        257        241        242        259        258        242        243        260        259        243        244        261        260        244        245        262        261        245        246        263        262        246        247        264        263        247        248        265        264        248        249        266        265        249        250        267        266        250        251        268        267        251        252        269        268        252        253        270        269        253        254        271        270        255        256        273        272        256        257        274        273        257        258        275        274        258        259        276        275        259        260        277        276        260        261        278        277        261        262        279        278        262        263        280        279        263        264        281        280        264        265        282        281        265        266        283        282        266        267        284        283        267        268        285        284        268        269        286        285        269        270        287        286        270        271        288        287        306        307          1          0        307        308          2          1        308        309          3          2        309        310          4          3        310        311          5          4        311        312          6          5        312        313          7          6        313        314          8          7        314        315          9          8        315        316         10          9        316        317         11         10        317        318         12         11        318        319         13         12        319        320         14         13        320        321         15         14        321        322         16         15        323        324        307        306        324        325        308        307        325        326        309        308        326        327        310        309        327        328        311        310        328        329        312        311        329        330        313        312        330        331        314        313        331        332        315        314        332        333        316        315        333        334        317        316        334        335        318        317        335        336        319        318        336        337        320        319        337        338        321        320        338        339        322        321        340        341        324        323        341        342        325        324        342        343        326        325        343        344        327        326        344        345        328        327        345        346        329        328        346        347        330        329        347        348        331        330        348        349        332        331        349        350        333        332        350        351        334        333        351        352        335        334        352        353        336        335        353        354        337        336        354        355        338        337        355        356        339        338        357        358        341        340        358        359        342        341        359        360        343        342        360        361        344        343        361        362        345        344        362        363        346        345        363        364        347        346        364        365        348        347        365        366        349        348        366        367        350        349        367        368        351        350        368        369        352        351        369        370        353        352        370        371        354        353        371        372        355        354        372        373        356        355        374        375        358        357        375        376        359        358        376        377        360        359        377        378        361        360        378        379        362        361        379        380        363        362        380        381        364        363        381        382        365        364        382        383        366        365        383        384        367        366        384        385        368        367        385        386        369        368        386        387        370        369        387        388        371        370        388        389        372        371        389        390        373        372        391        392        375        374        392        393        376        375        393        394        377        376        394        395        378        377        395        396        379        378        396        397        380        379        397        398        381        380        398        399        382        381        399        400        383        382        400        401        384        383        401        402        385        384        402        403        386        385        403        404        387        386        404        405        388        387        405        406        389        388        406        407        390        389        408        409        392        391        409        410        393        392        410        411        394        393        411        412        395        394        412        413        396        395        413        414        397        396        414        415        398        397        415        416        399        398        416        417        400        399        417        418        401        400        418        419        402        401        419        420        403        402        420        421        404        403        421        422        405        404        422        423        406        405        423        424        407        406        425        426        409        408        426        427        410        409        427        428        411        410        428        429        412        411        429        430        413        412        430        431        414        413        431        432        415        414        432        433        416        415        433        434        417        416        434        435        418        417        435        436        419        418        436        437        420        419        437        438        421        420        438        439        422        421        439        440        423        422        440        441        424        423        442        443        426        425        443        444        427        426        444        445        428        427        445        446        429        428        446        447        430        429        447        448        431        430        448        449        432        431        449        450        433        432        450        451        434        433        451        452        435        434        452        453        436        435        453        454        437        436        454        455        438        437        455        456        439        438        456        457        440        439        457        458        441        440        459        460        443        442        460        461        444        443        461        462        445        444        462        463        446        445        463        464        447        446        464        465        448        447        465        466        449        448        466        467        450        449        467        468        451        450        468        469        452        451        469        470        453        452        470        471        454        453        471        472        455        454        472        473        456        455        473        474        457        456        474        475        458        457        476        477        460        459        477        478        461        460        478        479        462        461        479        480        463        462        480        481        464        463        481        482        465        464        482        483        466        465        483        484        467        466        484        485        468        467        485        486        469        468        486        487        470        469        487        488        471        470        488        489        472        471        489        490        473        472        490        491        474        473        491        492        475        474        493        494        477        476        494        495        478        477        495        496        479        478        496        497        480        479        497        498        481        480        498        499        482        481        499        500        483        482        500        501        484        483        501        502        485        484        502        503        486        485        503        504        487        486        504        505        488        487        505        506        489        488        506        507        490        489        507        508        491        490        508        509        492        491        510        511        494        493        511        512        495        494        512        513        496        495        513        514        497        496        514        515        498        497        515        516        499        498        516        517        500        499        517        518        501        500        518        519        502        501        519        520        503        502        520        521        504        503        521        522        505        504        522        523        506        505        523        524        507        506        524        525        508        507        525        526        509        508        527        528        511        510        528        529        512        511        529        530        513        512        530        531        514        513        531        532        515        514        532        533        516        515        533        534        517        516        534        535        518        517        535        536        519        518        536        537        520        519        537        538        521        520        538        539        522        521        539        540        523        522        540        541        524        523        541        542        525        524        542        543        526        525        544        545        528        527        545        546        529        528        546        547        530        529        547        548        531        530        548        549        532        531        549        550        533        532        550        551        534        533        551        552        535        534        552        553        536        535        553        554        537        536        554        555        538        537        555        556        539        538        556        557        540        539        557        558        541        540        558        559        542        541        559        560        543        542        561        562        545        544        562        563        546        545        563        564        547        546        564        565        548        547        565        566        549        548        566        567        550        549        567        568        551        550        568        569        552        551        569        570        553        552        570        571        554        553        571        572        555        554        572        573        556        555        573        574        557        556        574        575        558        557        575        576        559        558        576        577        560        559        578        579        596        595        579        580        597        596        580        581        598        597        581        582        599        598        582        583        600        599        583        584        601        600        584        585        602        601        585        586        603        602        586        587        604        603        587        588        605        604        588        589        606        605        589        590        607        606        590        591        608        607        591        592        609        608        592        593        610        609        593        594        611        610        595        596        613        612        596        597        614        613        597        598        615        614        598        599        616        615        599        600        617        616        600        601        618        617        601        602        619        618        602        603        620        619        603        604        621        620        604        605        622        621        605        606        623        622        606        607        624        623        607        608        625        624        608        609        626        625        609        610        627        626        610        611        628        627        612        613        630        629        613        614        631        630        614        615        632        631        615        616        633        632        616        617        634        633        617        618        635        634        618        619        636        635        619        620        637        636        620        621        638        637        621        622        639        638        622        623        640        639        623        624        641        640        624        625        642        641        625        626        643        642        626        627        644        643        627        628        645        644        629        630        647        646        630        631        648        647        631        632        649        648        632        633        650        649        633        634        651        650        634        635        652        651        635        636        653        652        636        637        654        653        637        638        655        654        638        639        656        655        639        640        657        656        640        641        658        657        641        642        659        658        642        643        660        659        643        644        661        660        644        645        662        661        646        647        664        663        647        648        665        664        648        649        666        665        649        650        667        666        650        651        668        667        651        652        669        668        652        653        670        669        653        654        671        670        654        655        672        671        655        656        673        672        656        657        674        673        657        658        675        674        658        659        676        675        659        660        677        676        660        661        678        677        661        662        679        678        663        664        681        680        664        665        682        681        665        666        683        682        666        667        684        683        667        668        685        684        668        669        686        685        669        670        687        686        670        671        688        687        671        672        689        688        672        673        690        689        673        674        691        690        674        675        692        691        675        676        693        692        676        677        694        693        677        678        695        694        678        679        696        695        680        681        698        697        681        682        699        698        682        683        700        699        683        684        701        700        684        685        702        701        685        686        703        702        686        687        704        703        687        688        705        704        688        689        706        705        689        690        707        706        690        691        708        707        691        692        709        708        692        693        710        709        693        694        711        710        694        695        712        711        695        696        713        712        697        698        715        714        698        699        716        715        699        700        717        716        700        701        718        717        701        702        719        718        702        703        720        719        703        704        721        720        704        705        722        721        705        706        723        722        706        707        724        723        707        708        725        724        708        709        726        725        709        710        727        726        710        711        728        727        711        712        729        728        712        713        730        729        714        715        732        731        715        716        733        732        716        717        734        733        717        718        735        734        718        719        736        735        719        720        737        736        720        721        738        737        721        722        739        738        722        723        740        739        723        724        741        740        724        725        742        741        725        726        743        742        726        727        744        743        727        728        745        744        728        729        746        745        729        730        747        746        731        732        749        748        732        733        750        749        733        734        751        750        734        735        752        751        735        736        753        752        736        737        754        753        737        738        755        754        738        739        756        755        739        740        757        756        740        741        758        757        741        742        759        758        742        743        760        759        743        744        761        760        744        745        762        761        745        746        763        762        746        747        764        763        748        749        766        765        749        750        767        766        750        751        768        767        751        752        769        768        752        753        770        769        753        754        771        770        754        755        772        771        755        756        773        772        756        757        774        773        757        758        775        774        758        759        776        775        759        760        777        776        760        761        778        777        761        762        779        778        762        763        780        779        763        764        781        780        765        766        783        782        766        767        784        783        767        768        785        784        768        769        786        785        769        770        787        786        770        771        788        787        771        772        789        788        772        773        790        789        773        774        791        790        774        775        792        791        775        776        793        792        776        777        794        793        777        778        795        794        778        779        796        795        779        780        797        796        780        781        798        797        782        783        800        799        783        784        801        800        784        785        802        801        785        786        803        802        786        787        804        803        787        788        805        804        788        789        806        805        789        790        807        806        790        791        808        807        791        792        809        808        792        793        810        809        793        794        811        810        794        795        812        811        795        796        813        812        796        797        814        813        797        798        815        814        799        800        817        816        800        801        818        817        801        802        819        818        802        803        820        819        803        804        821        820        804        805        822        821        805        806        823        822        806        807        824        823        807        808        825        824        808        809        826        825        809        810        827        826        810        811        828        827        811        812        829        828        812        813        830        829        813        814        831        830        814        815        832        831        816        817        834        833        817        818        835        834        818        819        836        835        819        820        837        836        820        821        838        837        821        822        839        838        822        823        840        839        823        824        841        840        824        825        842        841        825        826        843        842        826        827        844        843        827        828        845        844        828        829        846        845        829        830        847        846        830        831        848        847        831        832        849        848        833        834        562        561        834        835        563        562        835        836        564        563        836        837        565        564        837        838        566        565        838        839        567        566        839        840        568        567        840        841        569        568        841        842        570        569        842        843        571        570        843        844        572        571        844        845        573        572        845        846        574        573        846        847        575        574        847        848        576        575        848        849        577        576        884        885        579        578        885        886        580        579        886        887        581        580        887        888        582        581        888        889        583        582        889        890        584        583        890        891        585        584        891        892        586        585        892        893        587        586        893        894        588        587        894        895        589        588        895        896        590        589        896        897        591        590        897        898        592        591        898        899        593        592        899        900        594        593        901        902        885        884        902        903        886        885        903        904        887        886        904        905        888        887        905        906        889        888        906        907        890        889        907        908        891        890        908        909        892        891        909        910        893        892        910        911        894        893        911        912        895        894        912        913        896        895        913        914        897        896        914        915        898        897        915        916        899        898        916        917        900        899        918        919        902        901        919        920        903        902        920        921        904        903        921        922        905        904        922        923        906        905        923        924        907        906        924        925        908        907        925        926        909        908        926        927        910        909        927        928        911        910        928        929        912        911        929        930        913        912        930        931        914        913        931        932        915        914        932        933        916        915        933        934        917        916        935        936        919        918        936        937        920        919        937        938        921        920        938        939        922        921        939        940        923        922        940        941        924        923        941        942        925        924        942        943        926        925        943        944        927        926        944        945        928        927        945        946        929        928        946        947        930        929        947        948        931        930        948        949        932        931        949        950        933        932        950        951        934        933        952        953        936        935        953        954        937        936        954        955        938        937        955        956        939        938        956        957        940        939        957        958        941        940        958        959        942        941        959        960        943        942        960        961        944        943        961        962        945        944        962        963        946        945        963        964        947        946        964        965        948        947        965        966        949        948        966        967        950        949        967        968        951        950        969        970        953        952        970        971        954        953        971        972        955        954        972        973        956        955        973        974        957        956        974        975        958        957        975        976        959        958        976        977        960        959        977        978        961        960        978        979        962        961        979        980        963        962        980        981        964        963        981        982        965        964        982        983        966        965        983        984        967        966        984        985        968        967        986        987        970        969        987        988        971        970        988        989        972        971        989        990        973        972        990        991        974        973        991        992        975        974        992        993        976        975        993        994        977        976        994        995        978        977        995        996        979        978        996        997        980        979        997        998        981        980        998        999        982        981        999       1000        983        982       1000       1001        984        983       1001       1002        985        984       1003       1004        987        986       1004       1005        988        987       1005       1006        989        988       1006       1007        990        989       1007       1008        991        990       1008       1009        992        991       1009       1010        993        992       1010       1011        994        993       1011       1012        995        994       1012       1013        996        995       1013       1014        997        996       1014       1015        998        997       1015       1016        999        998       1016       1017       1000        999       1017       1018       1001       1000       1018       1019       1002       1001       1020       1021       1004       1003       1021       1022       1005       1004       1022       1023       1006       1005       1023       1024       1007       1006       1024       1025       1008       1007       1025       1026       1009       1008       1026       1027       1010       1009       1027       1028       1011       1010       1028       1029       1012       1011       1029       1030       1013       1012       1030       1031       1014       1013       1031       1032       1015       1014       1032       1033       1016       1015       1033       1034       1017       1016       1034       1035       1018       1017       1035       1036       1019       1018       1037       1038       1021       1020       1038       1039       1022       1021       1039       1040       1023       1022       1040       1041       1024       1023       1041       1042       1025       1024       1042       1043       1026       1025       1043       1044       1027       1026       1044       1045       1028       1027       1045       1046       1029       1028       1046       1047       1030       1029       1047       1048       1031       1030       1048       1049       1032       1031       1049       1050       1033       1032       1050       1051       1034       1033       1051       1052       1035       1034       1052       1053       1036       1035       1054       1055       1038       1037       1055       1056       1039       1038       1056       1057       1040       1039       1057       1058       1041       1040       1058       1059       1042       1041       1059       1060       1043       1042       1060       1061       1044       1043       1061       1062       1045       1044       1062       1063       1046       1045       1063       1064       1047       1046       1064       1065       1048       1047       1065       1066       1049       1048       1066       1067       1050       1049       1067       1068       1051       1050       1068       1069       1052       1051       1069       1070       1053       1052       1071       1072       1055       1054       1072       1073       1056       1055       1073       1074       1057       1056       1074       1075       1058       1057       1075       1076       1059       1058       1076       1077       1060       1059       1077       1078       1061       1060       1078       1079       1062       1061       1079       1080       1063       1062       1080       1081       1064       1063       1081       1082       1065       1064       1082       1083       1066       1065       1083       1084       1067       1066       1084       1085       1068       1067       1085       1086       1069       1068       1086       1087       1070       1069       1088       1089       1072       1071       1089       1090       1073       1072       1090       1091       1074       1073       1091       1092       1075       1074       1092       1093       1076       1075       1093       1094       1077       1076       1094       1095       1078       1077       1095       1096       1079       1078       1096       1097       1080       1079       1097       1098       1081       1080       1098       1099       1082       1081       1099       1100       1083       1082       1100       1101       1084       1083       1101       1102       1085       1084       1102       1103       1086       1085       1103       1104       1087       1086       1105       1106       1089       1088       1106       1107       1090       1089       1107       1108       1091       1090       1108       1109       1092       1091       1109       1110       1093       1092       1110       1111       1094       1093       1111       1112       1095       1094       1112       1113       1096       1095       1113       1114       1097       1096       1114       1115       1098       1097       1115       1116       1099       1098       1116       1117       1100       1099       1117       1118       1101       1100       1118       1119       1102       1101       1119       1120       1103       1102       1120       1121       1104       1103       1122       1123       1106       1105       1123       1124       1107       1106       1124       1125       1108       1107       1125       1126       1109       1108       1126       1127       1110       1109       1127       1128       1111       1110       1128       1129       1112       1111       1129       1130       1113       1112       1130       1131       1114       1113       1131       1132       1115       1114       1132       1133       1116       1115       1133       1134       1117       1116       1134       1135       1118       1117       1135       1136       1119       1118       1136       1137       1120       1119       1137       1138       1121       1120        272        273       1123       1122        273        274       1124       1123        274        275       1125       1124        275        276       1126       1125        276        277       1127       1126        277        278       1128       1127        278        279       1129       1128        279        280       1130       1129        280        281       1131       1130        281        282       1132       1131        282        283       1133       1132        283        284       1134       1133        284        285       1135       1134        285        286       1136       1135        286        287       1137       1136        287        288       1138       1137 </DataArray>
<DataArray type="Int32"                                    Name="offsets"                                                      NumberOfComponents=" 1" format="ascii">
         4          8         12         16         20         24         28         32         36         40         44         48         52         56         60         64         68         72         76         80         84         88         92         96        100        104        108        112        116        120        124        128        132        136        140        144        148        152        156        160        164        168        172        176        180        184        188        192        196        200        204        208        212        216        220        224        228        232        236        240        244        248        252        256        260        264        268        272        276        280        284        288        292        296        300        304        308        312        316        320        324        328        332        336        340        344        348        352        356        360        364        368        372        376        380        384        388        392        396        400        404        408        412        416        420        424        428        432        436        440        444        448        452        456        460        464        468        472        476        480        484        488        492        496        500        504        508        512        516        520        524        528        532        536        540        544        548        552        556        560        564        568        572        576        580        584        588        592        596        600        604        608        612        616        620        624        628        632        636        640        644        648        652        656        660        664        668        672        676        680        684        688        692        696        700        704        708        712        716        720        724        728        732        736        740        744        748        752        756        760        764        768        772        776        780        784        788        792        796        800        804        808        812        816        820        824        828        832        836        840        844        848        852        856        860        864        868        872        876        880        884        888        892        896        900        904        908        912        916        920        924        928        932        936        940        944        948        952        956        960        964        968        972        976        980        984        988        992        996       1000       1004       1008       1012       1016       1020       1024       1028       1032       1036       1040       1044       1048       1052       1056       1060       1064       1068       1072       1076       1080       1084       1088       1092       1096       1100       1104       1108       1112       1116       1120       1124       1128       1132       1136       1140       1144       1148       1152       1156       1160       1164       1168       1172       1176       1180       1184       1188       1192       1196       1200       1204       1208       1212       1216       1220       1224       1228       1232       1236       1240       1244       1248       1252       1256       1260       1264       1268       1272       1276       1280       1284       1288       1292       1296       1300       1304       1308       1312       1316       1320       1324       1328       1332       1336       1340       1344       1348       1352       1356       1360       1364       1368       1372       1376       1380       1384       1388       1392       1396       1400       1404       1408       1412       1416       1420       1424       1428       1432       1436       1440       1444       1448       1452       1456       1460       1464       1468       1472       1476       1480       1484       1488       1492       1496       1500       1504       1508       1512       1516       1520       1524       1528       1532       1536       1540       1544       1548       1552       1556       1560       1564       1568       1572       1576       1580       1584       1588       1592       1596       1600       1604       1608       1612       1616       1620       1624       1628       1632       1636       1640       1644       1648       1652       1656       1660       1664       1668       1672       1676       1680       1684       1688       1692       1696       1700       1704       1708       1712       1716       1720       1724       1728       1732       1736       1740       1744       1748       1752       1756       1760       1764       1768       1772       1776       1780       1784       1788       1792       1796       1800       1804       1808       1812       1816       1820       1824       1828       1832       1836       1840       1844       1848       1852       1856       1860       1864       1868       1872       1876       1880       1884       1888       1892       1896       1900       1904       1908       1912       1916       1920       1924       1928       1932       1936       1940       1944       1948       1952       1956       1960       1964       1968       1972       1976       1980       1984       1988       1992       1996       2000       2004       2008       2012       2016       2020       2024       2028       2032       2036       2040       2044       2048       2052       2056       2060       2064       2068       2072       2076       2080       2084       2088       2092       2096       2100       2104       2108       2112       2116       2120       2124       2128       2132       2136       2140       2144       2148       2152       2156       2160       2164       2168       2172       2176       2180       2184       2188       2192       2196       2200       2204       2208       2212       2216       2220       2224       2228       2232       2236       2240       2244       2248       2252       2256       2260       2264       2268       2272       2276       2280       2284       2288       2292       2296       2300       2304       2308       2312       2316       2320       2324       2328       2332       2336       2340       2344       2348       2352       2356       2360       2364       2368       2372       2376       2380       2384       2388       2392       2396       2400       2404       2408       2412       2416       2420       2424       2428       2432       2436       2440       2444       2448       2452       2456       2460       2464       2468       2472       2476       2480       2484       2488       2492       2496       2500       2504       2508       2512       2516       2520       2524       2528       2532       2536       2540       2544       2548       2552       2556       2560       2564       2568       2572       2576       2580       2584       2588       2592       2596       2600       2604       2608       2612       2616       2620       2624       2628       2632       2636       2640       2644       2648       2652       2656       2660       2664       2668       2672       2676       2680       2684       2688       2692       2696       2700       2704       2708       2712       2716       2720       2724       2728       2732       2736       2740       2744       2748       2752       2756       2760       2764       2768       2772       2776       2780       2784       2788       2792       2796       2800       2804       2808       2812       2816       2820       2824       2828       2832       2836       2840       2844       2848       2852       2856       2860       2864       2868       2872       2876       2880       2884       2888       2892       2896       2900       2904       2908       2912       2916       2920       2924       2928       2932       2936       2940       2944       2948       2952       2956       2960       2964       2968       2972       2976       2980       2984       2988       2992       2996       3000       3004       3008       3012       3016       3020       3024       3028       3032       3036       3040       3044       3048       3052       3056       3060       3064       3068       3072       3076       3080       3084       3088       3092       3096       3100       3104       3108       3112       3116       3120       3124       3128       3132       3136       3140       3144       3148       3152       3156       3160       3164       3168       3172       3176       3180       3184       3188       3192       3196       3200       3204       3208       3212       3216       3220       3224       3228       3232       3236       3240       3244       3248       3252       3256       3260       3264       3268       3272       3276       3280       3284       3288       3292       3296       3300       3304       3308       3312       3316       3320       3324       3328       3332       3336       3340       3344       3348       3352       3356       3360       3364       3368       3372       3376       3380       3384       3388       3392       3396       3400       3404       3408       3412       3416       3420       3424       3428       3432       3436       3440       3444       3448       3452       3456       3460       3464       3468       3472       3476       3480       3484       3488       3492       3496       3500       3504       3508       3512       3516       3520       3524       3528       3532       3536       3540       3544       3548       3552       3556       3560       3564       3568       3572       3576       3580       3584       3588       3592       3596       3600       3604       3608       3612       3616       3620       3624       3628       3632       3636       3640       3644       3648       3652       3656       3660       3664       3668       3672       3676       3680       3684       3688       3692       3696       3700       3704       3708       3712       3716       3720       3724       3728       3732       3736       3740       3744       3748       3752       3756       3760       3764       3768       3772       3776       3780       3784       3788       3792       3796       3800       3804       3808       3812       3816       3820       3824       3828       3832       3836       3840       3844       3848       3852       3856       3860       3864       3868       3872       3876       3880       3884       3888       3892       3896       3900       3904       3908       3912       3916       3920       3924       3928       3932       3936       3940       3944       3948       3952       3956       3960       3964       3968       3972       3976       3980       3984       3988       3992       3996       4000       4004       4008       4012       4016       4020       4024       4028       4032       4036       4040       4044       4048       4052       4056       4060       4064       4068       4072       4076       4080       4084       4088       4092       4096 </DataArray>
<DataArray type="UInt8"                                    Name="types"                                                      NumberOfComponents=" 1" format="ascii">
         9          9          9          9          9          9          9          9          9          9          9          9          9          9          9          9          9          9          9          9          9          9          9          9          9          9          9          9          9          9          9          9          9          9          9          9          9          9          9          9          9          9          9          9          9          9          9          9          9          9          9          9          9          9          9          9          9          9          9          9          9          9          9          9          9          9          9          9          9          9          9          9          9          9          9          9          9          9          9          9          9          9          9          9          9          9          9          9          9          9          9          9          9          9          9          9          9          9          9          9          9          9          9          9          9          9          9          9          9          9          9          9          9          9          9          9          9          9          9          9          9          9          9          9          9          9          9          9          9          9          9          9          9          9          9          9          9          9          9          9          9          9          9          9          9          9          9          9          9          9          9          9          9          9          9          9          9          9          9          9          9          9          9          9          9          9          9          9          9          9          9          9          9          9          9          9          9          9          9          9          9          9          9          9          9          9          9          9          9          9          9          9          9          9          9          9          9          9          9          9          9          9          9          9          9          9          9          9          9          9          9          9          9          9          9          9          9          9          9          9          9          9          9          9          9          9          9          9          9          9          9          9          9          9          9          9          9          9          9          9          9          9          9          9          9          9          9          9          9          9          9          9          9          9          9          9          9          9          9          9          9          9          9          9          9          9          9          9          9          9          9          9          9          9          9          9          9          9          9          9          9          9          9          9          9          9          9          9          9          9          9          9          9          9          9          9          9          9          9          9          9          9          9          9          9          9          9          9          9          9          9          9          9          9          9          9          9          9          9          9          9          9          9          9          9          9          9          9          9          9          9          9          9          9          9          9          9          9          9          9          9          9          9          9          9          9          9          9          9          9          9          9          9          9          9          9          9          9          9          9          9          9          9          9          9          9          9          9          9          9          9          9          9          9          9          9          9          9          9          9          9          9          9          9          9          9          9          9          9          9          9          9          9          9          9          9          9          9          9          9          9          9          9          9          9          9          9          9          9          9          9          9          9          9          9          9          9          9          9          9          9          9          9          9          9          9          9          9          9          9          9          9          9          9          9          9          9          9          9          9          9          9          9          9          9          9          9          9          9          9          9          9          9          9          9          9          9          9          9          9          9          9          9          9          9          9          9          9          9          9          9          9          9          9          9          9          9          9          9          9          9          9          9          9          9          9          9          9          9          9          9          9          9          9          9          9          9          9          9          9          9          9          9          9          9          9          9          9          9          9          9          9          9          9          9          9          9          9          9          9          9          9          9          9          9          9          9          9          9          9          9          9          9          9          9          9          9          9          9          9          9          9          9          9          9          9          9          9          9          9          9          9          9          9          9          9          9          9          9          9          9          9          9          9          9          9          9          9          9          9          9          9          9          9          9          9          9          9          9          9          9          9          9          9          9          9          9          9          9          9          9          9          9          9          9          9          9          9          9          9          9          9          9          9          9          9          9          9          9          9          9          9          9          9          9          9          9          9          9          9          9          9          9          9          9          9          9          9          9          9          9          9          9          9          9          9          9          9          9          9          9          9          9          9          9          9          9          9          9          9          9          9          9          9          9          9          9          9          9          9          9          9          9          9          9          9          9          9          9          9          9          9          9          9          9          9          9          9          9          9          9          9          9          9          9          9          9          9          9          9          9          9          9          9          9          9          9          9          9          9          9          9          9          9          9          9          9          9          9          9          9          9          9          9          9          9          9          9          9          9          9          9          9          9          9          9          9          9          9          9          9          9          9          9          9          9          9          9          9          9          9          9          9          9          9          9          9          9          9          9          9          9          9          9          9          9          9          9          9          9          9          9          9          9          9          9          9          9          9          9          9          9          9          9          9          9          9          9          9          9          9          9          9          9          9          9          9          9          9          9          9          9          9          9          9          9          9          9          9          9          9          9          9          9          9          9          9          9          9          9          9          9          9          9          9          9          9          9          9          9          9          9          9          9          9          9          9          9          9          9          9          9          9          9          9          9          9          9          9          9          9          9          9          9          9          9          9          9          9          9          9          9          9          9          9          9          9          9          9          9          9          9          9          9          9          9          9          9          9          9          9          9          9          9          9          9          9          9          9          9          9          9          9          9          9          9          9          9          9          9          9          9          9          9          9          9          9          9          9          9          9          9          9          9          9          9          9          9          9          9          9          9          9          9          9          9          9          9          9          9          9          9          9          9          9          9          9          9          9          9          9          9          9          9          9          9          9          9          9          9          9          9          9          9          9          9          9          9          9          9          9          9          9          9          9          9          9          9          9          9          9          9          9          9          9          9          9          9          9          9          9          9          9          9          9          9          9          9          9          9          9          9          9          9          9          9          9          9          9          9          9          9          9          9          9          9          9          9          9          9          9          9          9          9          9          9          9          9          9          9          9          9          9          9          9          9          9          9          9          9          9          9          9          9 </DataArray>
</Cells>
<CellData>
<DataArray type="Int32"                                    Name="material"                                                      NumberOfComponents=" 1" format="ascii">
         1          1          1          1          1          1          1          1          1          1          1          1          1          1          1          1          1          1          1          1          1          1          1          1          1          1          1          1          1          1          1          1          1          1          1          1          1          1          1          1          1          1          1          1          1          1          1          1          1          1          1          1          1          1          1          1          1          1          1          1          1          1          1          1          1          1          1          1          1          1          1          1          1          1          1          1          1          1          1          1          1          1          1          1          1          1          1          1          1          1          1          1          1          1          1          1          1          1          1          1          1          1          1          1          1          1          1          1          1          1          1          1          1          1          1          1          1          1          1          1          1          1          1          1          1          1          1          1          1          1          1          1          1          1          1          1          1          1          1          1          1          1          1          1          1          1          1          1          1          1          1          1          1          1          1          1          1          1          1          1          1          1          1          1          1          1          1          1          1          1          1          1          1          1          1          1          1          1          1          1          1          1          1          1          1          1          1          1          1          1          1          1          1          1          1          1          1          1          1          1          1          1          1          1          1          1          1          1          1          1          1          1          1          1          1          1          1          1          1          1          1          1          1          1          1          1          1          1          1          1          1          1          1          1          1          1          1          1          1          1          1          1          1          1          1          1          1          1          1          1          1          1          1          1          1          1          1          1          1          1          1          1          1          1          1          1          1          1          1          1          1          1          1          1          1          1          1          1          1          1          1          1          1          1          1          1          1          1          1          1          1          1          1          1          1          1          1          1          1          1          1          1          1          1          1          1          1          1          1          1          1          1          1          1          1          1          1          1          1          1          1          1          1          1          1          1          1          1          1          1          1          1          1          1          1          1          1          1          1          1          1          1          1          1          1          1          1          1          1          1          1          1          1          1          1          1          1          1          1          1          1          1          1          1          1          1          1          1          1          1          1          1          1          1          1          1          1          1          1          1          1          1          1          1          1          1          1          1          1          1          1          1          1          1          1          1          1          1          1          1          1          1          1          1          1          1          1          1          1          1          1          1          1          1          1          1          1          1          1          1          1          1          1          1          1          1          1          1          1          1          1          1          1          1          1          1          1          1          1          1          1          1          1          1          1          1          1          1          1          1          1          1          1          1          1          1          1          1          1          1          1          1          1          1          1          1          1          1          1          1          1          1          1          1          1          1          1          1          1          1          1          1          1          1          1          1          1          1          1          1          1          1          1          1          1          1          1          1          1          1          1          1          1          1          1          1          1          1          1          1          1          1          1          1          1          1          1          1          1          1          1          1          1          1          1          1          1          1          1          1          1          1          1          1          1          1          1          1          1          1          1          1          1          1          1          1          1          1          1          1          1          1          1          1          1          1          1          1          1          1          1          1          1          1          1          1          1          1          1          1          1          1          1          1          1          1          1          1          1          1          1          1          1          1          1          1          1          1          1          1          1          1          1          1          1          1          1          1          1          1          1          1          1          1          1          1          1          1          1          1          1          1          1          1          1          1          1          1          1          1          1          1          1          1          1          1          1          1          1          1          1          1          1          1          1          1          1          1          1          1          1          1          1          1          1          1          1          1          1          1          1          1          1          1          1          1          1          1          1          1          1          1          1          1          1          1          1          1          1          1          1          1          1          1          1          1          1          1          1          1          1          1          1          1          1          1          1          1          1          1          1          1          1          1          1          1          1          1          1          1          1          1          1          1          1          1          1          1          1          1          1          1          1          1          1          1          1          1          1          1          1          1          1          1          1          1          1          1          1          1          1          1          1          1          1          1          1          1          1          1          1          1          1          1          1          1          1          1          1          1          1          1          1          1          1          1          1          1          1          1          1          1          1          1          1          1          1          1          1          1          1          1          1          1          1          1          1          1          1          1          1          1          1          1          1          1          1          1          1          1          1          1          1          1          1          1          1          1          1          1          1          1          1          1          1          1          1          1          1          1          1          1          1          1          1          1          1          1          1          1          1          1          1          1          1          1          1          1          1          1          1          1          1          1          1          1          1          1          1          1          1          1          1          1          1          1          1          1          1          1          1          1          1          1          1          1          1          1          1          1          1          1          1          1          1          1          1          1          1          1          1          1          1          1          1          1          1          1          1          1          1          1          1          1          1          1          1          1          1          1          1          1          1          1          1          1          1          1          1          1          1          1          1          1          1          1          1          1          1          1          1          1          1          1          1          1          1          1          1          1          1          1          1          1          1          1          1          1          1          1          1          1          1          1          1          1          1          1          1          1          1          1          1          1          1          1          1          1          1          1          1          1          1          1          1          1          1          1          1          1          1          1          1          1          1          1          1          1          1          1          1          1          1          1          1          1          1          1          1          1          1          1          1          1          1          1          1          1          1          1          1          1          1          1          1          1          1          1          1          1          1          1          1          1          1          1          1          1          1          1          1          1          1          1          1          1          1          1          1          1          1          1          1          1 </DataArray>
</CellData>
<PointData>
<DataArray type="Float64"                                    Name="u"                                                      NumberOfComponents=" 3" format="ascii">
             -0.000355331               0.000000000               0.999999986              -0.000393775               0.000000000               0.999999986              -0.000411433               0.000000000               0.999999986              -0.000421770              -0.000000000               0.999999986              -0.000430212              -0.000000000               0.999999986              -0.000438731               0.000000000               0.999999986              -0.000448035               0.000000000               0.999999986              -0.000458480              -0.000000000               0.999999986              -0.000470148              -0.000000000               0.999999986              -0.000482974              -0.000000000               0.999999986              -0.000496737               0.000000000               0.999999986              -0.000511230               0.000000000               0.999999986              -0.000526221               0.000000000               0.999999986              -0.000541541               0.000000000               0.999999986              -0.000556993               0.000000000               0.999999986              -0.000572336               0.000000000               0.999999986              -0.000587156               0.000000000               0.999999986              -0.000353422               0.000097657               0.999999986              -0.000389495               0.000082231               0.999999986              -0.000405681               0.000076380               0.999999986              -0.000415171               0.000075592               0.999999986              -0.000423078               0.000077564               0.999999986              -0.000431243               0.000081089               0.999999986              -0.000440346               0.000085466               0.999999986              -0.000450647               0.000090374               0.999999986              -0.000462160               0.000095471               0.999999986              -0.000474763               0.000100411               0.999999986              -0.000488123               0.000105177               0.999999986              -0.000502052               0.000109666               0.999999986              -0.000516433               0.000113616               0.999999986              -0.000531103               0.000116759               0.999999986              -0.000545834               0.000118810               0.999999986              -0.000560370               0.000119207               0.999999986              -0.000574329               0.000117210               0.999999986              -0.000347626               0.000194385               0.999999986              -0.000376727               0.000163813               0.999999986              -0.000388767               0.000152775               0.999999986              -0.000395897               0.000151793               0.999999986              -0.000402387               0.000156247               0.999999986              -0.000409769               0.000163618               0.999999986              -0.000418412               0.000172579               0.999999986              -0.000428286               0.000182507               0.999999986              -0.000439228               0.000192742               0.999999986              -0.000451088               0.000202716               0.999999986              -0.000463563               0.000212146               0.999999986              -0.000476340               0.000220977               0.999999986              -0.000489266               0.000228882               0.999999986              -0.000502173               0.000235425               0.999999986              -0.000514828               0.000240003               0.999999986              -0.000527053               0.000241859               0.999999986              -0.000538720               0.000240050               0.999999986              -0.000337893               0.000289254               0.999999986              -0.000355954               0.000244194               0.999999986              -0.000361987               0.000229239               0.999999986              -0.000366020               0.000229067               0.999999986              -0.000370987               0.000236657               0.999999986              -0.000377583               0.000248349               0.999999986              -0.000385758               0.000262226               0.999999986              -0.000395186               0.000277241               0.999999986              -0.000405471               0.000292537               0.999999986              -0.000416358               0.000307478               0.999999986              -0.000427489               0.000321592               0.999999986              -0.000438688               0.000334758               0.999999986              -0.000449677               0.000346680               0.999999986              -0.000460254               0.000356898               0.999999986              -0.000470240               0.000364750               0.999999986              -0.000479574               0.000369738               0.999999986              -0.000488480               0.000371410               0.999999986              -0.000324313               0.000381308               0.999999986              -0.000328156               0.000323043               0.999999986              -0.000327576               0.000305797               0.999999986              -0.000328816               0.000307533               0.999999986              -0.000332837               0.000318853               0.999999986              -0.000339256               0.000335185               0.999999986              -0.000347437               0.000354034               0.999999986              -0.000356676               0.000374007               0.999999986              -0.000366423               0.000394143               0.999999986              -0.000376265               0.000413804               0.999999986              -0.000385994               0.000432515               0.999999986              -0.000395407               0.000450078               0.999999986              -0.000404329               0.000466191               0.999999986              -0.000412527               0.000480253               0.999999986              -0.000419881               0.000491901               0.999999986              -0.000426514               0.000501263               0.999999986              -0.000432699               0.000508377               0.999999986              -0.000307220               0.000469520               0.999999986              -0.000294937               0.000400192               0.999999986              -0.000288457               0.000382227               0.999999986              -0.000288063               0.000386744               0.999999986              -0.000292164               0.000402230               0.999999986              -0.000299209               0.000423209               0.999999986              -0.000307897               0.000446755               0.999999986              -0.000317168               0.000471410               0.999999986              -0.000326410               0.000496053               0.999999986              -0.000335246               0.000520101               0.999999986              -0.000343559               0.000543230               0.999999986              -0.000351093               0.000565104               0.999999986              -0.000357695               0.000585264               0.999999986              -0.000363298               0.000603315               0.999999986              -0.000367959               0.000619292               0.999999986              -0.000371873               0.000633634               0.999999986              -0.000375317               0.000646722               0.999999986              -0.000287037               0.000552935               0.999999986              -0.000258277               0.000475474               0.999999986              -0.000247533               0.000458076               0.999999986              -0.000247049               0.000465880               0.999999986              -0.000252439               0.000485502               0.999999986              -0.000260744               0.000510872               0.999999986              -0.000270127               0.000538837               0.999999986              -0.000279466               0.000567790               0.999999986              -0.000288098               0.000596634               0.999999986              -0.000295808               0.000624785               0.999999986              -0.000302409               0.000652102               0.999999986              -0.000307837               0.000677859               0.999999986              -0.000311989               0.000701776               0.999999986              -0.000314996               0.000723829               0.999999986              -0.000316979               0.000744210               0.999999986              -0.000318159               0.000763519               0.999999986              -0.000318779               0.000781951               0.999999986              -0.000264304               0.000630666               0.999999986              -0.000220165               0.000548595               0.999999986              -0.000207253               0.000532772               0.999999986              -0.000208389               0.000543769               0.999999986              -0.000215761               0.000567350               0.999999986              -0.000225640               0.000596748               0.999999986              -0.000235730               0.000628737               0.999999986              -0.000244967               0.000661653               0.999999986              -0.000252736               0.000694422               0.999999986              -0.000258988               0.000726443               0.999999986              -0.000263738               0.000757361               0.999999986              -0.000266953               0.000786632               0.999999986              -0.000268598               0.000814094               0.999999986              -0.000268869               0.000839889               0.999999986              -0.000267980               0.000864258               0.999999986              -0.000266270               0.000887634               0.999999986              -0.000263667               0.000910297               0.999999986              -0.000239919               0.000701467               0.999999986              -0.000181962               0.000619482               0.999999986              -0.000169831               0.000605350               0.999999986              -0.000173573               0.000619243               0.999999986              -0.000183399               0.000646338               0.999999986              -0.000194757               0.000679546               0.999999986              -0.000205269               0.000715378               0.999999986              -0.000213895               0.000752051               0.999999986              -0.000220464               0.000788525               0.999999986              -0.000225001               0.000824034               0.999999986              -0.000227577               0.000858178               0.999999986              -0.000228151               0.000890649               0.999999986              -0.000226644               0.000921382               0.999999986              -0.000223585               0.000950603               0.999999986              -0.000219305               0.000978748               0.999999986              -0.000213944               0.001006063               0.999999986              -0.000208023               0.001032415               0.999999986              -0.000215303               0.000767903               0.999999986              -0.000151074               0.000696204               0.999999986              -0.000135875               0.000677320               0.999999986              -0.000138001               0.000685131               0.999999986              -0.000146752               0.000706869               0.999999986              -0.000157432               0.000735936               0.999999986              -0.000167558               0.000768756               0.999999986              -0.000175960               0.000803271               0.999999986              -0.000182488               0.000838289               0.999999986              -0.000187131               0.000873032               0.999999986              -0.000189692               0.000907097               0.999999986              -0.000190269               0.000940165               0.999999986              -0.000188694               0.000971970               0.999999986              -0.000185023               0.001002540               0.999999986              -0.000179848               0.001032030               0.999999986              -0.000173399               0.001060578               0.999999986              -0.000166145               0.001087991               0.999999986              -0.000188270               0.000827923               0.999999986              -0.000122910               0.000769787               0.999999986              -0.000104757               0.000750472               0.999999986              -0.000104552               0.000754008               0.999999986              -0.000111619               0.000771260               0.999999986              -0.000121009               0.000796612               0.999999986              -0.000130274               0.000826550               0.999999986              -0.000138384               0.000858915               0.999999986              -0.000144732               0.000892355               0.999999986              -0.000149278               0.000926154               0.999999986              -0.000151719               0.000959855               0.999999986              -0.000152064               0.000992998               0.999999986              -0.000150191               0.001025471               0.999999986              -0.000145925               0.001057004               0.999999986              -0.000139562               0.001087691               0.999999986              -0.000131674               0.001117555               0.999999986              -0.000122408               0.001146366               0.999999986              -0.000159552               0.000880155               0.999999986              -0.000097471               0.000838026               0.999999986              -0.000077592               0.000821502               0.999999986              -0.000074826               0.000823267               0.999999986              -0.000079667               0.000837411               0.999999986              -0.000087238               0.000859765               0.999999986              -0.000095358               0.000887257               0.999999986              -0.000102836               0.000917736               0.999999986              -0.000108809               0.000949836               0.999999986              -0.000113051               0.000982710               0.999999986              -0.000115343               0.001015929               0.999999986              -0.000115435               0.001049134               0.999999986              -0.000113125               0.001081956               0.999999986              -0.000108310               0.001114188               0.999999986              -0.000100854               0.001145760               0.999999986              -0.000090885               0.001176793               0.999999986              -0.000078824               0.001206986               0.999999986              -0.000129477               0.000923823               0.999999986              -0.000074682               0.000898234               0.999999986              -0.000054797               0.000887016               0.999999986              -0.000050133               0.000889159               0.999999986              -0.000052603               0.000901849               0.999999986              -0.000058129               0.000922234               0.999999986              -0.000064757               0.000947903               0.999999986              -0.000071202               0.000977025               0.999999986              -0.000076494               0.001008273               0.999999986              -0.000080280               0.001040677               0.999999986              -0.000082245               0.001073796               0.999999986              -0.000082125               0.001107307               0.999999986              -0.000079595               0.001140708               0.999999986              -0.000074501               0.001173727               0.999999986              -0.000066128               0.001206203               0.999999986              -0.000054224               0.001238216               0.999999986              -0.000038972               0.001269594               0.999999986              -0.000098227               0.000958499               0.999999986              -0.000054110               0.000948029               0.999999986              -0.000036422               0.000943209               0.999999986              -0.000030991               0.000947469               0.999999986              -0.000031594               0.000960135               0.999999986              -0.000035179               0.000979564               0.999999986              -0.000039920               0.001004220               0.999999986              -0.000044944               0.001032592               0.999999986              -0.000049349               0.001063517               0.999999986              -0.000052412               0.001096140               0.999999986              -0.000053840               0.001129864               0.999999986              -0.000053656               0.001164199               0.999999986              -0.000051351               0.001198739               0.999999986              -0.000046369               0.001233185               0.999999986              -0.000037978               0.001267272               0.999999986              -0.000025285               0.001300874               0.999999986              -0.000007816               0.001333720               0.999999986              -0.000066040               0.000983677               0.999999986              -0.000035212               0.000985314               0.999999986              -0.000021884               0.000986524               0.999999986              -0.000017102               0.000993505               0.999999986              -0.000016756               0.001007057               0.999999986              -0.000018726               0.001026449               0.999999986              -0.000021688               0.001050762               0.999999986              -0.000025008               0.001078889               0.999999986              -0.000028043               0.001109931               0.999999986              -0.000030233               0.001143147               0.999999986              -0.000031217               0.001177795               0.999999986              -0.000031012               0.001213461               0.999999986              -0.000029217               0.001249770               0.999999986              -0.000025205               0.001286304               0.999999986              -0.000018140               0.001322750               0.999999986              -0.000007006               0.001358716               0.999999986               0.000009342               0.001393604               0.999999986              -0.000033189               0.000998976               0.999999986              -0.000017354               0.001008457               0.999999986              -0.000010154               0.001014011               0.999999986              -0.000007365               0.001023180               0.999999986              -0.000006968               0.001037708               0.999999986              -0.000007775               0.001057509               0.999999986              -0.000009139               0.001081909               0.999999986              -0.000010759               0.001110097               0.999999986              -0.000012270               0.001141359               0.999999986              -0.000013411               0.001175045               0.999999986              -0.000014007               0.001210588               0.999999986              -0.000013815               0.001247524               0.999999986              -0.000012832               0.001285435               0.999999986              -0.000010535               0.001323969               0.999999986              -0.000006442               0.001362712               0.999999986               0.000000210               0.001401128               0.999999986               0.000010323               0.001438141               0.999999986              -0.000000000               0.001004107               0.999999986              -0.000000000               0.001016294               0.999999986              -0.000000000               0.001023397               0.999999986               0.000000000               0.001033393               0.999999986              -0.000000000               0.001048387               0.999999986              -0.000000000               0.001068431               0.999999986               0.000000000               0.001092926               0.999999986              -0.000000000               0.001121214               0.999999986              -0.000000000               0.001152623               0.999999986              -0.000000000               0.001186559               0.999999986              -0.000000000               0.001222457               0.999999986              -0.000000000               0.001259888               0.999999986              -0.000000000               0.001298416               0.999999986              -0.000000000               0.001337729               0.999999986               0.000000000               0.001377425               0.999999986              -0.000000000               0.001416857               0.999999986               0.000000000               0.001454813               0.999999986              -0.000355331               0.000000000               0.999999986              -0.000393775               0.000000000               0.999999986              -0.000411433               0.000000000               0.999999986              -0.000421770              -0.000000000               0.999999986              -0.000430212              -0.000000000               0.999999986              -0.000438731               0.000000000               0.999999986              -0.000448035               0.000000000               0.999999986              -0.000458480              -0.000000000               0.999999986              -0.000470148              -0.000000000               0.999999986              -0.000482974              -0.000000000               0.999999986              -0.000496737               0.000000000               0.999999986              -0.000511230               0.000000000               0.999999986              -0.000526221               0.000000000               0.999999986              -0.000541541               0.000000000               0.999999986              -0.000556993               0.000000000               0.999999986              -0.000572336               0.000000000               0.999999986              -0.000587156               0.000000000               0.999999986              -0.000353422              -0.000097657               0.999999986              -0.000389495              -0.000082231               0.999999986              -0.000405681              -0.000076380               0.999999986              -0.000415171              -0.000075592               0.999999986              -0.000423078              -0.000077564               0.999999986              -0.000431243              -0.000081089               0.999999986              -0.000440346              -0.000085466               0.999999986              -0.000450647              -0.000090374               0.999999986              -0.000462160              -0.000095471               0.999999986              -0.000474763              -0.000100411               0.999999986              -0.000488123              -0.000105177               0.999999986              -0.000502052              -0.000109666               0.999999986              -0.000516433              -0.000113616               0.999999986              -0.000531103              -0.000116759               0.999999986              -0.000545834              -0.000118810               0.999999986              -0.000560370              -0.000119207               0.999999986              -0.000574329              -0.000117210               0.999999986              -0.000347626              -0.000194385               0.999999986              -0.000376727              -0.000163813               0.999999986              -0.000388767              -0.000152775               0.999999986              -0.000395897              -0.000151793               0.999999986              -0.000402387              -0.000156247               0.999999986              -0.000409769              -0.000163618               0.999999986              -0.000418412              -0.000172579               0.999999986              -0.000428286              -0.000182507               0.999999986              -0.000439228              -0.000192742               0.999999986              -0.000451088              -0.000202716               0.999999986              -0.000463563              -0.000212146               0.999999986              -0.000476340              -0.000220977               0.999999986              -0.000489266              -0.000228882               0.999999986              -0.000502173              -0.000235425               0.999999986              -0.000514828              -0.000240003               0.999999986              -0.000527053              -0.000241859               0.999999986              -0.000538720              -0.000240050               0.999999986              -0.000337893              -0.000289254               0.999999986              -0.000355954              -0.000244194               0.999999986              -0.000361987              -0.000229239               0.999999986              -0.000366020              -0.000229067               0.999999986              -0.000370987              -0.000236657               0.999999986              -0.000377583              -0.000248349               0.999999986              -0.000385758              -0.000262226               0.999999986              -0.000395186              -0.000277241               0.999999986              -0.000405471              -0.000292537               0.999999986              -0.000416358              -0.000307478               0.999999986              -0.000427489              -0.000321592               0.999999986              -0.000438688              -0.000334758               0.999999986              -0.000449677              -0.000346680               0.999999986              -0.000460254              -0.000356898               0.999999986              -0.000470240              -0.000364750               0.999999986              -0.000479574              -0.000369738               0.999999986              -0.000488480              -0.000371410               0.999999986              -0.000324313              -0.000381308               0.999999986              -0.000328156              -0.000323043               0.999999986              -0.000327576              -0.000305797               0.999999986              -0.000328816              -0.000307533               0.999999986              -0.000332837              -0.000318853               0.999999986              -0.000339256              -0.000335185               0.999999986              -0.000347437              -0.000354034               0.999999986              -0.000356676              -0.000374007               0.999999986              -0.000366423              -0.000394143               0.999999986              -0.000376265              -0.000413804               0.999999986              -0.000385994              -0.000432515               0.999999986              -0.000395407              -0.000450078               0.999999986              -0.000404329              -0.000466191               0.999999986              -0.000412527              -0.000480253               0.999999986              -0.000419881              -0.000491901               0.999999986              -0.000426514              -0.000501263               0.999999986              -0.000432699              -0.000508377               0.999999986              -0.000307220              -0.000469520               0.999999986              -0.000294937              -0.000400192               0.999999986              -0.000288457              -0.000382227               0.999999986              -0.000288063              -0.000386744               0.999999986              -0.000292164              -0.000402230               0.999999986              -0.000299209              -0.000423209               0.999999986              -0.000307897              -0.000446755               0.999999986              -0.000317168              -0.000471410               0.999999986              -0.000326410              -0.000496053               0.999999986              -0.000335246              -0.000520101               0.999999986              -0.000343559              -0.000543230               0.999999986              -0.000351093              -0.000565104               0.999999986              -0.000357695              -0.000585264               0.999999986              -0.000363298              -0.000603315               0.999999986              -0.000367959              -0.000619292               0.999999986              -0.000371873              -0.000633634               0.999999986              -0.000375317              -0.000646722               0.999999986              -0.000287037              -0.000552935               0.999999986              -0.000258277              -0.000475474               0.999999986              -0.000247533              -0.000458076               0.999999986              -0.000247049              -0.000465880               0.999999986              -0.000252439              -0.000485502               0.999999986              -0.000260744              -0.000510872               0.999999986              -0.000270127              -0.000538837               0.999999986              -0.000279466              -0.000567790               0.999999986              -0.000288098              -0.000596634               0.999999986              -0.000295808              -0.000624785               0.999999986              -0.000302409              -0.000652102               0.999999986              -0.000307837              -0.000677859               0.999999986              -0.000311989              -0.000701776               0.999999986              -0.000314996              -0.000723829               0.999999986              -0.000316979              -0.000744210               0.999999986              -0.000318159              -0.000763519               0.999999986              -0.000318779              -0.000781951               0.999999986              -0.000264304              -0.000630666               0.999999986              -0.000220165              -0.000548595               0.999999986              -0.000207253              -0.000532772               0.999999986              -0.000208389              -0.000543769               0.999999986              -0.000215761              -0.000567350               0.999999986              -0.000225640              -0.000596748               0.999999986              -0.000235730              -0.000628737               0.999999986              -0.000244967              -0.000661653               0.999999986              -0.000252736              -0.000694422               0.999999986              -0.000258988              -0.000726443               0.999999986              -0.000263738              -0.000757361               0.999999986              -0.000266953              -0.000786632               0.999999986              -0.000268598              -0.000814094               0.999999986              -0.000268869              -0.000839889               0.999999986              -0.000267980              -0.000864258               0.999999986              -0.000266270              -0.000887634               0.999999986              -0.000263667              -0.000910297               0.999999986              -0.000239919              -0.000701467               0.999999986              -0.000181962              -0.000619482               0.999999986              -0.000169831              -0.000605350               0.999999986              -0.000173573              -0.000619243               0.999999986              -0.000183399              -0.000646338               0.999999986              -0.000194757              -0.000679546               0.999999986              -0.000205269              -0.000715378               0.999999986              -0.000213895              -0.000752051               0.999999986              -0.000220464              -0.000788525               0.999999986              -0.000225001              -0.000824034               0.999999986              -0.000227577              -0.000858178               0.999999986              -0.000228151              -0.000890649               0.999999986              -0.000226644              -0.000921382               0.999999986              -0.000223585              -0.000950603               0.999999986              -0.000219305              -0.000978748               0.999999986              -0.000213944              -0.001006063               0.999999986              -0.000208023              -0.001032415               0.999999986              -0.000215303              -0.000767903               0.999999986              -0.000151074              -0.000696204               0.999999986              -0.000135875              -0.000677320               0.999999986              -0.000138001              -0.000685131               0.999999986              -0.000146752              -0.000706869               0.999999986              -0.000157432              -0.000735936               0.999999986              -0.000167558              -0.000768756               0.999999986              -0.000175960              -0.000803271               0.999999986              -0.000182488              -0.000838289               0.999999986              -0.000187131              -0.000873032               0.999999986              -0.000189692              -0.000907097               0.999999986              -0.000190269              -0.000940165               0.999999986              -0.000188694              -0.000971970               0.999999986              -0.000185023              -0.001002540               0.999999986              -0.000179848              -0.001032030               0.999999986              -0.000173399              -0.001060578               0.999999986              -0.000166145              -0.001087991               0.999999986              -0.000188270              -0.000827923               0.999999986              -0.000122910              -0.000769787               0.999999986              -0.000104757              -0.000750472               0.999999986              -0.000104552              -0.000754008               0.999999986              -0.000111619              -0.000771260               0.999999986              -0.000121009              -0.000796612               0.999999986              -0.000130274              -0.000826550               0.999999986              -0.000138384              -0.000858915               0.999999986              -0.000144732              -0.000892355               0.999999986              -0.000149278              -0.000926154               0.999999986              -0.000151719              -0.000959855               0.999999986              -0.000152064              -0.000992998               0.999999986              -0.000150191              -0.001025471               0.999999986              -0.000145925              -0.001057004               0.999999986              -0.000139562              -0.001087691               0.999999986              -0.000131674              -0.001117555               0.999999986              -0.000122408              -0.001146366               0.999999986              -0.000159552              -0.000880155               0.999999986              -0.000097471              -0.000838026               0.999999986              -0.000077592              -0.000821502               0.999999986              -0.000074826              -0.000823267               0.999999986              -0.000079667              -0.000837411               0.999999986              -0.000087238              -0.000859765               0.999999986              -0.000095358              -0.000887257               0.999999986              -0.000102836              -0.000917736               0.999999986              -0.000108809              -0.000949836               0.999999986              -0.000113051              -0.000982710               0.999999986              -0.000115343              -0.001015929               0.999999986              -0.000115435              -0.001049134               0.999999986              -0.000113125              -0.001081956               0.999999986              -0.000108310              -0.001114188               0.999999986              -0.000100854              -0.001145760               0.999999986              -0.000090885              -0.001176793               0.999999986              -0.000078824              -0.001206986               0.999999986              -0.000129477              -0.000923823               0.999999986              -0.000074682              -0.000898234               0.999999986              -0.000054797              -0.000887016               0.999999986              -0.000050133              -0.000889159               0.999999986              -0.000052603              -0.000901849               0.999999986              -0.000058129              -0.000922234               0.999999986              -0.000064757              -0.000947903               0.999999986              -0.000071202              -0.000977025               0.999999986              -0.000076494              -0.001008273               0.999999986              -0.000080280              -0.001040677               0.999999986              -0.000082245              -0.001073796               0.999999986              -0.000082125              -0.001107307               0.999999986              -0.000079595              -0.001140708               0.999999986              -0.000074501              -0.001173727               0.999999986              -0.000066128              -0.001206203               0.999999986              -0.000054224              -0.001238216               0.999999986              -0.000038972              -0.001269594               0.999999986              -0.000098227              -0.000958499               0.999999986              -0.000054110              -0.000948029               0.999999986              -0.000036422              -0.000943209               0.999999986              -0.000030991              -0.000947469               0.999999986              -0.000031594              -0.000960135               0.999999986              -0.000035179              -0.000979564               0.999999986              -0.000039920              -0.001004220               0.999999986              -0.000044944              -0.001032592               0.999999986              -0.000049349              -0.001063517               0.999999986              -0.000052412              -0.001096140               0.999999986              -0.000053840              -0.001129864               0.999999986              -0.000053656              -0.001164199               0.999999986              -0.000051351              -0.001198739               0.999999986              -0.000046369              -0.001233185               0.999999986              -0.000037978              -0.001267272               0.999999986              -0.000025285              -0.001300874               0.999999986              -0.000007816              -0.001333720               0.999999986              -0.000066040              -0.000983677               0.999999986              -0.000035212              -0.000985314               0.999999986              -0.000021884              -0.000986524               0.999999986              -0.000017102              -0.000993505               0.999999986              -0.000016756              -0.001007057               0.999999986              -0.000018726              -0.001026449               0.999999986              -0.000021688              -0.001050762               0.999999986              -0.000025008              -0.001078889               0.999999986              -0.000028043              -0.001109931               0.999999986              -0.000030233              -0.001143147               0.999999986              -0.000031217              -0.001177795               0.999999986              -0.000031012              -0.001213461               0.999999986              -0.000029217              -0.001249770               0.999999986              -0.000025205              -0.001286304               0.999999986              -0.000018140              -0.001322750               0.999999986              -0.000007006              -0.001358716               0.999999986               0.000009342              -0.001393604               0.999999986              -0.000033189              -0.000998976               0.999999986              -0.000017354              -0.001008457               0.999999986              -0.000010154              -0.001014011               0.999999986              -0.000007365              -0.001023180               0.999999986              -0.000006968              -0.001037708               0.999999986              -0.000007775              -0.001057509               0.999999986              -0.000009139              -0.001081909               0.999999986              -0.000010759              -0.001110097               0.999999986              -0.000012270              -0.001141359               0.999999986              -0.000013411              -0.001175045               0.999999986              -0.000014007              -0.001210588               0.999999986              -0.000013815              -0.001247524               0.999999986              -0.000012832              -0.001285435               0.999999986              -0.000010535              -0.001323969               0.999999986              -0.000006442              -0.001362712               0.999999986               0.000000210              -0.001401128               0.999999986               0.000010323              -0.001438141               0.999999986              -0.000000000              -0.001004107               0.999999986               0.000000000              -0.001016294               0.999999986               0.000000000              -0.001023397               0.999999986              -0.000000000              -0.001033393               0.999999986              -0.000000000              -0.001048387               0.999999986              -0.000000000              -0.001068431               0.999999986               0.000000000              -0.001092926               0.999999986              -0.000000000              -0.001121214               0.999999986              -0.000000000              -0.001152623               0.999999986               0.000000000              -0.001186559               0.999999986              -0.000000000              -0.001222457               0.999999986               0.000000000              -0.001259888               0.999999986               0.000000000              -0.001298416               0.999999986              -0.000000000              -0.001337729               0.999999986              -0.000000000              -0.001377425               0.999999986              -0.000000000              -0.001416857               0.999999986               0.000000000              -0.001454813               0.999999986               0.000355331              -0.000000000               0.999999986               0.000393775               0.000000000               0.999999986               0.000411433              -0.000000000               0.999999986               0.000421770               0.000000000               0.999999986               0.000430212              -0.000000000               0.999999986               0.000438731              -0.000000000               0.999999986               0.000448035              -0.000000000               0.999999986               0.000458480              -0.000000000               0.999999986               0.000470148              -0.000000000               0.999999986               0.000482974              -0.000000000               0.999999986               0.000496737              -0.000000000               0.999999986               0.000511230              -0.000000000               0.999999986               0.000526221              -0.000000000               0.999999986               0.000541541              -0.000000000               0.999999986               0.000556993               0.000000000               0.999999986               0.000572336               0.000000000               0.999999986               0.000587156              -0.000000000               0.999999986               0.000353422              -0.000097657               0.999999986               0.000389495              -0.000082231               0.999999986               0.000405681              -0.000076380               0.999999986               0.000415171              -0.000075592               0.999999986               0.000423078              -0.000077564               0.999999986               0.000431243              -0.000081089               0.999999986               0.000440346              -0.000085466               0.999999986               0.000450647              -0.000090374               0.999999986               0.000462160              -0.000095471               0.999999986               0.000474763              -0.000100411               0.999999986               0.000488123              -0.000105177               0.999999986               0.000502052              -0.000109666               0.999999986               0.000516433              -0.000113616               0.999999986               0.000531103              -0.000116759               0.999999986               0.000545834              -0.000118810               0.999999986               0.000560370              -0.000119207               0.999999986               0.000574329              -0.000117210               0.999999986               0.000347626              -0.000194385               0.999999986               0.000376727              -0.000163813               0.999999986               0.000388767              -0.000152775               0.999999986               0.000395897              -0.000151793               0.999999986               0.000402387              -0.000156247               0.999999986               0.000409769              -0.000163618               0.999999986               0.000418412              -0.000172579               0.999999986               0.000428286              -0.000182507               0.999999986               0.000439228              -0.000192742               0.999999986               0.000451088              -0.000202716               0.999999986               0.000463563              -0.000212146               0.999999986               0.000476340              -0.000220977               0.999999986               0.000489266              -0.000228882               0.999999986               0.000502173              -0.000235425               0.999999986               0.000514828              -0.000240003               0.999999986               0.000527053              -0.000241859               0.999999986               0.000538720              -0.000240050               0.999999986               0.000337893              -0.000289254               0.999999986               0.000355954              -0.000244194               0.999999986               0.000361987              -0.000229239               0.999999986               0.000366020              -0.000229067               0.999999986               0.000370987              -0.000236657               0.999999986               0.000377583              -0.000248349               0.999999986               0.000385758              -0.000262226               0.999999986               0.000395186              -0.000277241               0.999999986               0.000405471              -0.000292537               0.999999986               0.000416358              -0.000307478               0.999999986               0.000427489              -0.000321592               0.999999986               0.000438688              -0.000334758               0.999999986               0.000449677              -0.000346680               0.999999986               0.000460254              -0.000356898               0.999999986               0.000470240              -0.000364750               0.999999986               0.000479574              -0.000369738               0.999999986               0.000488480              -0.000371410               0.999999986               0.000324313              -0.000381308               0.999999986               0.000328156              -0.000323043               0.999999986               0.000327576              -0.000305797               0.999999986               0.000328816              -0.000307533               0.999999986               0.000332837              -0.000318853               0.999999986               0.000339256              -0.000335185               0.999999986               0.000347437              -0.000354034               0.999999986               0.000356676              -0.000374007               0.999999986               0.000366423              -0.000394143               0.999999986               0.000376265              -0.000413804               0.999999986               0.000385994              -0.000432515               0.999999986               0.000395407              -0.000450078               0.999999986               0.000404329              -0.000466191               0.999999986               0.000412527              -0.000480253               0.999999986               0.000419881              -0.000491901               0.999999986               0.000426514              -0.000501263               0.999999986               0.000432699              -0.000508377               0.999999986               0.000307220              -0.000469520               0.999999986               0.000294937              -0.000400192               0.999999986               0.000288457              -0.000382227               0.999999986               0.000288063              -0.000386744               0.999999986               0.000292164              -0.000402230               0.999999986               0.000299209              -0.000423209               0.999999986               0.000307897              -0.000446755               0.999999986               0.000317168              -0.000471410               0.999999986               0.000326410              -0.000496053               0.999999986               0.000335246              -0.000520101               0.999999986               0.000343559              -0.000543230               0.999999986               0.000351093              -0.000565104               0.999999986               0.000357695              -0.000585264               0.999999986               0.000363298              -0.000603315               0.999999986               0.000367959              -0.000619292               0.999999986               0.000371873              -0.000633634               0.999999986               0.000375317              -0.000646722               0.999999986               0.000287037              -0.000552935               0.999999986               0.000258277              -0.000475474               0.999999986               0.000247533              -0.000458076               0.999999986               0.000247049              -0.000465880               0.999999986               0.000252439              -0.000485502               0.999999986               0.000260744              -0.000510872               0.999999986               0.000270127              -0.000538837               0.999999986               0.000279466              -0.000567790               0.999999986               0.000288098              -0.000596634               0.999999986               0.000295808              -0.000624785               0.999999986               0.000302409              -0.000652102               0.999999986               0.000307837              -0.000677859               0.999999986               0.000311989              -0.000701776               0.999999986               0.000314996              -0.000723829               0.999999986               0.000316979              -0.000744210               0.999999986               0.000318159              -0.000763519               0.999999986               0.000318779              -0.000781951               0.999999986               0.000264304              -0.000630666               0.999999986               0.000220165              -0.000548595               0.999999986               0.000207253              -0.000532772               0.999999986               0.000208389              -0.000543769               0.999999986               0.000215761              -0.000567350               0.999999986               0.000225640              -0.000596748               0.999999986               0.000235730              -0.000628737               0.999999986               0.000244967              -0.000661653               0.999999986               0.000252736              -0.000694422               0.999999986               0.000258988              -0.000726443               0.999999986               0.000263738              -0.000757361               0.999999986               0.000266953              -0.000786632               0.999999986               0.000268598              -0.000814094               0.999999986               0.000268869              -0.000839889               0.999999986               0.000267980              -0.000864258               0.999999986               0.000266270              -0.000887634               0.999999986               0.000263667              -0.000910297               0.999999986               0.000239919              -0.000701467               0.999999986               0.000181962              -0.000619482               0.999999986               0.000169831              -0.000605350               0.999999986               0.000173573              -0.000619243               0.999999986               0.000183399              -0.000646338               0.999999986               0.000194757              -0.000679546               0.999999986               0.000205269              -0.000715378               0.999999986               0.000213895              -0.000752051               0.999999986               0.000220464              -0.000788525               0.999999986               0.000225001              -0.000824034               0.999999986               0.000227577              -0.000858178               0.999999986               0.000228151              -0.000890649               0.999999986               0.000226644              -0.000921382               0.999999986               0.000223585              -0.000950603               0.999999986               0.000219305              -0.000978748               0.999999986               0.000213944              -0.001006063               0.999999986               0.000208023              -0.001032415               0.999999986               0.000215303              -0.000767903               0.999999986               0.000151074              -0.000696204               0.999999986               0.000135875              -0.000677320               0.999999986               0.000138001              -0.000685131               0.999999986               0.000146752              -0.000706869               0.999999986               0.000157432              -0.000735936               0.999999986               0.000167558              -0.000768756               0.999999986               0.000175960              -0.000803271               0.999999986               0.000182488              -0.000838289               0.999999986               0.000187131              -0.000873032               0.999999986               0.000189692              -0.000907097               0.999999986               0.000190269              -0.000940165               0.999999986               0.000188694              -0.000971970               0.999999986               0.000185023              -0.001002540               0.999999986               0.000179848              -0.001032030               0.999999986               0.000173399              -0.001060578               0.999999986               0.000166145              -0.001087991               0.999999986               0.000188270              -0.000827923               0.999999986               0.000122910              -0.000769787               0.999999986               0.000104757              -0.000750472               0.999999986               0.000104552              -0.000754008               0.999999986               0.000111619              -0.000771260               0.999999986               0.000121009              -0.000796612               0.999999986               0.000130274              -0.000826550               0.999999986               0.000138384              -0.000858915               0.999999986               0.000144732              -0.000892355               0.999999986               0.000149278              -0.000926154               0.999999986               0.000151719              -0.000959855               0.999999986               0.000152064              -0.000992998               0.999999986               0.000150191              -0.001025471               0.999999986               0.000145925              -0.001057004               0.999999986               0.000139562              -0.001087691               0.999999986               0.000131674              -0.001117555               0.999999986               0.000122408              -0.001146366               0.999999986               0.000159552              -0.000880155               0.999999986               0.000097471              -0.000838026               0.999999986               0.000077592              -0.000821502               0.999999986               0.000074826              -0.000823267               0.999999986               0.000079667              -0.000837411               0.999999986               0.000087238              -0.000859765               0.999999986               0.000095358              -0.000887257               0.999999986               0.000102836              -0.000917736               0.999999986               0.000108809              -0.000949836               0.999999986               0.000113051              -0.000982710               0.999999986               0.000115343              -0.001015929               0.999999986               0.000115435              -0.001049134               0.999999986               0.000113125              -0.001081956               0.999999986               0.000108310              -0.001114188               0.999999986               0.000100854              -0.001145760               0.999999986               0.000090885              -0.001176793               0.999999986               0.000078824              -0.001206986               0.999999986               0.000129477              -0.000923823               0.999999986               0.000074682              -0.000898234               0.999999986               0.000054797              -0.000887016               0.999999986               0.000050133              -0.000889159               0.999999986               0.000052603              -0.000901849               0.999999986               0.000058129              -0.000922234               0.999999986               0.000064757              -0.000947903               0.999999986               0.000071202              -0.000977025               0.999999986               0.000076494              -0.001008273               0.999999986               0.000080280              -0.001040677               0.999999986               0.000082245              -0.001073796               0.999999986               0.000082125              -0.001107307               0.999999986               0.000079595              -0.001140708               0.999999986               0.000074501              -0.001173727               0.999999986               0.000066128              -0.001206203               0.999999986               0.000054224              -0.001238216               0.999999986               0.000038972              -0.001269594               0.999999986               0.000098227              -0.000958499               0.999999986               0.000054110              -0.000948029               0.999999986               0.000036422              -0.000943209               0.999999986               0.000030991              -0.000947469               0.999999986               0.000031594              -0.000960135               0.999999986               0.000035179              -0.000979564               0.999999986               0.000039920              -0.001004220               0.999999986               0.000044944              -0.001032592               0.999999986               0.000049349              -0.001063517               0.999999986               0.000052412              -0.001096140               0.999999986               0.000053840              -0.001129864               0.999999986               0.000053656              -0.001164199               0.999999986               0.000051351              -0.001198739               0.999999986               0.000046369              -0.001233185               0.999999986               0.000037978              -0.001267272               0.999999986               0.000025285              -0.001300874               0.999999986               0.000007816              -0.001333720               0.999999986               0.000066040              -0.000983677               0.999999986               0.000035212              -0.000985314               0.999999986               0.000021884              -0.000986524               0.999999986               0.000017102              -0.000993505               0.999999986               0.000016756              -0.001007057               0.999999986               0.000018726              -0.001026449               0.999999986               0.000021688              -0.001050762               0.999999986               0.000025008              -0.001078889               0.999999986               0.000028043              -0.001109931               0.999999986               0.000030233              -0.001143147               0.999999986               0.000031217              -0.001177795               0.999999986               0.000031012              -0.001213461               0.999999986               0.000029217              -0.001249770               0.999999986               0.000025205              -0.001286304               0.999999986               0.000018140              -0.001322750               0.999999986               0.000007006              -0.001358716               0.999999986              -0.000009342              -0.001393604               0.999999986               0.000033189              -0.000998976               0.999999986               0.000017354              -0.001008457               0.999999986               0.000010154              -0.001014011               0.999999986               0.000007365              -0.001023180               0.999999986               0.000006968              -0.001037708               0.999999986               0.000007775              -0.001057509               0.999999986               0.000009139              -0.001081909               0.999999986               0.000010759              -0.001110097               0.999999986               0.000012270              -0.001141359               0.999999986               0.000013411              -0.001175045               0.999999986               0.000014007              -0.001210588               0.999999986               0.000013815              -0.001247524               0.999999986               0.000012832              -0.001285435               0.999999986               0.000010535              -0.001323969               0.999999986               0.000006442              -0.001362712               0.999999986              -0.000000210              -0.001401128               0.999999986              -0.000010323              -0.001438141               0.999999986              -0.000000000              -0.001004107               0.999999986               0.000000000              -0.001016294               0.999999986               0.000000000              -0.001023397               0.999999986              -0.000000000              -0.001033393               0.999999986              -0.000000000              -0.001048387               0.999999986              -0.000000000              -0.001068431               0.999999986               0.000000000              -0.001092926               0.999999986              -0.000000000              -0.001121214               0.999999986              -0.000000000              -0.001152623               0.999999986               0.000000000              -0.001186559               0.999999986              -0.000000000              -0.001222457               0.999999986               0.000000000              -0.001259888               0.999999986               0.000000000              -0.001298416               0.999999986              -0.000000000              -0.001337729               0.999999986              -0.000000000              -0.001377425               0.999999986              -0.000000000              -0.001416857               0.999999986               0.000000000              -0.001454813               0.999999986               0.000355331              -0.000000000               0.999999986               0.000393775               0.000000000               0.999999986               0.000411433              -0.000000000               0.999999986               0.000421770               0.000000000               0.999999986               0.000430212              -0.000000000               0.999999986               0.000438731              -0.000000000               0.999999986               0.000448035              -0.000000000               0.999999986               0.000458480              -0.000000000               0.999999986               0.000470148              -0.000000000               0.999999986               0.000482974              -0.000000000               0.999999986               0.000496737              -0.000000000               0.999999986               0.000511230              -0.000000000               0.999999986               0.000526221              -0.000000000               0.999999986               0.000541541              -0.000000000               0.999999986               0.000556993               0.000000000               0.999999986               0.000572336               0.000000000               0.999999986               0.000587156              -0.000000000               0.999999986               0.000353422               0.000097657               0.999999986               0.000389495               0.000082231               0.999999986               0.000405681               0.000076380               0.999999986               0.000415171               0.000075592               0.999999986               0.000423078               0.000077564               0.999999986               0.000431243               0.000081089               0.999999986               0.000440346               0.000085466               0.999999986               0.000450647               0.000090374               0.999999986               0.000462160               0.000095471               0.999999986               0.000474763               0.000100411               0.999999986               0.000488123               0.000105177               0.999999986               0.000502052               0.000109666               0.999999986               0.000516433               0.000113616               0.999999986               0.000531103               0.000116759               0.999999986               0.000545834               0.000118810               0.999999986               0.000560370               0.000119207               0.999999986               0.000574329               0.000117210               0.999999986               0.000347626               0.000194385               0.999999986               0.000376727               0.000163813               0.999999986               0.000388767               0.000152775               0.999999986               0.000395897               0.000151793               0.999999986               0.000402387               0.000156247               0.999999986               0.000409769               0.000163618               0.999999986               0.000418412               0.000172579               0.999999986               0.000428286               0.000182507               0.999999986               0.000439228               0.000192742               0.999999986               0.000451088               0.000202716               0.999999986               0.000463563               0.000212146               0.999999986               0.000476340               0.000220977               0.999999986               0.000489266               0.000228882               0.999999986               0.000502173               0.000235425               0.999999986               0.000514828               0.000240003               0.999999986               0.000527053               0.000241859               0.999999986               0.000538720               0.000240050               0.999999986               0.000337893               0.000289254               0.999999986               0.000355954               0.000244194               0.999999986               0.000361987               0.000229239               0.999999986               0.000366020               0.000229067               0.999999986               0.000370987               0.000236657               0.999999986               0.000377583               0.000248349               0.999999986               0.000385758               0.000262226               0.999999986               0.000395186               0.000277241               0.999999986               0.000405471               0.000292537               0.999999986               0.000416358               0.000307478               0.999999986               0.000427489               0.000321592               0.999999986               0.000438688               0.000334758               0.999999986               0.000449677               0.000346680               0.999999986               0.000460254               0.000356898               0.999999986               0.000470240               0.000364750               0.999999986               0.000479574               0.000369738               0.999999986               0.000488480               0.000371410               0.999999986               0.000324313               0.000381308               0.999999986               0.000328156               0.000323043               0.999999986               0.000327576               0.000305797               0.999999986               0.000328816               0.000307533               0.999999986               0.000332837               0.000318853               0.999999986               0.000339256               0.000335185               0.999999986               0.000347437               0.000354034               0.999999986               0.000356676               0.000374007               0.999999986               0.000366423               0.000394143               0.999999986               0.000376265               0.000413804               0.999999986               0.000385994               0.000432515               0.999999986               0.000395407               0.000450078               0.999999986               0.000404329               0.000466191               0.999999986               0.000412527               0.000480253               0.999999986               0.000419881               0.000491901               0.999999986               0.000426514               0.000501263               0.999999986               0.000432699               0.000508377               0.999999986               0.000307220               0.000469520               0.999999986               0.000294937               0.000400192               0.999999986               0.000288457               0.000382227               0.999999986               0.000288063               0.000386744               0.999999986               0.000292164               0.000402230               0.999999986               0.000299209               0.000423209               0.999999986               0.000307897               0.000446755               0.999999986               0.000317168               0.000471410               0.999999986               0.000326410               0.000496053               0.999999986               0.000335246               0.000520101               0.999999986               0.000343559               0.000543230               0.999999986               0.000351093               0.000565104               0.999999986               0.000357695               0.000585264               0.999999986               0.000363298               0.000603315               0.999999986               0.000367959               0.000619292               0.999999986               0.000371873               0.000633634               0.999999986               0.000375317               0.000646722               0.999999986               0.000287037               0.000552935               0.999999986               0.000258277               0.000475474               0.999999986               0.000247533               0.000458076               0.999999986               0.000247049               0.000465880               0.999999986               0.000252439               0.000485502               0.999999986               0.000260744               0.000510872               0.999999986               0.000270127               0.000538837               0.999999986               0.000279466               0.000567790               0.999999986               0.000288098               0.000596634               0.999999986               0.000295808               0.000624785               0.999999986               0.000302409               0.000652102               0.999999986               0.000307837               0.000677859               0.999999986               0.000311989               0.000701776               0.999999986               0.000314996               0.000723829               0.999999986               0.000316979               0.000744210               0.999999986               0.000318159               0.000763519               0.999999986               0.000318779               0.000781951               0.999999986               0.000264304               0.000630666               0.999999986               0.000220165               0.000548595               0.999999986               0.000207253               0.000532772               0.999999986               0.000208389               0.000543769               0.999999986               0.000215761               0.000567350               0.999999986               0.000225640               0.000596748               0.999999986               0.000235730               0.000628737               0.999999986               0.000244967               0.000661653               0.999999986               0.000252736               0.000694422               0.999999986               0.000258988               0.000726443               0.999999986               0.000263738               0.000757361               0.999999986               0.000266953               0.000786632               0.999999986               0.000268598               0.000814094               0.999999986               0.000268869               0.000839889               0.999999986               0.000267980               0.000864258               0.999999986               0.000266270               0.000887634               0.999999986               0.000263667               0.000910297               0.999999986               0.000239919               0.000701467               0.999999986               0.000181962               0.000619482               0.999999986               0.000169831               0.000605350               0.999999986               0.000173573               0.000619243               0.999999986               0.000183399               0.000646338               0.999999986               0.000194757               0.000679546               0.999999986               0.000205269               0.000715378               0.999999986               0.000213895               0.000752051               0.999999986               0.000220464               0.000788525               0.999999986               0.000225001               0.000824034               0.999999986               0.000227577               0.000858178               0.999999986               0.000228151               0.000890649               0.999999986               0.000226644               0.000921382               0.999999986               0.000223585               0.000950603               0.999999986               0.000219305               0.000978748               0.999999986               0.000213944               0.001006063               0.999999986               0.000208023               0.001032415               0.999999986               0.000215303               0.000767903               0.999999986               0.000151074               0.000696204               0.999999986               0.000135875               0.000677320               0.999999986               0.000138001               0.000685131               0.999999986               0.000146752               0.000706869               0.999999986               0.000157432               0.000735936               0.999999986               0.000167558               0.000768756               0.999999986               0.000175960               0.000803271               0.999999986               0.000182488               0.000838289               0.999999986               0.000187131               0.000873032               0.999999986               0.000189692               0.000907097               0.999999986               0.000190269               0.000940165               0.999999986               0.000188694               0.000971970               0.999999986               0.000185023               0.001002540               0.999999986               0.000179848               0.001032030               0.999999986               0.000173399               0.001060578               0.999999986               0.000166145               0.001087991               0.999999986               0.000188270               0.000827923               0.999999986               0.000122910               0.000769787               0.999999986               0.000104757               0.000750472               0.999999986               0.000104552               0.000754008               0.999999986               0.000111619               0.000771260               0.999999986               0.000121009               0.000796612               0.999999986               0.000130274               0.000826550               0.999999986               0.000138384               0.000858915               0.999999986               0.000144732               0.000892355               0.999999986               0.000149278               0.000926154               0.999999986               0.000151719               0.000959855               0.999999986               0.000152064               0.000992998               0.999999986               0.000150191               0.001025471               0.999999986               0.000145925               0.001057004               0.999999986               0.000139562               0.001087691               0.999999986               0.000131674               0.001117555               0.999999986               0.000122408               0.001146366               0.999999986               0.000159552               0.000880155               0.999999986               0.000097471               0.000838026               0.999999986               0.000077592               0.000821502               0.999999986               0.000074826               0.000823267               0.999999986               0.000079667               0.000837411               0.999999986               0.000087238               0.000859765               0.999999986               0.000095358               0.000887257               0.999999986               0.000102836               0.000917736               0.999999986               0.000108809               0.000949836               0.999999986               0.000113051               0.000982710               0.999999986               0.000115343               0.001015929               0.999999986               0.000115435               0.001049134               0.999999986               0.000113125               0.001081956               0.999999986               0.000108310               0.001114188               0.999999986               0.000100854               0.001145760               0.999999986               0.000090885               0.001176793               0.999999986               0.000078824               0.001206986               0.999999986               0.000129477               0.000923823               0.999999986               0.000074682               0.000898234               0.999999986               0.000054797               0.000887016               0.999999986               0.000050133               0.000889159               0.999999986               0.000052603               0.000901849               0.999999986               0.000058129               0.000922234               0.999999986               0.000064757               0.000947903               0.999999986               0.000071202               0.000977025               0.999999986               0.000076494               0.001008273               0.999999986               0.000080280               0.001040677               0.999999986               0.000082245               0.001073796               0.999999986               0.000082125               0.001107307               0.999999986               0.000079595               0.001140708               0.999999986               0.000074501               0.001173727               0.999999986               0.000066128               0.001206203               0.999999986               0.000054224               0.001238216               0.999999986               0.000038972               0.001269594               0.999999986               0.000098227               0.000958499               0.999999986               0.000054110               0.000948029               0.999999986               0.000036422               0.000943209               0.999999986               0.000030991               0.000947469               0.999999986               0.000031594               0.000960135               0.999999986               0.000035179               0.000979564               0.999999986               0.000039920               0.001004220               0.999999986               0.000044944               0.001032592               0.999999986               0.000049349               0.001063517               0.999999986               0.000052412               0.001096140               0.999999986               0.000053840               0.001129864               0.999999986               0.000053656               0.001164199               0.999999986               0.000051351               0.001198739               0.999999986               0.000046369               0.001233185               0.999999986               0.000037978               0.001267272               0.999999986               0.000025285               0.001300874               0.999999986               0.000007816               0.001333720               0.999999986               0.000066040               0.000983677               0.999999986               0.000035212               0.000985314               0.999999986               0.000021884               0.000986524               0.999999986               0.000017102               0.000993505               0.999999986               0.000016756               0.001007057               0.999999986               0.000018726               0.001026449               0.999999986               0.000021688               0.001050762               0.999999986               0.000025008               0.001078889               0.999999986               0.000028043               0.001109931               0.999999986               0.000030233               0.001143147               0.999999986               0.000031217               0.001177795               0.999999986               0.000031012               0.001213461               0.999999986               0.000029217               0.001249770               0.999999986               0.000025205               0.001286304               0.999999986               0.000018140               0.001322750               0.999999986               0.000007006               0.001358716               0.999999986              -0.000009342               0.001393604               0.999999986               0.000033189               0.000998976               0.999999986               0.000017354               0.001008457               0.999999986               0.000010154               0.001014011               0.999999986               0.000007365               0.001023180               0.999999986               0.000006968               0.001037708               0.999999986               0.000007775               0.001057509               0.999999986               0.000009139               0.001081909               0.999999986               0.000010759               0.001110097               0.999999986               0.000012270               0.001141359               0.999999986               0.000013411               0.001175045               0.999999986               0.000014007               0.001210588               0.999999986               0.000013815               0.001247524               0.999999986               0.000012832               0.001285435               0.999999986               0.000010535               0.001323969               0.999999986               0.000006442               0.001362712               0.999999986              -0.000000210               0.001401128               0.999999986              -0.000010323               0.001438141               0.999999986              -0.000000000               0.001004107               0.999999986              -0.000000000               0.001016294               0.999999986              -0.000000000               0.001023397               0.999999986               0.000000000               0.001033393               0.999999986              -0.000000000               0.001048387               0.999999986              -0.000000000               0.001068431               0.999999986               0.000000000               0.001092926               0.999999986              -0.000000000               0.001121214               0.999999986              -0.000000000               0.001152623               0.999999986              -0.000000000               0.001186559               0.999999986              -0.000000000               0.001222457               0.999999986              -0.000000000               0.001259888               0.999999986              -0.000000000               0.001298416               0.999999986              -0.000000000               0.001337729               0.999999986               0.000000000               0.001377425               0.999999986              -0.000000000               0.001416857               0.999999986               0.000000000               0.001454813               0.999999986 </DataArray>
<DataArray type="Float64"                                    Name="defo"                                                      NumberOfComponents=" 3" format="ascii">
             -0.000355331               0.000000000               0.999999986              -0.000393775               0.000000000               0.999999986              -0.000411433               0.000000000               0.999999986              -0.000421770              -0.000000000               0.999999986              -0.000430212              -0.000000000               0.999999986              -0.000438731               0.000000000               0.999999986              -0.000448035               0.000000000               0.999999986              -0.000458480              -0.000000000               0.999999986              -0.000470148              -0.000000000               0.999999986              -0.000482974              -0.000000000               0.999999986              -0.000496737               0.000000000               0.999999986              -0.000511230               0.000000000               0.999999986              -0.000526221               0.000000000               0.999999986              -0.000541541               0.000000000               0.999999986              -0.000556993               0.000000000               0.999999986              -0.000572336               0.000000000               0.999999986              -0.000587156               0.000000000               0.999999986              -0.000353422               0.000097657               0.999999986              -0.000389495               0.000082231               0.999999986              -0.000405681               0.000076380               0.999999986              -0.000415171               0.000075592               0.999999986              -0.000423078               0.000077564               0.999999986              -0.000431243               0.000081089               0.999999986              -0.000440346               0.000085466               0.999999986              -0.000450647               0.000090374               0.999999986              -0.000462160               0.000095471               0.999999986              -0.000474763               0.000100411               0.999999986              -0.000488123               0.000105177               0.999999986              -0.000502052               0.000109666               0.999999986              -0.000516433               0.000113616               0.999999986              -0.000531103               0.000116759               0.999999986              -0.000545834               0.000118810               0.999999986              -0.000560370               0.000119207               0.999999986              -0.000574329               0.000117210               0.999999986              -0.000347626               0.000194385               0.999999986              -0.000376727               0.000163813               0.999999986              -0.000388767               0.000152775               0.999999986              -0.000395897               0.000151793               0.999999986              -0.000402387               0.000156247               0.999999986              -0.000409769               0.000163618               0.999999986              -0.000418412               0.000172579               0.999999986              -0.000428286               0.000182507               0.999999986              -0.000439228               0.000192742               0.999999986              -0.000451088               0.000202716               0.999999986              -0.000463563               0.000212146               0.999999986              -0.000476340               0.000220977               0.999999986              -0.000489266               0.000228882               0.999999986              -0.000502173               0.000235425               0.999999986              -0.000514828               0.000240003               0.999999986              -0.000527053               0.000241859               0.999999986              -0.000538720               0.000240050               0.999999986              -0.000337893               0.000289254               0.999999986              -0.000355954               0.000244194               0.999999986              -0.000361987               0.000229239               0.999999986              -0.000366020               0.000229067               0.999999986              -0.000370987               0.000236657               0.999999986              -0.000377583               0.000248349               0.999999986              -0.000385758               0.000262226               0.999999986              -0.000395186               0.000277241               0.999999986              -0.000405471               0.000292537               0.999999986              -0.000416358               0.000307478               0.999999986              -0.000427489               0.000321592               0.999999986              -0.000438688               0.000334758               0.999999986              -0.000449677               0.000346680               0.999999986              -0.000460254               0.000356898               0.999999986              -0.000470240               0.000364750               0.999999986              -0.000479574               0.000369738               0.999999986              -0.000488480               0.000371410               0.999999986              -0.000324313               0.000381308               0.999999986              -0.000328156               0.000323043               0.999999986              -0.000327576               0.000305797               0.999999986              -0.000328816               0.000307533               0.999999986              -0.000332837               0.000318853               0.999999986              -0.000339256               0.000335185               0.999999986              -0.000347437               0.000354034               0.999999986              -0.000356676               0.000374007               0.999999986              -0.000366423               0.000394143               0.999999986              -0.000376265               0.000413804               0.999999986              -0.000385994               0.000432515               0.999999986              -0.000395407               0.000450078               0.999999986              -0.000404329               0.000466191               0.999999986              -0.000412527               0.000480253               0.999999986              -0.000419881               0.000491901               0.999999986              -0.000426514               0.000501263               0.999999986              -0.000432699               0.000508377               0.999999986              -0.000307220               0.000469520               0.999999986              -0.000294937               0.000400192               0.999999986              -0.000288457               0.000382227               0.999999986              -0.000288063               0.000386744               0.999999986              -0.000292164               0.000402230               0.999999986              -0.000299209               0.000423209               0.999999986              -0.000307897               0.000446755               0.999999986              -0.000317168               0.000471410               0.999999986              -0.000326410               0.000496053               0.999999986              -0.000335246               0.000520101               0.999999986              -0.000343559               0.000543230               0.999999986              -0.000351093               0.000565104               0.999999986              -0.000357695               0.000585264               0.999999986              -0.000363298               0.000603315               0.999999986              -0.000367959               0.000619292               0.999999986              -0.000371873               0.000633634               0.999999986              -0.000375317               0.000646722               0.999999986              -0.000287037               0.000552935               0.999999986              -0.000258277               0.000475474               0.999999986              -0.000247533               0.000458076               0.999999986              -0.000247049               0.000465880               0.999999986              -0.000252439               0.000485502               0.999999986              -0.000260744               0.000510872               0.999999986              -0.000270127               0.000538837               0.999999986              -0.000279466               0.000567790               0.999999986              -0.000288098               0.000596634               0.999999986              -0.000295808               0.000624785               0.999999986              -0.000302409               0.000652102               0.999999986              -0.000307837               0.000677859               0.999999986              -0.000311989               0.000701776               0.999999986              -0.000314996               0.000723829               0.999999986              -0.000316979               0.000744210               0.999999986              -0.000318159               0.000763519               0.999999986              -0.000318779               0.000781951               0.999999986              -0.000264304               0.000630666               0.999999986              -0.000220165               0.000548595               0.999999986              -0.000207253               0.000532772               0.999999986              -0.000208389               0.000543769               0.999999986              -0.000215761               0.000567350               0.999999986              -0.000225640               0.000596748               0.999999986              -0.000235730               0.000628737               0.999999986              -0.000244967               0.000661653               0.999999986              -0.000252736               0.000694422               0.999999986              -0.000258988               0.000726443               0.999999986              -0.000263738               0.000757361               0.999999986              -0.000266953               0.000786632               0.999999986              -0.000268598               0.000814094               0.999999986              -0.000268869               0.000839889               0.999999986              -0.000267980               0.000864258               0.999999986              -0.000266270               0.000887634               0.999999986              -0.000263667               0.000910297               0.999999986              -0.000239919               0.000701467               0.999999986              -0.000181962               0.000619482               0.999999986              -0.000169831               0.000605350               0.999999986              -0.000173573               0.000619243               0.999999986              -0.000183399               0.000646338               0.999999986              -0.000194757               0.000679546               0.999999986              -0.000205269               0.000715378               0.999999986              -0.000213895               0.000752051               0.999999986              -0.000220464               0.000788525               0.999999986              -0.000225001               0.000824034               0.999999986              -0.000227577               0.000858178               0.999999986              -0.000228151               0.000890649               0.999999986              -0.000226644               0.000921382               0.999999986              -0.000223585               0.000950603               0.999999986              -0.000219305               0.000978748               0.999999986              -0.000213944               0.001006063               0.999999986              -0.000208023               0.001032415               0.999999986              -0.000215303               0.000767903               0.999999986              -0.000151074               0.000696204               0.999999986              -0.000135875               0.000677320               0.999999986              -0.000138001               0.000685131               0.999999986              -0.000146752               0.000706869               0.999999986              -0.000157432               0.000735936               0.999999986              -0.000167558               0.000768756               0.999999986              -0.000175960               0.000803271               0.999999986              -0.000182488               0.000838289               0.999999986              -0.000187131               0.000873032               0.999999986              -0.000189692               0.000907097               0.999999986              -0.000190269               0.000940165               0.999999986              -0.000188694               0.000971970               0.999999986              -0.000185023               0.001002540               0.999999986              -0.000179848               0.001032030               0.999999986              -0.000173399               0.001060578               0.999999986              -0.000166145               0.001087991               0.999999986              -0.000188270               0.000827923               0.999999986              -0.000122910               0.000769787               0.999999986              -0.000104757               0.000750472               0.999999986              -0.000104552               0.000754008               0.999999986              -0.000111619               0.000771260               0.999999986              -0.000121009               0.000796612               0.999999986              -0.000130274               0.000826550               0.999999986              -0.000138384               0.000858915               0.999999986              -0.000144732               0.000892355               0.999999986              -0.000149278               0.000926154               0.999999986              -0.000151719               0.000959855               0.999999986              -0.000152064               0.000992998               0.999999986              -0.000150191               0.001025471               0.999999986              -0.000145925               0.001057004               0.999999986              -0.000139562               0.001087691               0.999999986              -0.000131674               0.001117555               0.999999986              -0.000122408               0.001146366               0.999999986              -0.000159552               0.000880155               0.999999986              -0.000097471               0.000838026               0.999999986              -0.000077592               0.000821502               0.999999986              -0.000074826               0.000823267               0.999999986              -0.000079667               0.000837411               0.999999986              -0.000087238               0.000859765               0.999999986              -0.000095358               0.000887257               0.999999986              -0.000102836               0.000917736               0.999999986              -0.000108809               0.000949836               0.999999986              -0.000113051               0.000982710               0.999999986              -0.000115343               0.001015929               0.999999986              -0.000115435               0.001049134               0.999999986              -0.000113125               0.001081956               0.999999986              -0.000108310               0.001114188               0.999999986              -0.000100854               0.001145760               0.999999986              -0.000090885               0.001176793               0.999999986              -0.000078824               0.001206986               0.999999986              -0.000129477               0.000923823               0.999999986              -0.000074682               0.000898234               0.999999986              -0.000054797               0.000887016               0.999999986              -0.000050133               0.000889159               0.999999986              -0.000052603               0.000901849               0.999999986              -0.000058129               0.000922234               0.999999986              -0.000064757               0.000947903               0.999999986              -0.000071202               0.000977025               0.999999986              -0.000076494               0.001008273               0.999999986              -0.000080280               0.001040677               0.999999986              -0.000082245               0.001073796               0.999999986              -0.000082125               0.001107307               0.999999986              -0.000079595               0.001140708               0.999999986              -0.000074501               0.001173727               0.999999986              -0.000066128               0.001206203               0.999999986              -0.000054224               0.001238216               0.999999986              -0.000038972               0.001269594               0.999999986              -0.000098227               0.000958499               0.999999986              -0.000054110               0.000948029               0.999999986              -0.000036422               0.000943209               0.999999986              -0.000030991               0.000947469               0.999999986              -0.000031594               0.000960135               0.999999986              -0.000035179               0.000979564               0.999999986              -0.000039920               0.001004220               0.999999986              -0.000044944               0.001032592               0.999999986              -0.000049349               0.001063517               0.999999986              -0.000052412               0.001096140               0.999999986              -0.000053840               0.001129864               0.999999986              -0.000053656               0.001164199               0.999999986              -0.000051351               0.001198739               0.999999986              -0.000046369               0.001233185               0.999999986              -0.000037978               0.001267272               0.999999986              -0.000025285               0.001300874               0.999999986              -0.000007816               0.001333720               0.999999986              -0.000066040               0.000983677               0.999999986              -0.000035212               0.000985314               0.999999986              -0.000021884               0.000986524               0.999999986              -0.000017102               0.000993505               0.999999986              -0.000016756               0.001007057               0.999999986              -0.000018726               0.001026449               0.999999986              -0.000021688               0.001050762               0.999999986              -0.000025008               0.001078889               0.999999986              -0.000028043               0.001109931               0.999999986              -0.000030233               0.001143147               0.999999986              -0.000031217               0.001177795               0.999999986              -0.000031012               0.001213461               0.999999986              -0.000029217               0.001249770               0.999999986              -0.000025205               0.001286304               0.999999986              -0.000018140               0.001322750               0.999999986              -0.000007006               0.001358716               0.999999986               0.000009342               0.001393604               0.999999986              -0.000033189               0.000998976               0.999999986              -0.000017354               0.001008457               0.999999986              -0.000010154               0.001014011               0.999999986              -0.000007365               0.001023180               0.999999986              -0.000006968               0.001037708               0.999999986              -0.000007775               0.001057509               0.999999986              -0.000009139               0.001081909               0.999999986              -0.000010759               0.001110097               0.999999986              -0.000012270               0.001141359               0.999999986              -0.000013411               0.001175045               0.999999986              -0.000014007               0.001210588               0.999999986              -0.000013815               0.001247524               0.999999986              -0.000012832               0.001285435               0.999999986              -0.000010535               0.001323969               0.999999986              -0.000006442               0.001362712               0.999999986               0.000000210               0.001401128               0.999999986               0.000010323               0.001438141               0.999999986              -0.000000000               0.001004107               0.999999986              -0.000000000               0.001016294               0.999999986              -0.000000000               0.001023397               0.999999986               0.000000000               0.001033393               0.999999986              -0.000000000               0.001048387               0.999999986              -0.000000000               0.001068431               0.999999986               0.000000000               0.001092926               0.999999986              -0.000000000               0.001121214               0.999999986              -0.000000000               0.001152623               0.999999986              -0.000000000               0.001186559               0.999999986              -0.000000000               0.001222457               0.999999986              -0.000000000               0.001259888               0.999999986              -0.000000000               0.001298416               0.999999986              -0.000000000               0.001337729               0.999999986               0.000000000               0.001377425               0.999999986              -0.000000000               0.001416857               0.999999986               0.000000000               0.001454813               0.999999986              -0.000355331               0.000000000               0.999999986              -0.000393775               0.000000000               0.999999986              -0.000411433               0.000000000               0.999999986              -0.000421770              -0.000000000               0.999999986              -0.000430212              -0.000000000               0.999999986              -0.000438731               0.000000000               0.999999986              -0.000448035               0.000000000               0.999999986              -0.000458480              -0.000000000               0.999999986              -0.000470148              -0.000000000               0.999999986              -0.000482974              -0.000000000               0.999999986              -0.000496737               0.000000000               0.999999986              -0.000511230               0.000000000               0.999999986              -0.000526221               0.000000000               0.999999986              -0.000541541               0.000000000               0.999999986              -0.000556993               0.000000000               0.999999986              -0.000572336               0.000000000               0.999999986              -0.000587156               0.000000000               0.999999986              -0.000353422              -0.000097657               0.999999986              -0.000389495              -0.000082231               0.999999986              -0.000405681              -0.000076380               0.999999986              -0.000415171              -0.000075592               0.999999986              -0.000423078              -0.000077564               0.999999986              -0.000431243              -0.000081089               0.999999986              -0.000440346              -0.000085466               0.999999986              -0.000450647              -0.000090374               0.999999986              -0.000462160              -0.000095471               0.999999986              -0.000474763              -0.000100411               0.999999986              -0.000488123              -0.000105177               0.999999986              -0.000502052              -0.000109666               0.999999986              -0.000516433              -0.000113616               0.999999986              -0.000531103              -0.000116759               0.999999986              -0.000545834              -0.000118810               0.999999986              -0.000560370              -0.000119207               0.999999986              -0.000574329              -0.000117210               0.999999986              -0.000347626              -0.000194385               0.999999986              -0.000376727              -0.000163813               0.999999986              -0.000388767              -0.000152775               0.999999986              -0.000395897              -0.000151793               0.999999986              -0.000402387              -0.000156247               0.999999986              -0.000409769              -0.000163618               0.999999986              -0.000418412              -0.000172579               0.999999986              -0.000428286              -0.000182507               0.999999986              -0.000439228              -0.000192742               0.999999986              -0.000451088              -0.000202716               0.999999986              -0.000463563              -0.000212146               0.999999986              -0.000476340              -0.000220977               0.999999986              -0.000489266              -0.000228882               0.999999986              -0.000502173              -0.000235425               0.999999986              -0.000514828              -0.000240003               0.999999986              -0.000527053              -0.000241859               0.999999986              -0.000538720              -0.000240050               0.999999986              -0.000337893              -0.000289254               0.999999986              -0.000355954              -0.000244194               0.999999986              -0.000361987              -0.000229239               0.999999986              -0.000366020              -0.000229067               0.999999986              -0.000370987              -0.000236657               0.999999986              -0.000377583              -0.000248349               0.999999986              -0.000385758              -0.000262226               0.999999986              -0.000395186              -0.000277241               0.999999986              -0.000405471              -0.000292537               0.999999986              -0.000416358              -0.000307478               0.999999986              -0.000427489              -0.000321592               0.999999986              -0.000438688              -0.000334758               0.999999986              -0.000449677              -0.000346680               0.999999986              -0.000460254              -0.000356898               0.999999986              -0.000470240              -0.000364750               0.999999986              -0.000479574              -0.000369738               0.999999986              -0.000488480              -0.000371410               0.999999986              -0.000324313              -0.000381308               0.999999986              -0.000328156              -0.000323043               0.999999986              -0.000327576              -0.000305797               0.999999986              -0.000328816              -0.000307533               0.999999986              -0.000332837              -0.000318853               0.999999986              -0.000339256              -0.000335185               0.999999986              -0.000347437              -0.000354034               0.999999986              -0.000356676              -0.000374007               0.999999986              -0.000366423              -0.000394143               0.999999986              -0.000376265              -0.000413804               0.999999986              -0.000385994              -0.000432515               0.999999986              -0.000395407              -0.000450078               0.999999986              -0.000404329              -0.000466191               0.999999986              -0.000412527              -0.000480253               0.999999986              -0.000419881              -0.000491901               0.999999986              -0.000426514              -0.000501263               0.999999986              -0.000432699              -0.000508377               0.999999986              -0.000307220              -0.000469520               0.999999986              -0.000294937              -0.000400192               0.999999986              -0.000288457              -0.000382227               0.999999986              -0.000288063              -0.000386744               0.999999986              -0.000292164              -0.000402230               0.999999986              -0.000299209              -0.000423209               0.999999986              -0.000307897              -0.000446755               0.999999986              -0.000317168              -0.000471410               0.999999986              -0.000326410              -0.000496053               0.999999986              -0.000335246              -0.000520101               0.999999986              -0.000343559              -0.000543230               0.999999986              -0.000351093              -0.000565104               0.999999986              -0.000357695              -0.000585264               0.999999986              -0.000363298              -0.000603315               0.999999986              -0.000367959              -0.000619292               0.999999986              -0.000371873              -0.000633634               0.999999986              -0.000375317              -0.000646722               0.999999986              -0.000287037              -0.000552935               0.999999986              -0.000258277              -0.000475474               0.999999986              -0.000247533              -0.000458076               0.999999986              -0.000247049              -0.000465880               0.999999986              -0.000252439              -0.000485502               0.999999986              -0.000260744              -0.000510872               0.999999986              -0.000270127              -0.000538837               0.999999986              -0.000279466              -0.000567790               0.999999986              -0.000288098              -0.000596634               0.999999986              -0.000295808              -0.000624785               0.999999986              -0.000302409              -0.000652102               0.999999986              -0.000307837              -0.000677859               0.999999986              -0.000311989              -0.000701776               0.999999986              -0.000314996              -0.000723829               0.999999986              -0.000316979              -0.000744210               0.999999986              -0.000318159              -0.000763519               0.999999986              -0.000318779              -0.000781951               0.999999986              -0.000264304              -0.000630666               0.999999986              -0.000220165              -0.000548595               0.999999986              -0.000207253              -0.000532772               0.999999986              -0.000208389              -0.000543769               0.999999986              -0.000215761              -0.000567350               0.999999986              -0.000225640              -0.000596748               0.999999986              -0.000235730              -0.000628737               0.999999986              -0.000244967              -0.000661653               0.999999986              -0.000252736              -0.000694422               0.999999986              -0.000258988              -0.000726443               0.999999986              -0.000263738              -0.000757361               0.999999986              -0.000266953              -0.000786632               0.999999986              -0.000268598              -0.000814094               0.999999986              -0.000268869              -0.000839889               0.999999986              -0.000267980              -0.000864258               0.999999986              -0.000266270              -0.000887634               0.999999986              -0.000263667              -0.000910297               0.999999986              -0.000239919              -0.000701467               0.999999986              -0.000181962              -0.000619482               0.999999986              -0.000169831              -0.000605350               0.999999986              -0.000173573              -0.000619243               0.999999986              -0.000183399              -0.000646338               0.999999986              -0.000194757              -0.000679546               0.999999986              -0.000205269              -0.000715378               0.999999986              -0.000213895              -0.000752051               0.999999986              -0.000220464              -0.000788525               0.999999986              -0.000225001              -0.000824034               0.999999986              -0.000227577              -0.000858178               0.999999986              -0.000228151              -0.000890649               0.999999986              -0.000226644              -0.000921382               0.999999986              -0.000223585              -0.000950603               0.999999986              -0.000219305              -0.000978748               0.999999986              -0.000213944              -0.001006063               0.999999986              -0.000208023              -0.001032415               0.999999986              -0.000215303              -0.000767903               0.999999986              -0.000151074              -0.000696204               0.999999986              -0.000135875              -0.000677320               0.999999986              -0.000138001              -0.000685131               0.999999986              -0.000146752              -0.000706869               0.999999986              -0.000157432              -0.000735936               0.999999986              -0.000167558              -0.000768756               0.999999986              -0.000175960              -0.000803271               0.999999986              -0.000182488              -0.000838289               0.999999986              -0.000187131              -0.000873032               0.999999986              -0.000189692              -0.000907097               0.999999986              -0.000190269              -0.000940165               0.999999986              -0.000188694              -0.000971970               0.999999986              -0.000185023              -0.001002540               0.999999986              -0.000179848              -0.001032030               0.999999986              -0.000173399              -0.001060578               0.999999986              -0.000166145              -0.001087991               0.999999986              -0.000188270              -0.000827923               0.999999986              -0.000122910              -0.000769787               0.999999986              -0.000104757              -0.000750472               0.999999986              -0.000104552              -0.000754008               0.999999986              -0.000111619              -0.000771260               0.999999986              -0.000121009              -0.000796612               0.999999986              -0.000130274              -0.000826550               0.999999986              -0.000138384              -0.000858915               0.999999986              -0.000144732              -0.000892355               0.999999986              -0.000149278              -0.000926154               0.999999986              -0.000151719              -0.000959855               0.999999986              -0.000152064              -0.000992998               0.999999986              -0.000150191              -0.001025471               0.999999986              -0.000145925              -0.001057004               0.999999986              -0.000139562              -0.001087691               0.999999986              -0.000131674              -0.001117555               0.999999986              -0.000122408              -0.001146366               0.999999986              -0.000159552              -0.000880155               0.999999986              -0.000097471              -0.000838026               0.999999986              -0.000077592              -0.000821502               0.999999986              -0.000074826              -0.000823267               0.999999986              -0.000079667              -0.000837411               0.999999986              -0.000087238              -0.000859765               0.999999986              -0.000095358              -0.000887257               0.999999986              -0.000102836              -0.000917736               0.999999986              -0.000108809              -0.000949836               0.999999986              -0.000113051              -0.000982710               0.999999986              -0.000115343              -0.001015929               0.999999986              -0.000115435              -0.001049134               0.999999986              -0.000113125              -0.001081956               0.999999986              -0.000108310              -0.001114188               0.999999986              -0.000100854              -0.001145760               0.999999986              -0.000090885              -0.001176793               0.999999986              -0.000078824              -0.001206986               0.999999986              -0.000129477              -0.000923823               0.999999986              -0.000074682              -0.000898234               0.999999986              -0.000054797              -0.000887016               0.999999986              -0.000050133              -0.000889159               0.999999986              -0.000052603              -0.000901849               0.999999986              -0.000058129              -0.000922234               0.999999986              -0.000064757              -0.000947903               0.999999986              -0.000071202              -0.000977025               0.999999986              -0.000076494              -0.001008273               0.999999986              -0.000080280              -0.001040677               0.999999986              -0.000082245              -0.001073796               0.999999986              -0.000082125              -0.001107307               0.999999986              -0.000079595              -0.001140708               0.999999986              -0.000074501              -0.001173727               0.999999986              -0.000066128              -0.001206203               0.999999986              -0.000054224              -0.001238216               0.999999986              -0.000038972              -0.001269594               0.999999986              -0.000098227              -0.000958499               0.999999986              -0.000054110              -0.000948029               0.999999986              -0.000036422              -0.000943209               0.999999986              -0.000030991              -0.000947469               0.999999986              -0.000031594              -0.000960135               0.999999986              -0.000035179              -0.000979564               0.999999986              -0.000039920              -0.001004220               0.999999986              -0.000044944              -0.001032592               0.999999986              -0.000049349              -0.001063517               0.999999986              -0.000052412              -0.001096140               0.999999986              -0.000053840              -0.001129864               0.999999986              -0.000053656              -0.001164199               0.999999986              -0.000051351              -0.001198739               0.999999986              -0.000046369              -0.001233185               0.999999986              -0.000037978              -0.001267272               0.999999986              -0.000025285              -0.001300874               0.999999986              -0.000007816              -0.001333720               0.999999986              -0.000066040              -0.000983677               0.999999986              -0.000035212              -0.000985314               0.999999986              -0.000021884              -0.000986524               0.999999986              -0.000017102              -0.000993505               0.999999986              -0.000016756              -0.001007057               0.999999986              -0.000018726              -0.001026449               0.999999986              -0.000021688              -0.001050762               0.999999986              -0.000025008              -0.001078889               0.999999986              -0.000028043              -0.001109931               0.999999986              -0.000030233              -0.001143147               0.999999986              -0.000031217              -0.001177795               0.999999986              -0.000031012              -0.001213461               0.999999986              -0.000029217              -0.001249770               0.999999986              -0.000025205              -0.001286304               0.999999986              -0.000018140              -0.001322750               0.999999986              -0.000007006              -0.001358716               0.999999986               0.000009342              -0.001393604               0.999999986              -0.000033189              -0.000998976               0.999999986              -0.000017354              -0.001008457               0.999999986              -0.000010154              -0.001014011               0.999999986              -0.000007365              -0.001023180               0.999999986              -0.000006968              -0.001037708               0.999999986              -0.000007775              -0.001057509               0.999999986              -0.000009139              -0.001081909               0.999999986              -0.000010759              -0.001110097               0.999999986              -0.000012270              -0.001141359               0.999999986              -0.000013411              -0.001175045               0.999999986              -0.000014007              -0.001210588               0.999999986              -0.000013815              -0.001247524               0.999999986              -0.000012832              -0.001285435               0.999999986              -0.000010535              -0.001323969               0.999999986              -0.000006442              -0.001362712               0.999999986               0.000000210              -0.001401128               0.999999986               0.000010323              -0.001438141               0.999999986              -0.000000000              -0.001004107               0.999999986               0.000000000              -0.001016294               0.999999986               0.000000000              -0.001023397               0.999999986              -0.000000000              -0.001033393               0.999999986              -0.000000000              -0.001048387               0.999999986              -0.000000000              -0.001068431               0.999999986               0.000000000              -0.001092926               0.999999986              -0.000000000              -0.001121214               0.999999986              -0.000000000              -0.001152623               0.999999986               0.000000000              -0.001186559               0.999999986              -0.000000000              -0.001222457               0.999999986               0.000000000              -0.001259888               0.999999986               0.000000000              -0.001298416               0.999999986              -0.000000000              -0.001337729               0.999999986              -0.000000000              -0.001377425               0.999999986              -0.000000000              -0.001416857               0.999999986               0.000000000              -0.001454813               0.999999986               0.000355331              -0.000000000               0.999999986               0.000393775               0.000000000               0.999999986               0.000411433              -0.000000000               0.999999986               0.000421770               0.000000000               0.999999986               0.000430212              -0.000000000               0.999999986               0.000438731              -0.000000000               0.999999986               0.000448035              -0.000000000               0.999999986               0.000458480              -0.000000000               0.999999986               0.000470148              -0.000000000               0.999999986               0.000482974              -0.000000000               0.999999986               0.000496737              -0.000000000               0.999999986               0.000511230              -0.000000000               0.999999986               0.000526221              -0.000000000               0.999999986               0.000541541              -0.000000000               0.999999986               0.000556993               0.000000000               0.999999986               0.000572336               0.000000000               0.999999986               0.000587156              -0.000000000               0.999999986               0.000353422              -0.000097657               0.999999986               0.000389495              -0.000082231               0.999999986               0.000405681              -0.000076380               0.999999986               0.000415171              -0.000075592               0.999999986               0.000423078              -0.000077564               0.999999986               0.000431243              -0.000081089               0.999999986               0.000440346              -0.000085466               0.999999986               0.000450647              -0.000090374               0.999999986               0.000462160              -0.000095471               0.999999986               0.000474763              -0.000100411               0.999999986               0.000488123              -0.000105177               0.999999986               0.000502052              -0.000109666               0.999999986               0.000516433              -0.000113616               0.999999986               0.000531103              -0.000116759               0.999999986               0.000545834              -0.000118810               0.999999986               0.000560370              -0.000119207               0.999999986               0.000574329              -0.000117210               0.999999986               0.000347626              -0.000194385               0.999999986               0.000376727              -0.000163813               0.999999986               0.000388767              -0.000152775               0.999999986               0.000395897              -0.000151793               0.999999986               0.000402387              -0.000156247               0.999999986               0.000409769              -0.000163618               0.999999986               0.000418412              -0.000172579               0.999999986               0.000428286              -0.000182507               0.999999986               0.000439228              -0.000192742               0.999999986               0.000451088              -0.000202716               0.999999986               0.000463563              -0.000212146               0.999999986               0.000476340              -0.000220977               0.999999986               0.000489266              -0.000228882               0.999999986               0.000502173              -0.000235425               0.999999986               0.000514828              -0.000240003               0.999999986               0.000527053              -0.000241859               0.999999986               0.000538720              -0.000240050               0.999999986               0.000337893              -0.000289254               0.999999986               0.000355954              -0.000244194               0.999999986               0.000361987              -0.000229239               0.999999986               0.000366020              -0.000229067               0.999999986               0.000370987              -0.000236657               0.999999986               0.000377583              -0.000248349               0.999999986               0.000385758              -0.000262226               0.999999986               0.000395186              -0.000277241               0.999999986               0.000405471              -0.000292537               0.999999986               0.000416358              -0.000307478               0.999999986               0.000427489              -0.000321592               0.999999986               0.000438688              -0.000334758               0.999999986               0.000449677              -0.000346680               0.999999986               0.000460254              -0.000356898               0.999999986               0.000470240              -0.000364750               0.999999986               0.000479574              -0.000369738               0.999999986               0.000488480              -0.000371410               0.999999986               0.000324313              -0.000381308               0.999999986               0.000328156              -0.000323043               0.999999986               0.000327576              -0.000305797               0.999999986               0.000328816              -0.000307533               0.999999986               0.000332837              -0.000318853               0.999999986               0.000339256              -0.000335185               0.999999986               0.000347437              -0.000354034               0.999999986               0.000356676              -0.000374007               0.999999986               0.000366423              -0.000394143               0.999999986               0.000376265              -0.000413804               0.999999986               0.000385994              -0.000432515               0.999999986               0.000395407              -0.000450078               0.999999986               0.000404329              -0.000466191               0.999999986               0.000412527              -0.000480253               0.999999986               0.000419881              -0.000491901               0.999999986               0.000426514              -0.000501263               0.999999986               0.000432699              -0.000508377               0.999999986               0.000307220              -0.000469520               0.999999986               0.000294937              -0.000400192               0.999999986               0.000288457              -0.000382227               0.999999986               0.000288063              -0.000386744               0.999999986               0.000292164              -0.000402230               0.999999986               0.000299209              -0.000423209               0.999999986               0.000307897              -0.000446755               0.999999986               0.000317168              -0.000471410               0.999999986               0.000326410              -0.000496053               0.999999986               0.000335246              -0.000520101               0.999999986               0.000343559              -0.000543230               0.999999986               0.000351093              -0.000565104               0.999999986               0.000357695              -0.000585264               0.999999986               0.000363298              -0.000603315               0.999999986               0.000367959              -0.000619292               0.999999986               0.000371873              -0.000633634               0.999999986               0.000375317              -0.000646722               0.999999986               0.000287037              -0.000552935               0.999999986               0.000258277              -0.000475474               0.999999986               0.000247533              -0.000458076               0.999999986               0.000247049              -0.000465880               0.999999986               0.000252439              -0.000485502               0.999999986               0.000260744              -0.000510872               0.999999986               0.000270127              -0.000538837               0.999999986               0.000279466              -0.000567790               0.999999986               0.000288098              -0.000596634               0.999999986               0.000295808              -0.000624785               0.999999986               0.000302409              -0.000652102               0.999999986               0.000307837              -0.000677859               0.999999986               0.000311989              -0.000701776               0.999999986               0.000314996              -0.000723829               0.999999986               0.000316979              -0.000744210               0.999999986               0.000318159              -0.000763519               0.999999986               0.000318779              -0.000781951               0.999999986               0.000264304              -0.000630666               0.999999986               0.000220165              -0.000548595               0.999999986               0.000207253              -0.000532772               0.999999986               0.000208389              -0.000543769               0.999999986               0.000215761              -0.000567350               0.999999986               0.000225640              -0.000596748               0.999999986               0.000235730              -0.000628737               0.999999986               0.000244967              -0.000661653               0.999999986               0.000252736              -0.000694422               0.999999986               0.000258988              -0.000726443               0.999999986               0.000263738              -0.000757361               0.999999986               0.000266953              -0.000786632               0.999999986               0.000268598              -0.000814094               0.999999986               0.000268869              -0.000839889               0.999999986               0.000267980              -0.000864258               0.999999986               0.000266270              -0.000887634               0.999999986               0.000263667              -0.000910297               0.999999986               0.000239919              -0.000701467               0.999999986               0.000181962              -0.000619482               0.999999986               0.000169831              -0.000605350               0.999999986               0.000173573              -0.000619243               0.999999986               0.000183399              -0.000646338               0.999999986               0.000194757              -0.000679546               0.999999986               0.000205269              -0.000715378               0.999999986               0.000213895              -0.000752051               0.999999986               0.000220464              -0.000788525               0.999999986               0.000225001              -0.000824034               0.999999986               0.000227577              -0.000858178               0.999999986               0.000228151              -0.000890649               0.999999986               0.000226644              -0.000921382               0.999999986               0.000223585              -0.000950603               0.999999986               0.000219305              -0.000978748               0.999999986               0.000213944              -0.001006063               0.999999986               0.000208023              -0.001032415               0.999999986               0.000215303              -0.000767903               0.999999986               0.000151074              -0.000696204               0.999999986               0.000135875              -0.000677320               0.999999986               0.000138001              -0.000685131               0.999999986               0.000146752              -0.000706869               0.999999986               0.000157432              -0.000735936               0.999999986               0.000167558              -0.000768756               0.999999986               0.000175960              -0.000803271               0.999999986               0.000182488              -0.000838289               0.999999986               0.000187131              -0.000873032               0.999999986               0.000189692              -0.000907097               0.999999986               0.000190269              -0.000940165               0.999999986               0.000188694              -0.000971970               0.999999986               0.000185023              -0.001002540               0.999999986               0.000179848              -0.001032030               0.999999986               0.000173399              -0.001060578               0.999999986               0.000166145              -0.001087991               0.999999986               0.000188270              -0.000827923               0.999999986               0.000122910              -0.000769787               0.999999986               0.000104757              -0.000750472               0.999999986               0.000104552              -0.000754008               0.999999986               0.000111619              -0.000771260               0.999999986               0.000121009              -0.000796612               0.999999986               0.000130274              -0.000826550               0.999999986               0.000138384              -0.000858915               0.999999986               0.000144732              -0.000892355               0.999999986               0.000149278              -0.000926154               0.999999986               0.000151719              -0.000959855               0.999999986               0.000152064              -0.000992998               0.999999986               0.000150191              -0.001025471               0.999999986               0.000145925              -0.001057004               0.999999986               0.000139562              -0.001087691               0.999999986               0.000131674              -0.001117555               0.999999986               0.000122408              -0.001146366               0.999999986               0.000159552              -0.000880155               0.999999986               0.000097471              -0.000838026               0.999999986               0.000077592              -0.000821502               0.999999986               0.000074826              -0.000823267               0.999999986               0.000079667              -0.000837411               0.999999986               0.000087238              -0.000859765               0.999999986               0.000095358              -0.000887257               0.999999986               0.000102836              -0.000917736               0.999999986               0.000108809              -0.000949836               0.999999986               0.000113051              -0.000982710               0.999999986               0.000115343              -0.001015929               0.999999986               0.000115435              -0.001049134               0.999999986               0.000113125              -0.001081956               0.999999986               0.000108310              -0.001114188               0.999999986               0.000100854              -0.001145760               0.999999986               0.000090885              -0.001176793               0.999999986               0.000078824              -0.001206986               0.999999986               0.000129477              -0.000923823               0.999999986               0.000074682              -0.000898234               0.999999986               0.000054797              -0.000887016               0.999999986               0.000050133              -0.000889159               0.999999986               0.000052603              -0.000901849               0.999999986               0.000058129              -0.000922234               0.999999986               0.000064757              -0.000947903               0.999999986               0.000071202              -0.000977025               0.999999986               0.000076494              -0.001008273               0.999999986               0.000080280              -0.001040677               0.999999986               0.000082245              -0.001073796               0.999999986               0.000082125              -0.001107307               0.999999986               0.000079595              -0.001140708               0.999999986               0.000074501              -0.001173727               0.999999986               0.000066128              -0.001206203               0.999999986               0.000054224              -0.001238216               0.999999986               0.000038972              -0.001269594               0.999999986               0.000098227              -0.000958499               0.999999986               0.000054110              -0.000948029               0.999999986               0.000036422              -0.000943209               0.999999986               0.000030991              -0.000947469               0.999999986               0.000031594              -0.000960135               0.999999986               0.000035179              -0.000979564               0.999999986               0.000039920              -0.001004220               0.999999986               0.000044944              -0.001032592               0.999999986               0.000049349              -0.001063517               0.999999986               0.000052412              -0.001096140               0.999999986               0.000053840              -0.001129864               0.999999986               0.000053656              -0.001164199               0.999999986               0.000051351              -0.001198739               0.999999986               0.000046369              -0.001233185               0.999999986               0.000037978              -0.001267272               0.999999986               0.000025285              -0.001300874               0.999999986               0.000007816              -0.001333720               0.999999986               0.000066040              -0.000983677               0.999999986               0.000035212              -0.000985314               0.999999986               0.000021884              -0.000986524               0.999999986               0.000017102              -0.000993505               0.999999986               0.000016756              -0.001007057               0.999999986               0.000018726              -0.001026449               0.999999986               0.000021688              -0.001050762               0.999999986               0.000025008              -0.001078889               0.999999986               0.000028043              -0.001109931               0.999999986               0.000030233              -0.001143147               0.999999986               0.000031217              -0.001177795               0.999999986               0.000031012              -0.001213461               0.999999986               0.000029217              -0.001249770               0.999999986               0.000025205              -0.001286304               0.999999986               0.000018140              -0.001322750               0.999999986               0.000007006              -0.001358716               0.999999986              -0.000009342              -0.001393604               0.999999986               0.000033189              -0.000998976               0.999999986               0.000017354              -0.001008457               0.999999986               0.000010154              -0.001014011               0.999999986               0.000007365              -0.001023180               0.999999986               0.000006968              -0.001037708               0.999999986               0.000007775              -0.001057509               0.999999986               0.000009139              -0.001081909               0.999999986               0.000010759              -0.001110097               0.999999986               0.000012270              -0.001141359               0.999999986               0.000013411              -0.001175045               0.999999986               0.000014007              -0.001210588               0.999999986               0.000013815              -0.001247524               0.999999986               0.000012832              -0.001285435               0.999999986               0.000010535              -0.001323969               0.999999986               0.000006442              -0.001362712               0.999999986              -0.000000210              -0.001401128               0.999999986              -0.000010323              -0.001438141               0.999999986              -0.000000000              -0.001004107               0.999999986               0.000000000              -0.001016294               0.999999986               0.000000000              -0.001023397               0.999999986              -0.000000000              -0.001033393               0.999999986              -0.000000000              -0.001048387               0.999999986              -0.000000000              -0.001068431               0.999999986               0.000000000              -0.001092926               0.999999986              -0.000000000              -0.001121214               0.999999986              -0.000000000              -0.001152623               0.999999986               0.000000000              -0.001186559               0.999999986              -0.000000000              -0.001222457               0.999999986               0.000000000              -0.001259888               0.999999986               0.000000000              -0.001298416               0.999999986              -0.000000000              -0.001337729               0.999999986              -0.000000000              -0.001377425               0.999999986              -0.000000000              -0.001416857               0.999999986               0.000000000              -0.001454813               0.999999986               0.000355331              -0.000000000               0.999999986               0.000393775               0.000000000               0.999999986               0.000411433              -0.000000000               0.999999986               0.000421770               0.000000000               0.999999986               0.000430212              -0.000000000               0.999999986               0.000438731              -0.000000000               0.999999986               0.000448035              -0.000000000               0.999999986               0.000458480              -0.000000000               0.999999986               0.000470148              -0.000000000               0.999999986               0.000482974              -0.000000000               0.999999986               0.000496737              -0.000000000               0.999999986               0.000511230              -0.000000000               0.999999986               0.000526221              -0.000000000               0.999999986               0.000541541              -0.000000000               0.999999986               0.000556993               0.000000000               0.999999986               0.000572336               0.000000000               0.999999986               0.000587156              -0.000000000               0.999999986               0.000353422               0.000097657               0.999999986               0.000389495               0.000082231               0.999999986               0.000405681               0.000076380               0.999999986               0.000415171               0.000075592               0.999999986               0.000423078               0.000077564               0.999999986               0.000431243               0.000081089               0.999999986               0.000440346               0.000085466               0.999999986               0.000450647               0.000090374               0.999999986               0.000462160               0.000095471               0.999999986               0.000474763               0.000100411               0.999999986               0.000488123               0.000105177               0.999999986               0.000502052               0.000109666               0.999999986               0.000516433               0.000113616               0.999999986               0.000531103               0.000116759               0.999999986               0.000545834               0.000118810               0.999999986               0.000560370               0.000119207               0.999999986               0.000574329               0.000117210               0.999999986               0.000347626               0.000194385               0.999999986               0.000376727               0.000163813               0.999999986               0.000388767               0.000152775               0.999999986               0.000395897               0.000151793               0.999999986               0.000402387               0.000156247               0.999999986               0.000409769               0.000163618               0.999999986               0.000418412               0.000172579               0.999999986               0.000428286               0.000182507               0.999999986               0.000439228               0.000192742               0.999999986               0.000451088               0.000202716               0.999999986               0.000463563               0.000212146               0.999999986               0.000476340               0.000220977               0.999999986               0.000489266               0.000228882               0.999999986               0.000502173               0.000235425               0.999999986               0.000514828               0.000240003               0.999999986               0.000527053               0.000241859               0.999999986               0.000538720               0.000240050               0.999999986               0.000337893               0.000289254               0.999999986               0.000355954               0.000244194               0.999999986               0.000361987               0.000229239               0.999999986               0.000366020               0.000229067               0.999999986               0.000370987               0.000236657               0.999999986               0.000377583               0.000248349               0.999999986               0.000385758               0.000262226               0.999999986               0.000395186               0.000277241               0.999999986               0.000405471               0.000292537               0.999999986               0.000416358               0.000307478               0.999999986               0.000427489               0.000321592               0.999999986               0.000438688               0.000334758               0.999999986               0.000449677               0.000346680               0.999999986               0.000460254               0.000356898               0.999999986               0.000470240               0.000364750               0.999999986               0.000479574               0.000369738               0.999999986               0.000488480               0.000371410               0.999999986               0.000324313               0.000381308               0.999999986               0.000328156               0.000323043               0.999999986               0.000327576               0.000305797               0.999999986               0.000328816               0.000307533               0.999999986               0.000332837               0.000318853               0.999999986               0.000339256               0.000335185               0.999999986               0.000347437               0.000354034               0.999999986               0.000356676               0.000374007               0.999999986               0.000366423               0.000394143               0.999999986               0.000376265               0.000413804               0.999999986               0.000385994               0.000432515               0.999999986               0.000395407               0.000450078               0.999999986               0.000404329               0.000466191               0.999999986               0.000412527               0.000480253               0.999999986               0.000419881               0.000491901               0.999999986               0.000426514               0.000501263               0.999999986               0.000432699               0.000508377               0.999999986               0.000307220               0.000469520               0.999999986               0.000294937               0.000400192               0.999999986               0.000288457               0.000382227               0.999999986               0.000288063               0.000386744               0.999999986               0.000292164               0.000402230               0.999999986               0.000299209               0.000423209               0.999999986               0.000307897               0.000446755               0.999999986               0.000317168               0.000471410               0.999999986               0.000326410               0.000496053               0.999999986               0.000335246               0.000520101               0.999999986               0.000343559               0.000543230               0.999999986               0.000351093               0.000565104               0.999999986               0.000357695               0.000585264               0.999999986               0.000363298               0.000603315               0.999999986               0.000367959               0.000619292               0.999999986               0.000371873               0.000633634               0.999999986               0.000375317               0.000646722               0.999999986               0.000287037               0.000552935               0.999999986               0.000258277               0.000475474               0.999999986               0.000247533               0.000458076               0.999999986               0.000247049               0.000465880               0.999999986               0.000252439               0.000485502               0.999999986               0.000260744               0.000510872               0.999999986               0.000270127               0.000538837               0.999999986               0.000279466               0.000567790               0.999999986               0.000288098               0.000596634               0.999999986               0.000295808               0.000624785               0.999999986               0.000302409               0.000652102               0.999999986               0.000307837               0.000677859               0.999999986               0.000311989               0.000701776               0.999999986               0.000314996               0.000723829               0.999999986               0.000316979               0.000744210               0.999999986               0.000318159               0.000763519               0.999999986               0.000318779               0.000781951               0.999999986               0.000264304               0.000630666               0.999999986               0.000220165               0.000548595               0.999999986               0.000207253               0.000532772               0.999999986               0.000208389               0.000543769               0.999999986               0.000215761               0.000567350               0.999999986               0.000225640               0.000596748               0.999999986               0.000235730               0.000628737               0.999999986               0.000244967               0.000661653               0.999999986               0.000252736               0.000694422               0.999999986               0.000258988               0.000726443               0.999999986               0.000263738               0.000757361               0.999999986               0.000266953               0.000786632               0.999999986               0.000268598               0.000814094               0.999999986               0.000268869               0.000839889               0.999999986               0.000267980               0.000864258               0.999999986               0.000266270               0.000887634               0.999999986               0.000263667               0.000910297               0.999999986               0.000239919               0.000701467               0.999999986               0.000181962               0.000619482               0.999999986               0.000169831               0.000605350               0.999999986               0.000173573               0.000619243               0.999999986               0.000183399               0.000646338               0.999999986               0.000194757               0.000679546               0.999999986               0.000205269               0.000715378               0.999999986               0.000213895               0.000752051               0.999999986               0.000220464               0.000788525               0.999999986               0.000225001               0.000824034               0.999999986               0.000227577               0.000858178               0.999999986               0.000228151               0.000890649               0.999999986               0.000226644               0.000921382               0.999999986               0.000223585               0.000950603               0.999999986               0.000219305               0.000978748               0.999999986               0.000213944               0.001006063               0.999999986               0.000208023               0.001032415               0.999999986               0.000215303               0.000767903               0.999999986               0.000151074               0.000696204               0.999999986               0.000135875               0.000677320               0.999999986               0.000138001               0.000685131               0.999999986               0.000146752               0.000706869               0.999999986               0.000157432               0.000735936               0.999999986               0.000167558               0.000768756               0.999999986               0.000175960               0.000803271               0.999999986               0.000182488               0.000838289               0.999999986               0.000187131               0.000873032               0.999999986               0.000189692               0.000907097               0.999999986               0.000190269               0.000940165               0.999999986               0.000188694               0.000971970               0.999999986               0.000185023               0.001002540               0.999999986               0.000179848               0.001032030               0.999999986               0.000173399               0.001060578               0.999999986               0.000166145               0.001087991               0.999999986               0.000188270               0.000827923               0.999999986               0.000122910               0.000769787               0.999999986               0.000104757               0.000750472               0.999999986               0.000104552               0.000754008               0.999999986               0.000111619               0.000771260               0.999999986               0.000121009               0.000796612               0.999999986               0.000130274               0.000826550               0.999999986               0.000138384               0.000858915               0.999999986               0.000144732               0.000892355               0.999999986               0.000149278               0.000926154               0.999999986               0.000151719               0.000959855               0.999999986               0.000152064               0.000992998               0.999999986               0.000150191               0.001025471               0.999999986               0.000145925               0.001057004               0.999999986               0.000139562               0.001087691               0.999999986               0.000131674               0.001117555               0.999999986               0.000122408               0.001146366               0.999999986               0.000159552               0.000880155               0.999999986               0.000097471               0.000838026               0.999999986               0.000077592               0.000821502               0.999999986               0.000074826               0.000823267               0.999999986               0.000079667               0.000837411               0.999999986               0.000087238               0.000859765               0.999999986               0.000095358               0.000887257               0.999999986               0.000102836               0.000917736               0.999999986               0.000108809               0.000949836               0.999999986               0.000113051               0.000982710               0.999999986               0.000115343               0.001015929               0.999999986               0.000115435               0.001049134               0.999999986               0.000113125               0.001081956               0.999999986               0.000108310               0.001114188               0.999999986               0.000100854               0.001145760               0.999999986               0.000090885               0.001176793               0.999999986               0.000078824               0.001206986               0.999999986               0.000129477               0.000923823               0.999999986               0.000074682               0.000898234               0.999999986               0.000054797               0.000887016               0.999999986               0.000050133               0.000889159               0.999999986               0.000052603               0.000901849               0.999999986               0.000058129               0.000922234               0.999999986               0.000064757               0.000947903               0.999999986               0.000071202               0.000977025               0.999999986               0.000076494               0.001008273               0.999999986               0.000080280               0.001040677               0.999999986               0.000082245               0.001073796               0.999999986               0.000082125               0.001107307               0.999999986               0.000079595               0.001140708               0.999999986               0.000074501               0.001173727               0.999999986               0.000066128               0.001206203               0.999999986               0.000054224               0.001238216               0.999999986               0.000038972               0.001269594               0.999999986               0.000098227               0.000958499               0.999999986               0.000054110               0.000948029               0.999999986               0.000036422               0.000943209               0.999999986               0.000030991               0.000947469               0.999999986               0.000031594               0.000960135               0.999999986               0.000035179               0.000979564               0.999999986               0.000039920               0.001004220               0.999999986               0.000044944               0.001032592               0.999999986               0.000049349               0.001063517               0.999999986               0.000052412               0.001096140               0.999999986               0.000053840               0.001129864               0.999999986               0.000053656               0.001164199               0.999999986               0.000051351               0.001198739               0.999999986               0.000046369               0.001233185               0.999999986               0.000037978               0.001267272               0.999999986               0.000025285               0.001300874               0.999999986               0.000007816               0.001333720               0.999999986               0.000066040               0.000983677               0.999999986               0.000035212               0.000985314               0.999999986               0.000021884               0.000986524               0.999999986               0.000017102               0.000993505               0.999999986               0.000016756               0.001007057               0.999999986               0.000018726               0.001026449               0.999999986               0.000021688               0.001050762               0.999999986               0.000025008               0.001078889               0.999999986               0.000028043               0.001109931               0.999999986               0.000030233               0.001143147               0.999999986               0.000031217               0.001177795               0.999999986               0.000031012               0.001213461               0.999999986               0.000029217               0.001249770               0.999999986               0.000025205               0.001286304               0.999999986               0.000018140               0.001322750               0.999999986               0.000007006               0.001358716               0.999999986              -0.000009342               0.001393604               0.999999986               0.000033189               0.000998976               0.999999986               0.000017354               0.001008457               0.999999986               0.000010154               0.001014011               0.999999986               0.000007365               0.001023180               0.999999986               0.000006968               0.001037708               0.999999986               0.000007775               0.001057509               0.999999986               0.000009139               0.001081909               0.999999986               0.000010759               0.001110097               0.999999986               0.000012270               0.001141359               0.999999986               0.000013411               0.001175045               0.999999986               0.000014007               0.001210588               0.999999986               0.000013815               0.001247524               0.999999986               0.000012832               0.001285435               0.999999986               0.000010535               0.001323969               0.999999986               0.000006442               0.001362712               0.999999986              -0.000000210               0.001401128               0.999999986              -0.000010323               0.001438141               0.999999986              -0.000000000               0.001004107               0.999999986              -0.000000000               0.001016294               0.999999986              -0.000000000               0.001023397               0.999999986               0.000000000               0.001033393               0.999999986              -0.000000000               0.001048387               0.999999986              -0.000000000               0.001068431               0.999999986               0.000000000               0.001092926               0.999999986              -0.000000000               0.001121214               0.999999986              -0.000000000               0.001152623               0.999999986              -0.000000000               0.001186559               0.999999986              -0.000000000               0.001222457               0.999999986              -0.000000000               0.001259888               0.999999986              -0.000000000               0.001298416               0.999999986              -0.000000000               0.001337729               0.999999986               0.000000000               0.001377425               0.999999986              -0.000000000               0.001416857               0.999999986               0.000000000               0.001454813               0.999999986 </DataArray>
<DataArray type="Float64"                                    Name="stress"                                                      NumberOfComponents="10" format="ascii">
              0.001616029               0.018015514              -0.000000000              -0.001645924               0.006553753               0.004907828               0.000000000               0.000000000               0.000000000               0.000000000               0.001657269               0.014374428               0.000000000              -0.001175325               0.005183203               0.004007878               0.000000000               0.000000000               0.000000000               0.000000000               0.002219920               0.011437062               0.000000000              -0.000597161               0.004011370               0.003414208               0.000000000               0.000000000               0.000000000               0.000000000               0.002175334               0.009806210              -0.000000000              -0.000410025               0.003405379               0.002995354               0.000000000               0.000000000               0.000000000               0.000000000               0.001935575               0.008809993              -0.000000000              -0.000375407               0.003061771               0.002686363               0.000000000               0.000000000               0.000000000               0.000000000               0.001660551               0.008152894               0.000000000              -0.000396404               0.002849739               0.002453335               0.000000000               0.000000000               0.000000000               0.000000000               0.001390340               0.007684863               0.000000000              -0.000439229               0.002708005               0.002268776               0.000000000               0.000000000               0.000000000               0.000000000               0.001135815               0.007329714               0.000000000              -0.000490283               0.002606641               0.002116359               0.000000000               0.000000000               0.000000000               0.000000000               0.000904210               0.007039546               0.000000000              -0.000540863               0.002526780               0.001985917               0.000000000               0.000000000               0.000000000               0.000000000               0.000704293               0.006785449               0.000000000              -0.000584070               0.002456484               0.001872414               0.000000000               0.000000000               0.000000000               0.000000000               0.000539100               0.006557839               0.000000000              -0.000617566               0.002391780               0.001774214               0.000000000               0.000000000               0.000000000               0.000000000               0.000401111               0.006344723               0.000000000              -0.000642672               0.002329111               0.001686438               0.000000000               0.000000000               0.000000000               0.000000000               0.000283365               0.006130243               0.000000000              -0.000660017               0.002263399               0.001603383               0.000000000               0.000000000               0.000000000               0.000000000               0.000182458               0.005901161               0.000000000              -0.000669222               0.002190108               0.001520886               0.000000000               0.000000000               0.000000000               0.000000000               0.000098857               0.005645422              -0.000000000              -0.000668605               0.002104657               0.001436052               0.000000000               0.000000000               0.000000000               0.000000000               0.000038250               0.005345552              -0.000000000              -0.000653849               0.001999783               0.001345934               0.000000000               0.000000000               0.000000000               0.000000000              -0.000009560               0.005110481              -0.000000000              -0.000642394               0.001917608               0.001275214               0.000000000               0.000000000               0.000000000               0.000000000               0.001692708               0.017674518              -0.001280990              -0.001574546               0.006416295               0.004841750               0.000000000               0.000000000               0.000000000               0.000000000               0.001649410               0.014146236              -0.000705565              -0.001149748               0.005098614               0.003948866               0.000000000               0.000000000               0.000000000               0.000000000               0.002120635               0.011329887              -0.000124492              -0.000620996               0.003983590               0.003362594               0.000000000               0.000000000               0.000000000               0.000000000               0.002041348               0.009764896               0.000129480              -0.000455106               0.003406635               0.002951529               0.000000000               0.000000000               0.000000000               0.000000000               0.001794129               0.008805951               0.000239185              -0.000427944               0.003077936               0.002649991               0.000000000               0.000000000               0.000000000               0.000000000               0.001519731               0.008166678               0.000280891              -0.000450935               0.002872510               0.002421576               0.000000000               0.000000000               0.000000000               0.000000000               0.001256548               0.007707158               0.000291738              -0.000492188               0.002733090               0.002240902               0.000000000               0.000000000               0.000000000               0.000000000               0.001014758               0.007356238               0.000288343              -0.000538994               0.002631720               0.002092725               0.000000000               0.000000000               0.000000000               0.000000000               0.000798014               0.007068128               0.000275048              -0.000584259               0.002550772               0.001966513               0.000000000               0.000000000               0.000000000               0.000000000               0.000615697               0.006816699               0.000259264              -0.000621200               0.002479277               0.001858077               0.000000000               0.000000000               0.000000000               0.000000000               0.000468561               0.006588354               0.000246428              -0.000647832               0.002412040               0.001764208               0.000000000               0.000000000               0.000000000               0.000000000               0.000343675               0.006372604               0.000232453              -0.000667696               0.002346745               0.001679050               0.000000000               0.000000000               0.000000000               0.000000000               0.000235274               0.006158624               0.000212541              -0.000681599               0.002280054               0.001598455               0.000000000               0.000000000               0.000000000               0.000000000               0.000145156               0.005936637               0.000184961              -0.000687644               0.002208074               0.001520430               0.000000000               0.000000000               0.000000000               0.000000000               0.000074101               0.005695115               0.000144330              -0.000684100               0.002126386               0.001442286               0.000000000               0.000000000               0.000000000               0.000000000               0.000025969               0.005422442               0.000082191              -0.000668065               0.002030151               0.001362086               0.000000000               0.000000000               0.000000000               0.000000000              -0.000012792               0.005215564               0.000049264              -0.000656741               0.001957418               0.001300677               0.000000000               0.000000000               0.000000000               0.000000000               0.001886734               0.016692739              -0.002391541              -0.001379065               0.006023879               0.004644814               0.000000000               0.000000000               0.000000000               0.000000000               0.001609644               0.013493988              -0.001315564              -0.001083130               0.004858994               0.003775864               0.000000000               0.000000000               0.000000000               0.000000000               0.001831865               0.011028273              -0.000237890              -0.000691583               0.003906582               0.003214999               0.000000000               0.000000000               0.000000000               0.000000000               0.001662834               0.009645024               0.000220487              -0.000582064               0.003408997               0.002826933               0.000000000               0.000000000               0.000000000               0.000000000               0.001397193               0.008780411               0.000410960              -0.000573603               0.003117976               0.002544373               0.000000000               0.000000000               0.000000000               0.000000000               0.001131708               0.008188905               0.000479604              -0.000599221               0.002929348               0.002330127               0.000000000               0.000000000               0.000000000               0.000000000               0.000897442               0.007755040               0.000496337              -0.000632838               0.002795933               0.002163096               0.000000000               0.000000000               0.000000000               0.000000000               0.000697280               0.007414907               0.000489442              -0.000665382               0.002693405               0.002028023               0.000000000               0.000000000               0.000000000               0.000000000               0.000523809               0.007129356               0.000467042              -0.000694740               0.002608008               0.001913268               0.000000000               0.000000000               0.000000000               0.000000000               0.000380164               0.006879030               0.000437834              -0.000717316               0.002532092               0.001814777               0.000000000               0.000000000               0.000000000               0.000000000               0.000269264               0.006650070               0.000410936              -0.000730283               0.002460096               0.001729813               0.000000000               0.000000000               0.000000000               0.000000000               0.000181651               0.006434869               0.000383709              -0.000736238               0.002390347               0.001654110               0.000000000               0.000000000               0.000000000               0.000000000               0.000110791               0.006228572               0.000348565              -0.000737023               0.002321844               0.001584821               0.000000000               0.000000000               0.000000000               0.000000000               0.000059021               0.006026720               0.000299540              -0.000731206               0.002252622               0.001521416               0.000000000               0.000000000               0.000000000               0.000000000               0.000025577               0.005823352               0.000229539              -0.000718326               0.002180540               0.001462214               0.000000000               0.000000000               0.000000000               0.000000000               0.000006558               0.005619517               0.000129477              -0.000699979               0.002106480               0.001406501               0.000000000               0.000000000               0.000000000               0.000000000              -0.000012660               0.005482554               0.000075743              -0.000690065               0.002057521               0.001367456               0.000000000               0.000000000               0.000000000               0.000000000               0.002107023               0.015185495              -0.003208936              -0.001108053               0.005431132               0.004323079               0.000000000               0.000000000               0.000000000               0.000000000               0.001503152               0.012509686              -0.001771484              -0.001000027               0.004503196               0.003503169               0.000000000               0.000000000               0.000000000               0.000000000               0.001380407               0.010580192              -0.000351298              -0.000804870               0.003794985               0.002990116               0.000000000               0.000000000               0.000000000               0.000000000               0.001101482               0.009453981               0.000224756              -0.000768690               0.003407525               0.002638835               0.000000000               0.000000000               0.000000000               0.000000000               0.000829946               0.008713233               0.000454131              -0.000777923               0.003163690               0.002385767               0.000000000               0.000000000               0.000000000               0.000000000               0.000602065               0.008184629               0.000533155              -0.000797302               0.002993950               0.002196648               0.000000000               0.000000000               0.000000000               0.000000000               0.000422452               0.007780377               0.000549522              -0.000814126               0.002864808               0.002050683               0.000000000               0.000000000               0.000000000               0.000000000               0.000284888               0.007449177               0.000538663              -0.000824312               0.002757805               0.001933493               0.000000000               0.000000000               0.000000000               0.000000000               0.000176073               0.007163901               0.000512565              -0.000829458               0.002664429               0.001834971               0.000000000               0.000000000               0.000000000               0.000000000               0.000091827               0.006913374               0.000478825              -0.000829735               0.002581013               0.001751278               0.000000000               0.000000000               0.000000000               0.000000000               0.000030435               0.006688567               0.000444860              -0.000824656               0.002504385               0.001679729               0.000000000               0.000000000               0.000000000               0.000000000              -0.000010841               0.006482370               0.000410447              -0.000814360               0.002432222               0.001617862               0.000000000               0.000000000               0.000000000               0.000000000              -0.000030708               0.006292107               0.000366448              -0.000798027               0.002363357               0.001565330               0.000000000               0.000000000               0.000000000               0.000000000              -0.000032634               0.006113852               0.000305551              -0.000776467               0.002296753               0.001520285               0.000000000               0.000000000               0.000000000               0.000000000              -0.000021215               0.005952518               0.000225403              -0.000752019               0.002234826               0.001482807               0.000000000               0.000000000               0.000000000               0.000000000              -0.000009072               0.005820543               0.000123291              -0.000730968               0.002183818               0.001452850               0.000000000               0.000000000               0.000000000               0.000000000              -0.000009881               0.005751310               0.000069005              -0.000722617               0.002157957               0.001435339               0.000000000               0.000000000               0.000000000               0.000000000               0.002254180               0.013319518              -0.003675070              -0.000819623               0.004713002               0.003893379               0.000000000               0.000000000               0.000000000               0.000000000               0.001305833               0.011318398              -0.002061126              -0.000925111               0.004081132               0.003156020               0.000000000               0.000000000               0.000000000               0.000000000               0.000818846               0.010035460              -0.000489582              -0.000947363               0.003660908               0.002713545               0.000000000               0.000000000               0.000000000               0.000000000               0.000458917               0.009195813               0.000114218              -0.000977380               0.003391034               0.002413654               0.000000000               0.000000000               0.000000000               0.000000000               0.000213760               0.008588015               0.000347707              -0.000993340               0.003193756               0.002200417               0.000000000               0.000000000               0.000000000               0.000000000               0.000052238               0.008118532               0.000427700              -0.000995225               0.003037892               0.002042667               0.000000000               0.000000000               0.000000000               0.000000000              -0.000048834               0.007735882               0.000445910              -0.000985296               0.002907033               0.001921738               0.000000000               0.000000000               0.000000000               0.000000000              -0.000107478               0.007411769               0.000439136              -0.000966773               0.002792822               0.001826049               0.000000000               0.000000000               0.000000000               0.000000000              -0.000140460               0.007127967               0.000420019              -0.000943666               0.002690521               0.001746854               0.000000000               0.000000000               0.000000000               0.000000000              -0.000159358               0.006877924               0.000394149              -0.000919497               0.002599117               0.001679620               0.000000000               0.000000000               0.000000000               0.000000000              -0.000165565               0.006659776               0.000364433              -0.000894557               0.002518089               0.001623532               0.000000000               0.000000000               0.000000000               0.000000000              -0.000159125               0.006465157               0.000331773              -0.000867814               0.002444302               0.001576488               0.000000000               0.000000000               0.000000000               0.000000000              -0.000137732               0.006288015               0.000287167              -0.000837649               0.002375200               0.001537551               0.000000000               0.000000000               0.000000000               0.000000000              -0.000101287               0.006130436               0.000226788              -0.000804285               0.002311553               0.001507268               0.000000000               0.000000000               0.000000000               0.000000000              -0.000059159               0.006003069               0.000157967              -0.000772566               0.002258525               0.001485959               0.000000000               0.000000000               0.000000000               0.000000000              -0.000024951               0.005917172               0.000082798              -0.000749001               0.002222038               0.001473037               0.000000000               0.000000000               0.000000000               0.000000000              -0.000013051               0.005883154               0.000044303              -0.000740287               0.002207794               0.001467507               0.000000000               0.000000000               0.000000000               0.000000000               0.002247448               0.011283711              -0.003792654              -0.000567673               0.003950423               0.003382750               0.000000000               0.000000000               0.000000000               0.000000000               0.001016973               0.010043039              -0.002206085              -0.000874015               0.003638984               0.002764969               0.000000000               0.000000000               0.000000000               0.000000000               0.000219220               0.009433953              -0.000671132              -0.001097034               0.003510298               0.002413264               0.000000000               0.000000000               0.000000000               0.000000000              -0.000160855               0.008870612              -0.000103626              -0.001169144               0.003346556               0.002177412               0.000000000               0.000000000               0.000000000               0.000000000              -0.000339348               0.008383964               0.000116968              -0.001175248               0.003186376               0.002011128               0.000000000               0.000000000               0.000000000               0.000000000              -0.000412923               0.007965012               0.000201724              -0.001150470               0.003038468               0.001887998               0.000000000               0.000000000               0.000000000               0.000000000              -0.000424251               0.007603873               0.000235130              -0.001109575               0.002904457               0.001794882               0.000000000               0.000000000               0.000000000               0.000000000              -0.000400219               0.007290003               0.000246645              -0.001061330               0.002783753               0.001722423               0.000000000               0.000000000               0.000000000               0.000000000              -0.000363628               0.007011860               0.000245764              -0.001012840               0.002674877               0.001662036               0.000000000               0.000000000               0.000000000               0.000000000              -0.000325618               0.006766709               0.000239342              -0.000967943               0.002578195               0.001610252               0.000000000               0.000000000               0.000000000               0.000000000              -0.000284139               0.006555059               0.000226309              -0.000925932               0.002493642               0.001567710               0.000000000               0.000000000               0.000000000               0.000000000              -0.000235686               0.006364695               0.000204001              -0.000883967               0.002416199               0.001532232               0.000000000               0.000000000               0.000000000               0.000000000              -0.000183265               0.006192978               0.000169417              -0.000842844               0.002345254               0.001502409               0.000000000               0.000000000               0.000000000               0.000000000              -0.000126333               0.006050533               0.000124113              -0.000803689               0.002284720               0.001481031               0.000000000               0.000000000               0.000000000               0.000000000              -0.000071851               0.005944528               0.000079399              -0.000770008               0.002238159               0.001468151               0.000000000               0.000000000               0.000000000               0.000000000              -0.000030925               0.005875158               0.000039493              -0.000745990               0.002207030               0.001461040               0.000000000               0.000000000               0.000000000               0.000000000              -0.000018008               0.005844067               0.000022120              -0.000737260               0.002193756               0.001456496               0.000000000               0.000000000               0.000000000               0.000000000               0.002037511               0.009252053              -0.003612825              -0.000392443               0.003214800               0.002822357               0.000000000               0.000000000               0.000000000               0.000000000               0.000654456               0.008783075              -0.002239134              -0.000852463               0.003211816               0.002359353               0.000000000               0.000000000               0.000000000               0.000000000              -0.000345137               0.008808274              -0.000895987              -0.001230458               0.003346215               0.002115757               0.000000000               0.000000000               0.000000000               0.000000000              -0.000679844               0.008481058              -0.000396110              -0.001315071               0.003265348               0.001950277               0.000000000               0.000000000               0.000000000               0.000000000              -0.000763676               0.008096807              -0.000183288              -0.001298476               0.003131734               0.001833258               0.000000000               0.000000000               0.000000000               0.000000000              -0.000736253               0.007726626              -0.000079381              -0.001241920               0.002989489               0.001747570               0.000000000               0.000000000               0.000000000               0.000000000              -0.000660514               0.007391548              -0.000017647              -0.001171633               0.002854369               0.001682736               0.000000000               0.000000000               0.000000000               0.000000000              -0.000565236               0.007093154               0.000022818              -0.001098605               0.002730563               0.001631958               0.000000000               0.000000000               0.000000000               0.000000000              -0.000473547               0.006827087               0.000048742              -0.001030963               0.002619327               0.001588364               0.000000000               0.000000000               0.000000000               0.000000000              -0.000392218               0.006590594               0.000068258              -0.000970904               0.002520477               0.001549574               0.000000000               0.000000000               0.000000000               0.000000000              -0.000317209               0.006378223               0.000076082              -0.000916229               0.002431463               0.001515234               0.000000000               0.000000000               0.000000000               0.000000000              -0.000243017               0.006185557               0.000068000              -0.000864324               0.002349940               0.001485616               0.000000000               0.000000000               0.000000000               0.000000000              -0.000172511               0.006017326               0.000050779              -0.000816855               0.002278040               0.001461185               0.000000000               0.000000000               0.000000000               0.000000000              -0.000109341               0.005880227               0.000028664              -0.000776029               0.002218732               0.001442703               0.000000000               0.000000000               0.000000000               0.000000000              -0.000057169               0.005773552               0.000012197              -0.000743131               0.002172208               0.001429078               0.000000000               0.000000000               0.000000000               0.000000000              -0.000021080               0.005690179               0.000003656              -0.000719176               0.002136433               0.001417257               0.000000000               0.000000000               0.000000000               0.000000000              -0.000015445               0.005640370               0.000005177              -0.000710836               0.002117050               0.001406214               0.000000000               0.000000000               0.000000000               0.000000000               0.001634635               0.007357419              -0.003206213              -0.000306692               0.002554678               0.002247986               0.000000000               0.000000000               0.000000000               0.000000000               0.000241428               0.007615335              -0.002191127              -0.000861381               0.002825546               0.001964165               0.000000000               0.000000000               0.000000000               0.000000000              -0.000816807               0.008171248              -0.001154133              -0.001327706               0.003166290               0.001838585               0.000000000               0.000000000               0.000000000               0.000000000              -0.001048939               0.008035256              -0.000718974              -0.001397756               0.003144310               0.001746555               0.000000000               0.000000000               0.000000000               0.000000000              -0.001025271               0.007742385              -0.000495018              -0.001352271               0.003031526               0.001679255               0.000000000               0.000000000               0.000000000               0.000000000              -0.000907247               0.007424934              -0.000359940              -0.001268331               0.002897730               0.001629399               0.000000000               0.000000000               0.000000000               0.000000000              -0.000758539               0.007124408              -0.000262042              -0.001175000               0.002766446               0.001591446               0.000000000               0.000000000               0.000000000               0.000000000              -0.000613091               0.006848060              -0.000186370              -0.001085914               0.002644635               0.001558721               0.000000000               0.000000000               0.000000000               0.000000000              -0.000484084               0.006597076              -0.000130641              -0.001006163               0.002534391               0.001528228               0.000000000               0.000000000               0.000000000               0.000000000              -0.000379662               0.006364478              -0.000088067              -0.000937931               0.002434115               0.001496184               0.000000000               0.000000000               0.000000000               0.000000000              -0.000290125               0.006146901              -0.000060042              -0.000877157               0.002341332               0.001464175               0.000000000               0.000000000               0.000000000               0.000000000              -0.000204612               0.005953811              -0.000047337              -0.000820954               0.002258235               0.001437281               0.000000000               0.000000000               0.000000000               0.000000000              -0.000132490               0.005787031              -0.000040606              -0.000773061               0.002186678               0.001413617               0.000000000               0.000000000               0.000000000               0.000000000              -0.000079083               0.005646710              -0.000035535              -0.000735493               0.002127382               0.001391889               0.000000000               0.000000000               0.000000000               0.000000000              -0.000043470               0.005531418              -0.000027132              -0.000707727               0.002079696               0.001371970               0.000000000               0.000000000               0.000000000               0.000000000              -0.000021486               0.005431611              -0.000013153              -0.000687007               0.002039521               0.001352514               0.000000000               0.000000000               0.000000000               0.000000000              -0.000021917               0.005366166               0.000001505              -0.000678988               0.002015033               0.001336045               0.000000000               0.000000000               0.000000000               0.000000000               0.001116210               0.005736770              -0.002661859              -0.000298520               0.002011743               0.001713223               0.000000000               0.000000000               0.000000000               0.000000000              -0.000150423               0.006571386              -0.002108610              -0.000877831               0.002483050               0.001605219               0.000000000               0.000000000               0.000000000               0.000000000              -0.001153396               0.007554424              -0.001448669              -0.001376823               0.002977057               0.001600234               0.000000000               0.000000000               0.000000000               0.000000000              -0.001273744               0.007612460              -0.001057774              -0.001429208               0.003013864               0.001584656               0.000000000               0.000000000               0.000000000               0.000000000              -0.001160873               0.007426010              -0.000808849              -0.001363575               0.002929837               0.001566262               0.000000000               0.000000000               0.000000000               0.000000000              -0.000976132               0.007176490              -0.000633433              -0.001263108               0.002813175               0.001550068               0.000000000               0.000000000               0.000000000               0.000000000              -0.000779037               0.006922816              -0.000496565              -0.001157488               0.002693412               0.001535924               0.000000000               0.000000000               0.000000000               0.000000000              -0.000604848               0.006675271              -0.000387138              -0.001061224               0.002578810               0.001517585               0.000000000               0.000000000               0.000000000               0.000000000              -0.000458300               0.006436441              -0.000304560              -0.000976415               0.002470931               0.001494515               0.000000000               0.000000000               0.000000000               0.000000000              -0.000338631               0.006207384              -0.000240899              -0.000902907               0.002370076               0.001467169               0.000000000               0.000000000               0.000000000               0.000000000              -0.000241765               0.005991527              -0.000189852              -0.000839601               0.002277023               0.001437422               0.000000000               0.000000000               0.000000000               0.000000000              -0.000156804               0.005796413              -0.000148193              -0.000783351               0.002193235               0.001409884               0.000000000               0.000000000               0.000000000               0.000000000              -0.000094140               0.005624224              -0.000111690              -0.000738328               0.002120832               0.001382504               0.000000000               0.000000000               0.000000000               0.000000000              -0.000060345               0.005478262              -0.000078800              -0.000707410               0.002061873               0.001354462               0.000000000               0.000000000               0.000000000               0.000000000              -0.000042391               0.005357953              -0.000046879              -0.000685639               0.002014513               0.001328874               0.000000000               0.000000000               0.000000000               0.000000000              -0.000045646               0.005239603              -0.000018567              -0.000672066               0.001970539               0.001298473               0.000000000               0.000000000               0.000000000               0.000000000              -0.000058672               0.005163862              -0.000002147              -0.000667483               0.001943764               0.001276281               0.000000000               0.000000000               0.000000000               0.000000000               0.000471906               0.004207302              -0.002063311              -0.000348949               0.001518735               0.001169786               0.000000000               0.000000000               0.000000000               0.000000000              -0.000450253               0.005364332              -0.002005236              -0.000839386               0.002067887               0.001228501               0.000000000               0.000000000               0.000000000               0.000000000              -0.001296575               0.006650827              -0.001767077              -0.001317566               0.002656109               0.001338542               0.000000000               0.000000000               0.000000000               0.000000000              -0.001365330               0.006978181              -0.001434528              -0.001384268               0.002787459               0.001403191               0.000000000               0.000000000               0.000000000               0.000000000              -0.001223849               0.006980487              -0.001162437              -0.001331501               0.002770639               0.001439138               0.000000000               0.000000000               0.000000000               0.000000000              -0.001026848               0.006862205              -0.000945459              -0.001242841               0.002701659               0.001458818               0.000000000               0.000000000               0.000000000               0.000000000              -0.000824048               0.006697620              -0.000768595              -0.001146218               0.002614590               0.001468372               0.000000000               0.000000000               0.000000000               0.000000000              -0.000637693               0.006512337              -0.000627421              -0.001053175               0.002521816               0.001468641               0.000000000               0.000000000               0.000000000               0.000000000              -0.000481770               0.006315581              -0.000516046              -0.000970109               0.002428542               0.001458433               0.000000000               0.000000000               0.000000000               0.000000000              -0.000352298               0.006122689              -0.000423494              -0.000897445               0.002340024               0.001442579               0.000000000               0.000000000               0.000000000               0.000000000              -0.000250947               0.005936850              -0.000342523              -0.000836209               0.002257667               0.001421457               0.000000000               0.000000000               0.000000000               0.000000000              -0.000174499               0.005755659              -0.000268694              -0.000784893               0.002180165               0.001395272               0.000000000               0.000000000               0.000000000               0.000000000              -0.000119575               0.005587382              -0.000198204              -0.000743262               0.002110196               0.001366934               0.000000000               0.000000000               0.000000000               0.000000000              -0.000093569               0.005436657              -0.000135041              -0.000714669               0.002050424               0.001335755               0.000000000               0.000000000               0.000000000               0.000000000              -0.000092910               0.005301437              -0.000079994              -0.000697519               0.001999634               0.001302115               0.000000000               0.000000000               0.000000000               0.000000000              -0.000115434               0.005157071              -0.000033112              -0.000687920               0.001948313               0.001260393               0.000000000               0.000000000               0.000000000               0.000000000              -0.000136885               0.005072457              -0.000010116              -0.000685387               0.001919265               0.001233877               0.000000000               0.000000000               0.000000000               0.000000000              -0.000394977               0.002804692              -0.001441125              -0.000498703               0.001101122               0.000602419               0.000000000               0.000000000               0.000000000               0.000000000              -0.000785203               0.004149181              -0.001834086              -0.000813098               0.001654078               0.000840981               0.000000000               0.000000000               0.000000000               0.000000000              -0.001341813               0.005612378              -0.002011414              -0.001204725               0.002272348               0.001067623               0.000000000               0.000000000               0.000000000               0.000000000              -0.001368726               0.006198400              -0.001790094              -0.001288070               0.002495469               0.001207399               0.000000000               0.000000000               0.000000000               0.000000000              -0.001226624               0.006417661              -0.001522521              -0.001262189               0.002559928               0.001297739               0.000000000               0.000000000               0.000000000               0.000000000              -0.001037387               0.006460940              -0.001279795              -0.001196635               0.002552503               0.001355868               0.000000000               0.000000000               0.000000000               0.000000000              -0.000838722               0.006409931              -0.001077427              -0.001115760               0.002508542               0.001392782               0.000000000               0.000000000               0.000000000               0.000000000              -0.000648107               0.006305686              -0.000910772              -0.001031248               0.002445624               0.001414375               0.000000000               0.000000000               0.000000000               0.000000000              -0.000485027               0.006172858              -0.000771061              -0.000953490               0.002375429               0.001421939               0.000000000               0.000000000               0.000000000               0.000000000              -0.000349475               0.006032829              -0.000649216              -0.000885155               0.002305974               0.001420820               0.000000000               0.000000000               0.000000000               0.000000000              -0.000239818               0.005887668              -0.000538961              -0.000825888               0.002237832               0.001411944               0.000000000               0.000000000               0.000000000               0.000000000              -0.000158604               0.005739281              -0.000436248              -0.000776885               0.002172036               0.001395151               0.000000000               0.000000000               0.000000000               0.000000000              -0.000103141               0.005590115              -0.000334733              -0.000737441               0.002109167               0.001371726               0.000000000               0.000000000               0.000000000               0.000000000              -0.000074580               0.005444626              -0.000237713              -0.000708544               0.002051038               0.001342494               0.000000000               0.000000000               0.000000000               0.000000000              -0.000079610               0.005308050              -0.000151069              -0.000693358               0.002000452               0.001307093               0.000000000               0.000000000               0.000000000               0.000000000              -0.000123745               0.005158350              -0.000073390              -0.000691196               0.001949831               0.001258635               0.000000000               0.000000000               0.000000000               0.000000000              -0.000164776               0.005069832              -0.000032447              -0.000695518               0.001921766               0.001226248               0.000000000               0.000000000               0.000000000               0.000000000              -0.001419369               0.001630839              -0.000838698              -0.000736117               0.000788979               0.000052862               0.000000000               0.000000000               0.000000000               0.000000000              -0.001205494               0.002996715              -0.001569143              -0.000826649               0.001274444               0.000447795               0.000000000               0.000000000               0.000000000               0.000000000              -0.001340767               0.004456885              -0.002085985              -0.001059897               0.001838912               0.000779015               0.000000000               0.000000000               0.000000000               0.000000000              -0.001265762               0.005227041              -0.002007248              -0.001128039               0.002118342               0.000990303               0.000000000               0.000000000               0.000000000               0.000000000              -0.001116082               0.005643543              -0.001785571              -0.001123972               0.002255819               0.001131847               0.000000000               0.000000000               0.000000000               0.000000000              -0.000937334               0.005856787              -0.001550472              -0.001083597               0.002313441               0.001229845               0.000000000               0.000000000               0.000000000               0.000000000              -0.000750592               0.005939678              -0.001344204              -0.001023930               0.002321182               0.001297253               0.000000000               0.000000000               0.000000000               0.000000000              -0.000571274               0.005940452              -0.001164463              -0.000956782               0.002299058               0.001342276               0.000000000               0.000000000               0.000000000               0.000000000              -0.000411873               0.005892087              -0.001007439              -0.000890961               0.002260996               0.001370035               0.000000000               0.000000000               0.000000000               0.000000000              -0.000275552               0.005820096              -0.000868219              -0.000830842               0.002216960               0.001386118               0.000000000               0.000000000               0.000000000               0.000000000              -0.000158381               0.005738754              -0.000739368              -0.000776735               0.002171811               0.001395075               0.000000000               0.000000000               0.000000000               0.000000000              -0.000065886               0.005642993              -0.000616148              -0.000730080               0.002124339               0.001394259               0.000000000               0.000000000               0.000000000               0.000000000              -0.000001202               0.005529073              -0.000493822              -0.000691583               0.002073534               0.001381950               0.000000000               0.000000000               0.000000000               0.000000000               0.000037738               0.005407752              -0.000369445              -0.000661816               0.002023171               0.001361355               0.000000000               0.000000000               0.000000000               0.000000000               0.000037774               0.005287222              -0.000241670              -0.000646736               0.001977968               0.001331232               0.000000000               0.000000000               0.000000000               0.000000000              -0.000017829               0.005148236              -0.000117424              -0.000650214               0.001932799               0.001282586               0.000000000               0.000000000               0.000000000               0.000000000              -0.000076043               0.005059946              -0.000052392              -0.000661008               0.001906968               0.001245960               0.000000000               0.000000000               0.000000000               0.000000000              -0.002528725               0.000751825              -0.000335112              -0.001042249               0.000598020              -0.000444228               0.000000000               0.000000000               0.000000000               0.000000000              -0.001686947               0.001980355              -0.001242395              -0.000880148               0.000953493               0.000073345               0.000000000               0.000000000               0.000000000               0.000000000              -0.001322705               0.003284670              -0.001972390              -0.000906597               0.001397077               0.000490480               0.000000000               0.000000000               0.000000000               0.000000000              -0.001084241               0.004147884              -0.002028629              -0.000925075               0.001690972               0.000765897               0.000000000               0.000000000               0.000000000               0.000000000              -0.000896441               0.004717895              -0.001879519              -0.000925901               0.001881249               0.000955348               0.000000000               0.000000000               0.000000000               0.000000000              -0.000723806               0.005084000              -0.001682156              -0.000906926               0.001996958               0.001090032               0.000000000               0.000000000               0.000000000               0.000000000              -0.000562511               0.005305080              -0.001492171              -0.000874075               0.002059700               0.001185625               0.000000000               0.000000000               0.000000000               0.000000000              -0.000405944               0.005427580              -0.001318063              -0.000830675               0.002086067               0.001255391               0.000000000               0.000000000               0.000000000               0.000000000              -0.000258249               0.005482241              -0.001161463              -0.000782122               0.002088103               0.001305980               0.000000000               0.000000000               0.000000000               0.000000000              -0.000127733               0.005497670              -0.001021001              -0.000735107               0.002077574               0.001342467               0.000000000               0.000000000               0.000000000               0.000000000              -0.000010569               0.005494346              -0.000890860              -0.000690755               0.002061682               0.001370927               0.000000000               0.000000000               0.000000000               0.000000000               0.000094741               0.005464351              -0.000764973              -0.000647514               0.002037270               0.001389756               0.000000000               0.000000000               0.000000000               0.000000000               0.000181122               0.005405183              -0.000638366              -0.000607726               0.002004285               0.001396559               0.000000000               0.000000000               0.000000000               0.000000000               0.000241735               0.005326366              -0.000499389              -0.000575144               0.001967152               0.001392008               0.000000000               0.000000000               0.000000000               0.000000000               0.000267249               0.005238219              -0.000340593              -0.000554558               0.001930908               0.001376350               0.000000000               0.000000000               0.000000000               0.000000000               0.000236081               0.005127013              -0.000171715              -0.000552345               0.001893102               0.001340757               0.000000000               0.000000000               0.000000000               0.000000000               0.000185466               0.005051042              -0.000081465              -0.000561829               0.001870940               0.001309111               0.000000000               0.000000000               0.000000000               0.000000000              -0.003618216               0.000155898               0.000001993              -0.001376317               0.000510735              -0.000865582               0.000000000               0.000000000               0.000000000               0.000000000              -0.002187871               0.001151874              -0.000898777              -0.000964434               0.000705431              -0.000259004               0.000000000               0.000000000               0.000000000               0.000000000              -0.001307488               0.002209291              -0.001672713              -0.000766469               0.000991912               0.000225443               0.000000000               0.000000000               0.000000000               0.000000000              -0.000871187               0.003082765              -0.001817965              -0.000712040               0.001264924               0.000552884               0.000000000               0.000000000               0.000000000               0.000000000              -0.000615601               0.003745308              -0.001744991              -0.000699013               0.001481427               0.000782414               0.000000000               0.000000000               0.000000000               0.000000000              -0.000435679               0.004233612              -0.001601002              -0.000692580               0.001642050               0.000949469               0.000000000               0.000000000               0.000000000               0.000000000              -0.000294902               0.004582760              -0.001446609              -0.000683432               0.001755382               0.001071949               0.000000000               0.000000000               0.000000000               0.000000000              -0.000168799               0.004823257              -0.001300281              -0.000666206               0.001829804               0.001163599               0.000000000               0.000000000               0.000000000               0.000000000              -0.000043717               0.004989152              -0.001161968              -0.000640037               0.001876380               0.001236343               0.000000000               0.000000000               0.000000000               0.000000000               0.000076735               0.005102703              -0.001034679              -0.000609061               0.001903904               0.001294843               0.000000000               0.000000000               0.000000000               0.000000000               0.000191856               0.005177168              -0.000921882              -0.000575199               0.001917438               0.001342239               0.000000000               0.000000000               0.000000000               0.000000000               0.000306642               0.005218262              -0.000815227              -0.000537291               0.001918500               0.001381209               0.000000000               0.000000000               0.000000000               0.000000000               0.000418476               0.005230169              -0.000701426              -0.000496841               0.001908986               0.001412144               0.000000000               0.000000000               0.000000000               0.000000000               0.000517752               0.005215264              -0.000569270              -0.000457750               0.001890987               0.001433237               0.000000000               0.000000000               0.000000000               0.000000000               0.000599113               0.005178254              -0.000407760              -0.000422613               0.001866939               0.001444325               0.000000000               0.000000000               0.000000000               0.000000000               0.000641212               0.005104102              -0.000215852              -0.000397557               0.001833869               0.001436312               0.000000000               0.000000000               0.000000000               0.000000000               0.000645213               0.005050175              -0.000111528              -0.000389316               0.001813147               0.001423831               0.000000000               0.000000000               0.000000000               0.000000000              -0.004548417              -0.000204544               0.000146503              -0.001680087               0.000491844              -0.001188243               0.000000000               0.000000000               0.000000000               0.000000000              -0.002638629               0.000544403              -0.000572506              -0.001057535               0.000533975              -0.000523560               0.000000000               0.000000000               0.000000000               0.000000000              -0.001307448               0.001340609              -0.001214624              -0.000657868               0.000666154               0.000008285               0.000000000               0.000000000               0.000000000               0.000000000              -0.000675485               0.002170561              -0.001375973              -0.000524627               0.000898388               0.000373761               0.000000000               0.000000000               0.000000000               0.000000000              -0.000340377               0.002877556              -0.001356886              -0.000487336               0.001121620               0.000634285               0.000000000               0.000000000               0.000000000               0.000000000              -0.000142561               0.003448158              -0.001269860              -0.000484480               0.001310867               0.000826387               0.000000000               0.000000000               0.000000000               0.000000000              -0.000009201               0.003894459              -0.001164362              -0.000490257               0.001461559               0.000971302               0.000000000               0.000000000               0.000000000               0.000000000               0.000093907               0.004234365              -0.001059366              -0.000494080               0.001576134               0.001082054               0.000000000               0.000000000               0.000000000               0.000000000               0.000192689               0.004496972              -0.000956778              -0.000489863               0.001662263               0.001172401               0.000000000               0.000000000               0.000000000               0.000000000               0.000299150               0.004695937              -0.000860578              -0.000474810               0.001723567               0.001248757               0.000000000               0.000000000               0.000000000               0.000000000               0.000414382               0.004846256              -0.000777032              -0.000450388               0.001765532               0.001315144               0.000000000               0.000000000               0.000000000               0.000000000               0.000535829               0.004961593              -0.000700850              -0.000419262               0.001793602               0.001374339               0.000000000               0.000000000               0.000000000               0.000000000               0.000669149               0.005044412              -0.000617283              -0.000379620               0.001807994               0.001428374               0.000000000               0.000000000               0.000000000               0.000000000               0.000814447               0.005096499              -0.000514772              -0.000331644               0.001809364               0.001477720               0.000000000               0.000000000               0.000000000               0.000000000               0.000971597               0.005116385              -0.000382451              -0.000275199               0.001797177               0.001521979               0.000000000               0.000000000               0.000000000               0.000000000               0.001129419               0.005079458              -0.000210364              -0.000211400               0.001763602               0.001552203               0.000000000               0.000000000               0.000000000               0.000000000               0.001238609               0.005053005              -0.000116451              -0.000167147               0.001740034               0.001572887               0.000000000               0.000000000               0.000000000               0.000000000              -0.005177508              -0.000385882               0.000122354              -0.001893329               0.000502479              -0.001390850               0.000000000               0.000000000               0.000000000               0.000000000              -0.002954507               0.000176955              -0.000275356              -0.001130058               0.000435668              -0.000694390               0.000000000               0.000000000               0.000000000               0.000000000              -0.001311061               0.000774255              -0.000638706              -0.000588429               0.000454224              -0.000134205               0.000000000               0.000000000               0.000000000               0.000000000              -0.000534588               0.001551469              -0.000743318              -0.000394404               0.000648619               0.000254215               0.000000000               0.000000000               0.000000000               0.000000000              -0.000139277               0.002275229              -0.000745518              -0.000336632               0.000870613               0.000533980               0.000000000               0.000000000               0.000000000               0.000000000               0.000077370               0.002890053              -0.000706498              -0.000332242               0.001074089               0.000741846               0.000000000               0.000000000               0.000000000               0.000000000               0.000209797               0.003392109              -0.000654538              -0.000345339               0.001245805               0.000900465               0.000000000               0.000000000               0.000000000               0.000000000               0.000303111               0.003795825              -0.000600639              -0.000360811               0.001385533               0.001024722               0.000000000               0.000000000               0.000000000               0.000000000               0.000387369               0.004121348              -0.000546818              -0.000369905               0.001497070               0.001127166               0.000000000               0.000000000               0.000000000               0.000000000               0.000480525               0.004382380              -0.000496438              -0.000367600               0.001583312               0.001215712               0.000000000               0.000000000               0.000000000               0.000000000               0.000590721               0.004593193              -0.000450926              -0.000352628               0.001648591               0.001295964               0.000000000               0.000000000               0.000000000               0.000000000               0.000717526               0.004763102              -0.000410239              -0.000326315               0.001696457               0.001370142               0.000000000               0.000000000               0.000000000               0.000000000               0.000867484               0.004898914              -0.000366165              -0.000287057               0.001728641               0.001441584               0.000000000               0.000000000               0.000000000               0.000000000               0.001051588               0.005004858              -0.000309995              -0.000231261               0.001745357               0.001514095               0.000000000               0.000000000               0.000000000               0.000000000               0.001279474               0.005073189              -0.000235547              -0.000154346               0.001742495               0.001588149               0.000000000               0.000000000               0.000000000               0.000000000               0.001552222               0.005066465              -0.000133118              -0.000051225               0.001705880               0.001654655               0.000000000               0.000000000               0.000000000               0.000000000               0.001772438               0.005063138              -0.000077985               0.000031771               0.001677105               0.001708877               0.000000000               0.000000000               0.000000000               0.000000000              -0.005399910              -0.000440079               0.000000000              -0.001969955               0.000509955              -0.001460000               0.000000000               0.000000000               0.000000000               0.000000000              -0.003067758               0.000053202               0.000000000              -0.001157058               0.000403417              -0.000753641               0.000000000               0.000000000               0.000000000               0.000000000              -0.001311047               0.000576490               0.000000000              -0.000563703               0.000380062              -0.000183641               0.000000000               0.000000000               0.000000000               0.000000000              -0.000481171               0.001333016               0.000000000              -0.000347065               0.000560023               0.000212957               0.000000000               0.000000000               0.000000000               0.000000000              -0.000065186               0.002060562               0.000000000              -0.000282014               0.000780852               0.000498837               0.000000000               0.000000000               0.000000000               0.000000000               0.000159394               0.002687527               0.000000000              -0.000276167               0.000987889               0.000711722               0.000000000               0.000000000               0.000000000               0.000000000               0.000293785               0.003207815               0.000000000              -0.000290807               0.001166197               0.000875390               0.000000000               0.000000000               0.000000000               0.000000000               0.000385051               0.003633864               0.000000000              -0.000309838               0.001314555               0.001004717               0.000000000               0.000000000               0.000000000               0.000000000               0.000465216               0.003981900              -0.000000000              -0.000323281               0.001435047               0.001111766               0.000000000               0.000000000               0.000000000               0.000000000               0.000552292               0.004264805               0.000000000              -0.000325990               0.001530251               0.001204260               0.000000000               0.000000000               0.000000000               0.000000000               0.000656930               0.004495970               0.000000000              -0.000315647               0.001603857               0.001288211               0.000000000               0.000000000               0.000000000               0.000000000               0.000786420               0.004685509               0.000000000              -0.000290780               0.001658747               0.001367967               0.000000000               0.000000000               0.000000000               0.000000000               0.000943016               0.004840823              -0.000000000              -0.000251471               0.001697415               0.001445944               0.000000000               0.000000000               0.000000000               0.000000000               0.001143743               0.004968712               0.000000000              -0.000192185               0.001720282               0.001528098               0.000000000               0.000000000               0.000000000               0.000000000               0.001401002               0.005056590               0.000000000              -0.000106698               0.001721079               0.001614381               0.000000000               0.000000000               0.000000000               0.000000000               0.001722979               0.005062371              -0.000000000               0.000013320               0.001683000               0.001696321               0.000000000               0.000000000               0.000000000               0.000000000               0.001991430               0.005069263               0.000000000               0.000113127               0.001652029               0.001765156               0.000000000               0.000000000               0.000000000               0.000000000               0.000000000               0.000000000               0.000000000               0.000000000               0.000000000               0.000000000               0.000000000               0.000000000               0.000000000               0.000000000               0.000000000               0.000000000               0.000000000               0.000000000               0.000000000               0.000000000               0.000000000               0.000000000               0.000000000               0.000000000               0.000000000               0.000000000               0.000000000               0.000000000               0.000000000               0.000000000               0.000000000               0.000000000               0.000000000               0.000000000               0.000000000               0.000000000               0.000000000               0.000000000               0.000000000               0.000000000               0.000000000               0.000000000               0.000000000               0.000000000               0.000000000               0.000000000               0.000000000               0.000000000               0.000000000               0.000000000               0.000000000               0.000000000               0.000000000               0.000000000               0.000000000               0.000000000               0.000000000               0.000000000               0.000000000               0.000000000               0.000000000               0.000000000               0.000000000               0.000000000               0.000000000               0.000000000               0.000000000               0.000000000               0.000000000               0.000000000               0.000000000               0.000000000               0.000000000               0.000000000               0.000000000               0.000000000               0.000000000               0.000000000               0.000000000               0.000000000               0.000000000               0.000000000               0.000000000               0.000000000               0.000000000               0.000000000               0.000000000               0.000000000               0.000000000               0.000000000               0.000000000               0.000000000               0.000000000               0.000000000               0.000000000               0.000000000               0.000000000               0.000000000               0.000000000               0.000000000               0.000000000               0.000000000               0.000000000               0.000000000               0.000000000               0.000000000               0.000000000               0.000000000               0.000000000               0.000000000               0.000000000               0.000000000               0.000000000               0.000000000               0.000000000               0.000000000               0.000000000               0.000000000               0.000000000               0.000000000               0.000000000               0.000000000               0.000000000               0.000000000               0.000000000               0.000000000               0.000000000               0.000000000               0.000000000               0.000000000               0.000000000               0.000000000               0.000000000               0.000000000               0.000000000               0.000000000               0.000000000               0.000000000               0.000000000               0.000000000               0.000000000               0.000000000               0.000000000               0.000000000               0.000000000               0.000000000               0.000000000               0.000000000               0.000000000               0.000000000               0.000000000               0.000000000               0.000000000               0.000000000               0.000000000               0.000000000               0.000000000               0.000000000               0.000000000               0.000000000               0.000000000               0.000000000               0.000000000               0.000000000               0.000000000               0.000000000               0.000000000               0.000000000               0.000000000               0.000000000               0.000000000               0.000000000               0.000000000               0.000000000               0.001692708               0.017674518               0.001280990              -0.001574546               0.006416295               0.004841750               0.000000000               0.000000000               0.000000000               0.000000000               0.001649410               0.014146236               0.000705565              -0.001149748               0.005098614               0.003948866               0.000000000               0.000000000               0.000000000               0.000000000               0.002120635               0.011329887               0.000124492              -0.000620996               0.003983590               0.003362594               0.000000000               0.000000000               0.000000000               0.000000000               0.002041348               0.009764896              -0.000129480              -0.000455106               0.003406635               0.002951529               0.000000000               0.000000000               0.000000000               0.000000000               0.001794129               0.008805951              -0.000239185              -0.000427944               0.003077936               0.002649991               0.000000000               0.000000000               0.000000000               0.000000000               0.001519731               0.008166678              -0.000280891              -0.000450935               0.002872510               0.002421576               0.000000000               0.000000000               0.000000000               0.000000000               0.001256548               0.007707158              -0.000291738              -0.000492188               0.002733090               0.002240902               0.000000000               0.000000000               0.000000000               0.000000000               0.001014758               0.007356238              -0.000288343              -0.000538994               0.002631720               0.002092725               0.000000000               0.000000000               0.000000000               0.000000000               0.000798014               0.007068128              -0.000275048              -0.000584259               0.002550772               0.001966513               0.000000000               0.000000000               0.000000000               0.000000000               0.000615697               0.006816699              -0.000259264              -0.000621200               0.002479277               0.001858077               0.000000000               0.000000000               0.000000000               0.000000000               0.000468561               0.006588354              -0.000246428              -0.000647832               0.002412040               0.001764208               0.000000000               0.000000000               0.000000000               0.000000000               0.000343675               0.006372604              -0.000232453              -0.000667696               0.002346745               0.001679050               0.000000000               0.000000000               0.000000000               0.000000000               0.000235274               0.006158624              -0.000212541              -0.000681599               0.002280054               0.001598455               0.000000000               0.000000000               0.000000000               0.000000000               0.000145156               0.005936637              -0.000184961              -0.000687644               0.002208074               0.001520430               0.000000000               0.000000000               0.000000000               0.000000000               0.000074101               0.005695115              -0.000144330              -0.000684100               0.002126386               0.001442286               0.000000000               0.000000000               0.000000000               0.000000000               0.000025969               0.005422442              -0.000082191              -0.000668065               0.002030151               0.001362086               0.000000000               0.000000000               0.000000000               0.000000000              -0.000012792               0.005215564              -0.000049264              -0.000656741               0.001957418               0.001300677               0.000000000               0.000000000               0.000000000               0.000000000               0.001886734               0.016692739               0.002391541              -0.001379065               0.006023879               0.004644814               0.000000000               0.000000000               0.000000000               0.000000000               0.001609644               0.013493988               0.001315564              -0.001083130               0.004858994               0.003775864               0.000000000               0.000000000               0.000000000               0.000000000               0.001831865               0.011028273               0.000237890              -0.000691583               0.003906582               0.003214999               0.000000000               0.000000000               0.000000000               0.000000000               0.001662834               0.009645024              -0.000220487              -0.000582064               0.003408997               0.002826933               0.000000000               0.000000000               0.000000000               0.000000000               0.001397193               0.008780411              -0.000410960              -0.000573603               0.003117976               0.002544373               0.000000000               0.000000000               0.000000000               0.000000000               0.001131708               0.008188905              -0.000479604              -0.000599221               0.002929348               0.002330127               0.000000000               0.000000000               0.000000000               0.000000000               0.000897442               0.007755040              -0.000496337              -0.000632838               0.002795933               0.002163096               0.000000000               0.000000000               0.000000000               0.000000000               0.000697280               0.007414907              -0.000489442              -0.000665382               0.002693405               0.002028023               0.000000000               0.000000000               0.000000000               0.000000000               0.000523809               0.007129356              -0.000467042              -0.000694740               0.002608008               0.001913268               0.000000000               0.000000000               0.000000000               0.000000000               0.000380164               0.006879030              -0.000437834              -0.000717316               0.002532092               0.001814777               0.000000000               0.000000000               0.000000000               0.000000000               0.000269264               0.006650070              -0.000410936              -0.000730283               0.002460096               0.001729813               0.000000000               0.000000000               0.000000000               0.000000000               0.000181651               0.006434869              -0.000383709              -0.000736238               0.002390347               0.001654110               0.000000000               0.000000000               0.000000000               0.000000000               0.000110791               0.006228572              -0.000348565              -0.000737023               0.002321844               0.001584821               0.000000000               0.000000000               0.000000000               0.000000000               0.000059021               0.006026720              -0.000299540              -0.000731206               0.002252622               0.001521416               0.000000000               0.000000000               0.000000000               0.000000000               0.000025577               0.005823352              -0.000229539              -0.000718326               0.002180540               0.001462214               0.000000000               0.000000000               0.000000000               0.000000000               0.000006558               0.005619517              -0.000129477              -0.000699979               0.002106480               0.001406501               0.000000000               0.000000000               0.000000000               0.000000000              -0.000012660               0.005482554              -0.000075743              -0.000690065               0.002057521               0.001367456               0.000000000               0.000000000               0.000000000               0.000000000               0.002107023               0.015185495               0.003208936              -0.001108053               0.005431132               0.004323079               0.000000000               0.000000000               0.000000000               0.000000000               0.001503152               0.012509686               0.001771484              -0.001000027               0.004503196               0.003503169               0.000000000               0.000000000               0.000000000               0.000000000               0.001380407               0.010580192               0.000351298              -0.000804870               0.003794985               0.002990116               0.000000000               0.000000000               0.000000000               0.000000000               0.001101482               0.009453981              -0.000224756              -0.000768690               0.003407525               0.002638835               0.000000000               0.000000000               0.000000000               0.000000000               0.000829946               0.008713233              -0.000454131              -0.000777923               0.003163690               0.002385767               0.000000000               0.000000000               0.000000000               0.000000000               0.000602065               0.008184629              -0.000533155              -0.000797302               0.002993950               0.002196648               0.000000000               0.000000000               0.000000000               0.000000000               0.000422452               0.007780377              -0.000549522              -0.000814126               0.002864808               0.002050683               0.000000000               0.000000000               0.000000000               0.000000000               0.000284888               0.007449177              -0.000538663              -0.000824312               0.002757805               0.001933493               0.000000000               0.000000000               0.000000000               0.000000000               0.000176073               0.007163901              -0.000512565              -0.000829458               0.002664429               0.001834971               0.000000000               0.000000000               0.000000000               0.000000000               0.000091827               0.006913374              -0.000478825              -0.000829735               0.002581013               0.001751278               0.000000000               0.000000000               0.000000000               0.000000000               0.000030435               0.006688567              -0.000444860              -0.000824656               0.002504385               0.001679729               0.000000000               0.000000000               0.000000000               0.000000000              -0.000010841               0.006482370              -0.000410447              -0.000814360               0.002432222               0.001617862               0.000000000               0.000000000               0.000000000               0.000000000              -0.000030708               0.006292107              -0.000366448              -0.000798027               0.002363357               0.001565330               0.000000000               0.000000000               0.000000000               0.000000000              -0.000032634               0.006113852              -0.000305551              -0.000776467               0.002296753               0.001520285               0.000000000               0.000000000               0.000000000               0.000000000              -0.000021215               0.005952518              -0.000225403              -0.000752019               0.002234826               0.001482807               0.000000000               0.000000000               0.000000000               0.000000000              -0.000009072               0.005820543              -0.000123291              -0.000730968               0.002183818               0.001452850               0.000000000               0.000000000               0.000000000               0.000000000              -0.000009881               0.005751310              -0.000069005              -0.000722617               0.002157957               0.001435339               0.000000000               0.000000000               0.000000000               0.000000000               0.002254180               0.013319518               0.003675070              -0.000819623               0.004713002               0.003893379               0.000000000               0.000000000               0.000000000               0.000000000               0.001305833               0.011318398               0.002061126              -0.000925111               0.004081132               0.003156020               0.000000000               0.000000000               0.000000000               0.000000000               0.000818846               0.010035460               0.000489582              -0.000947363               0.003660908               0.002713545               0.000000000               0.000000000               0.000000000               0.000000000               0.000458917               0.009195813              -0.000114218              -0.000977380               0.003391034               0.002413654               0.000000000               0.000000000               0.000000000               0.000000000               0.000213760               0.008588015              -0.000347707              -0.000993340               0.003193756               0.002200417               0.000000000               0.000000000               0.000000000               0.000000000               0.000052238               0.008118532              -0.000427700              -0.000995225               0.003037892               0.002042667               0.000000000               0.000000000               0.000000000               0.000000000              -0.000048834               0.007735882              -0.000445910              -0.000985296               0.002907033               0.001921738               0.000000000               0.000000000               0.000000000               0.000000000              -0.000107478               0.007411769              -0.000439136              -0.000966773               0.002792822               0.001826049               0.000000000               0.000000000               0.000000000               0.000000000              -0.000140460               0.007127967              -0.000420019              -0.000943666               0.002690521               0.001746854               0.000000000               0.000000000               0.000000000               0.000000000              -0.000159358               0.006877924              -0.000394149              -0.000919497               0.002599117               0.001679620               0.000000000               0.000000000               0.000000000               0.000000000              -0.000165565               0.006659776              -0.000364433              -0.000894557               0.002518089               0.001623532               0.000000000               0.000000000               0.000000000               0.000000000              -0.000159125               0.006465157              -0.000331773              -0.000867814               0.002444302               0.001576488               0.000000000               0.000000000               0.000000000               0.000000000              -0.000137732               0.006288015              -0.000287167              -0.000837649               0.002375200               0.001537551               0.000000000               0.000000000               0.000000000               0.000000000              -0.000101287               0.006130436              -0.000226788              -0.000804285               0.002311553               0.001507268               0.000000000               0.000000000               0.000000000               0.000000000              -0.000059159               0.006003069              -0.000157967              -0.000772566               0.002258525               0.001485959               0.000000000               0.000000000               0.000000000               0.000000000              -0.000024951               0.005917172              -0.000082798              -0.000749001               0.002222038               0.001473037               0.000000000               0.000000000               0.000000000               0.000000000              -0.000013051               0.005883154              -0.000044303              -0.000740287               0.002207794               0.001467507               0.000000000               0.000000000               0.000000000               0.000000000               0.002247448               0.011283711               0.003792654              -0.000567673               0.003950423               0.003382750               0.000000000               0.000000000               0.000000000               0.000000000               0.001016973               0.010043039               0.002206085              -0.000874015               0.003638984               0.002764969               0.000000000               0.000000000               0.000000000               0.000000000               0.000219220               0.009433953               0.000671132              -0.001097034               0.003510298               0.002413264               0.000000000               0.000000000               0.000000000               0.000000000              -0.000160855               0.008870612               0.000103626              -0.001169144               0.003346556               0.002177412               0.000000000               0.000000000               0.000000000               0.000000000              -0.000339348               0.008383964              -0.000116968              -0.001175248               0.003186376               0.002011128               0.000000000               0.000000000               0.000000000               0.000000000              -0.000412923               0.007965012              -0.000201724              -0.001150470               0.003038468               0.001887998               0.000000000               0.000000000               0.000000000               0.000000000              -0.000424251               0.007603873              -0.000235130              -0.001109575               0.002904457               0.001794882               0.000000000               0.000000000               0.000000000               0.000000000              -0.000400219               0.007290003              -0.000246645              -0.001061330               0.002783753               0.001722423               0.000000000               0.000000000               0.000000000               0.000000000              -0.000363628               0.007011860              -0.000245764              -0.001012840               0.002674877               0.001662036               0.000000000               0.000000000               0.000000000               0.000000000              -0.000325618               0.006766709              -0.000239342              -0.000967943               0.002578195               0.001610252               0.000000000               0.000000000               0.000000000               0.000000000              -0.000284139               0.006555059              -0.000226309              -0.000925932               0.002493642               0.001567710               0.000000000               0.000000000               0.000000000               0.000000000              -0.000235686               0.006364695              -0.000204001              -0.000883967               0.002416199               0.001532232               0.000000000               0.000000000               0.000000000               0.000000000              -0.000183265               0.006192978              -0.000169417              -0.000842844               0.002345254               0.001502409               0.000000000               0.000000000               0.000000000               0.000000000              -0.000126333               0.006050533              -0.000124113              -0.000803689               0.002284720               0.001481031               0.000000000               0.000000000               0.000000000               0.000000000              -0.000071851               0.005944528              -0.000079399              -0.000770008               0.002238159               0.001468151               0.000000000               0.000000000               0.000000000               0.000000000              -0.000030925               0.005875158              -0.000039493              -0.000745990               0.002207030               0.001461040               0.000000000               0.000000000               0.000000000               0.000000000              -0.000018008               0.005844067              -0.000022120              -0.000737260               0.002193756               0.001456496               0.000000000               0.000000000               0.000000000               0.000000000               0.002037511               0.009252053               0.003612825              -0.000392443               0.003214800               0.002822357               0.000000000               0.000000000               0.000000000               0.000000000               0.000654456               0.008783075               0.002239134              -0.000852463               0.003211816               0.002359353               0.000000000               0.000000000               0.000000000               0.000000000              -0.000345137               0.008808274               0.000895987              -0.001230458               0.003346215               0.002115757               0.000000000               0.000000000               0.000000000               0.000000000              -0.000679844               0.008481058               0.000396110              -0.001315071               0.003265348               0.001950277               0.000000000               0.000000000               0.000000000               0.000000000              -0.000763676               0.008096807               0.000183288              -0.001298476               0.003131734               0.001833258               0.000000000               0.000000000               0.000000000               0.000000000              -0.000736253               0.007726626               0.000079381              -0.001241920               0.002989489               0.001747570               0.000000000               0.000000000               0.000000000               0.000000000              -0.000660514               0.007391548               0.000017647              -0.001171633               0.002854369               0.001682736               0.000000000               0.000000000               0.000000000               0.000000000              -0.000565236               0.007093154              -0.000022818              -0.001098605               0.002730563               0.001631958               0.000000000               0.000000000               0.000000000               0.000000000              -0.000473547               0.006827087              -0.000048742              -0.001030963               0.002619327               0.001588364               0.000000000               0.000000000               0.000000000               0.000000000              -0.000392218               0.006590594              -0.000068258              -0.000970904               0.002520477               0.001549574               0.000000000               0.000000000               0.000000000               0.000000000              -0.000317209               0.006378223              -0.000076082              -0.000916229               0.002431463               0.001515234               0.000000000               0.000000000               0.000000000               0.000000000              -0.000243017               0.006185557              -0.000068000              -0.000864324               0.002349940               0.001485616               0.000000000               0.000000000               0.000000000               0.000000000              -0.000172511               0.006017326              -0.000050779              -0.000816855               0.002278040               0.001461185               0.000000000               0.000000000               0.000000000               0.000000000              -0.000109341               0.005880227              -0.000028664              -0.000776029               0.002218732               0.001442703               0.000000000               0.000000000               0.000000000               0.000000000              -0.000057169               0.005773552              -0.000012197              -0.000743131               0.002172208               0.001429078               0.000000000               0.000000000               0.000000000               0.000000000              -0.000021080               0.005690179              -0.000003656              -0.000719176               0.002136433               0.001417257               0.000000000               0.000000000               0.000000000               0.000000000              -0.000015445               0.005640370              -0.000005177              -0.000710836               0.002117050               0.001406214               0.000000000               0.000000000               0.000000000               0.000000000               0.001634635               0.007357419               0.003206213              -0.000306692               0.002554678               0.002247986               0.000000000               0.000000000               0.000000000               0.000000000               0.000241428               0.007615335               0.002191127              -0.000861381               0.002825546               0.001964165               0.000000000               0.000000000               0.000000000               0.000000000              -0.000816807               0.008171248               0.001154133              -0.001327706               0.003166290               0.001838585               0.000000000               0.000000000               0.000000000               0.000000000              -0.001048939               0.008035256               0.000718974              -0.001397756               0.003144310               0.001746555               0.000000000               0.000000000               0.000000000               0.000000000              -0.001025271               0.007742385               0.000495018              -0.001352271               0.003031526               0.001679255               0.000000000               0.000000000               0.000000000               0.000000000              -0.000907247               0.007424934               0.000359940              -0.001268331               0.002897730               0.001629399               0.000000000               0.000000000               0.000000000               0.000000000              -0.000758539               0.007124408               0.000262042              -0.001175000               0.002766446               0.001591446               0.000000000               0.000000000               0.000000000               0.000000000              -0.000613091               0.006848060               0.000186370              -0.001085914               0.002644635               0.001558721               0.000000000               0.000000000               0.000000000               0.000000000              -0.000484084               0.006597076               0.000130641              -0.001006163               0.002534391               0.001528228               0.000000000               0.000000000               0.000000000               0.000000000              -0.000379662               0.006364478               0.000088067              -0.000937931               0.002434115               0.001496184               0.000000000               0.000000000               0.000000000               0.000000000              -0.000290125               0.006146901               0.000060042              -0.000877157               0.002341332               0.001464175               0.000000000               0.000000000               0.000000000               0.000000000              -0.000204612               0.005953811               0.000047337              -0.000820954               0.002258235               0.001437281               0.000000000               0.000000000               0.000000000               0.000000000              -0.000132490               0.005787031               0.000040606              -0.000773061               0.002186678               0.001413617               0.000000000               0.000000000               0.000000000               0.000000000              -0.000079083               0.005646710               0.000035535              -0.000735493               0.002127382               0.001391889               0.000000000               0.000000000               0.000000000               0.000000000              -0.000043470               0.005531418               0.000027132              -0.000707727               0.002079696               0.001371970               0.000000000               0.000000000               0.000000000               0.000000000              -0.000021486               0.005431611               0.000013153              -0.000687007               0.002039521               0.001352514               0.000000000               0.000000000               0.000000000               0.000000000              -0.000021917               0.005366166              -0.000001505              -0.000678988               0.002015033               0.001336045               0.000000000               0.000000000               0.000000000               0.000000000               0.001116210               0.005736770               0.002661859              -0.000298520               0.002011743               0.001713223               0.000000000               0.000000000               0.000000000               0.000000000              -0.000150423               0.006571386               0.002108610              -0.000877831               0.002483050               0.001605219               0.000000000               0.000000000               0.000000000               0.000000000              -0.001153396               0.007554424               0.001448669              -0.001376823               0.002977057               0.001600234               0.000000000               0.000000000               0.000000000               0.000000000              -0.001273744               0.007612460               0.001057774              -0.001429208               0.003013864               0.001584656               0.000000000               0.000000000               0.000000000               0.000000000              -0.001160873               0.007426010               0.000808849              -0.001363575               0.002929837               0.001566262               0.000000000               0.000000000               0.000000000               0.000000000              -0.000976132               0.007176490               0.000633433              -0.001263108               0.002813175               0.001550068               0.000000000               0.000000000               0.000000000               0.000000000              -0.000779037               0.006922816               0.000496565              -0.001157488               0.002693412               0.001535924               0.000000000               0.000000000               0.000000000               0.000000000              -0.000604848               0.006675271               0.000387138              -0.001061224               0.002578810               0.001517585               0.000000000               0.000000000               0.000000000               0.000000000              -0.000458300               0.006436441               0.000304560              -0.000976415               0.002470931               0.001494515               0.000000000               0.000000000               0.000000000               0.000000000              -0.000338631               0.006207384               0.000240899              -0.000902907               0.002370076               0.001467169               0.000000000               0.000000000               0.000000000               0.000000000              -0.000241765               0.005991527               0.000189852              -0.000839601               0.002277023               0.001437422               0.000000000               0.000000000               0.000000000               0.000000000              -0.000156804               0.005796413               0.000148193              -0.000783351               0.002193235               0.001409884               0.000000000               0.000000000               0.000000000               0.000000000              -0.000094140               0.005624224               0.000111690              -0.000738328               0.002120832               0.001382504               0.000000000               0.000000000               0.000000000               0.000000000              -0.000060345               0.005478262               0.000078800              -0.000707410               0.002061873               0.001354462               0.000000000               0.000000000               0.000000000               0.000000000              -0.000042391               0.005357953               0.000046879              -0.000685639               0.002014513               0.001328874               0.000000000               0.000000000               0.000000000               0.000000000              -0.000045646               0.005239603               0.000018567              -0.000672066               0.001970539               0.001298473               0.000000000               0.000000000               0.000000000               0.000000000              -0.000058672               0.005163862               0.000002147              -0.000667483               0.001943764               0.001276281               0.000000000               0.000000000               0.000000000               0.000000000               0.000471906               0.004207302               0.002063311              -0.000348949               0.001518735               0.001169786               0.000000000               0.000000000               0.000000000               0.000000000              -0.000450253               0.005364332               0.002005236              -0.000839386               0.002067887               0.001228501               0.000000000               0.000000000               0.000000000               0.000000000              -0.001296575               0.006650827               0.001767077              -0.001317566               0.002656109               0.001338542               0.000000000               0.000000000               0.000000000               0.000000000              -0.001365330               0.006978181               0.001434528              -0.001384268               0.002787459               0.001403191               0.000000000               0.000000000               0.000000000               0.000000000              -0.001223849               0.006980487               0.001162437              -0.001331501               0.002770639               0.001439138               0.000000000               0.000000000               0.000000000               0.000000000              -0.001026848               0.006862205               0.000945459              -0.001242841               0.002701659               0.001458818               0.000000000               0.000000000               0.000000000               0.000000000              -0.000824048               0.006697620               0.000768595              -0.001146218               0.002614590               0.001468372               0.000000000               0.000000000               0.000000000               0.000000000              -0.000637693               0.006512337               0.000627421              -0.001053175               0.002521816               0.001468641               0.000000000               0.000000000               0.000000000               0.000000000              -0.000481770               0.006315581               0.000516046              -0.000970109               0.002428542               0.001458433               0.000000000               0.000000000               0.000000000               0.000000000              -0.000352298               0.006122689               0.000423494              -0.000897445               0.002340024               0.001442579               0.000000000               0.000000000               0.000000000               0.000000000              -0.000250947               0.005936850               0.000342523              -0.000836209               0.002257667               0.001421457               0.000000000               0.000000000               0.000000000               0.000000000              -0.000174499               0.005755659               0.000268694              -0.000784893               0.002180165               0.001395272               0.000000000               0.000000000               0.000000000               0.000000000              -0.000119575               0.005587382               0.000198204              -0.000743262               0.002110196               0.001366934               0.000000000               0.000000000               0.000000000               0.000000000              -0.000093569               0.005436657               0.000135041              -0.000714669               0.002050424               0.001335755               0.000000000               0.000000000               0.000000000               0.000000000              -0.000092910               0.005301437               0.000079994              -0.000697519               0.001999634               0.001302115               0.000000000               0.000000000               0.000000000               0.000000000              -0.000115434               0.005157071               0.000033112              -0.000687920               0.001948313               0.001260393               0.000000000               0.000000000               0.000000000               0.000000000              -0.000136885               0.005072457               0.000010116              -0.000685387               0.001919265               0.001233877               0.000000000               0.000000000               0.000000000               0.000000000              -0.000394977               0.002804692               0.001441125              -0.000498703               0.001101122               0.000602419               0.000000000               0.000000000               0.000000000               0.000000000              -0.000785203               0.004149181               0.001834086              -0.000813098               0.001654078               0.000840981               0.000000000               0.000000000               0.000000000               0.000000000              -0.001341813               0.005612378               0.002011414              -0.001204725               0.002272348               0.001067623               0.000000000               0.000000000               0.000000000               0.000000000              -0.001368726               0.006198400               0.001790094              -0.001288070               0.002495469               0.001207399               0.000000000               0.000000000               0.000000000               0.000000000              -0.001226624               0.006417661               0.001522521              -0.001262189               0.002559928               0.001297739               0.000000000               0.000000000               0.000000000               0.000000000              -0.001037387               0.006460940               0.001279795              -0.001196635               0.002552503               0.001355868               0.000000000               0.000000000               0.000000000               0.000000000              -0.000838722               0.006409931               0.001077427              -0.001115760               0.002508542               0.001392782               0.000000000               0.000000000               0.000000000               0.000000000              -0.000648107               0.006305686               0.000910772              -0.001031248               0.002445624               0.001414375               0.000000000               0.000000000               0.000000000               0.000000000              -0.000485027               0.006172858               0.000771061              -0.000953490               0.002375429               0.001421939               0.000000000               0.000000000               0.000000000               0.000000000              -0.000349475               0.006032829               0.000649216              -0.000885155               0.002305974               0.001420820               0.000000000               0.000000000               0.000000000               0.000000000              -0.000239818               0.005887668               0.000538961              -0.000825888               0.002237832               0.001411944               0.000000000               0.000000000               0.000000000               0.000000000              -0.000158604               0.005739281               0.000436248              -0.000776885               0.002172036               0.001395151               0.000000000               0.000000000               0.000000000               0.000000000              -0.000103141               0.005590115               0.000334733              -0.000737441               0.002109167               0.001371726               0.000000000               0.000000000               0.000000000               0.000000000              -0.000074580               0.005444626               0.000237713              -0.000708544               0.002051038               0.001342494               0.000000000               0.000000000               0.000000000               0.000000000              -0.000079610               0.005308050               0.000151069              -0.000693358               0.002000452               0.001307093               0.000000000               0.000000000               0.000000000               0.000000000              -0.000123745               0.005158350               0.000073390              -0.000691196               0.001949831               0.001258635               0.000000000               0.000000000               0.000000000               0.000000000              -0.000164776               0.005069832               0.000032447              -0.000695518               0.001921766               0.001226248               0.000000000               0.000000000               0.000000000               0.000000000              -0.001419369               0.001630839               0.000838698              -0.000736117               0.000788979               0.000052862               0.000000000               0.000000000               0.000000000               0.000000000              -0.001205494               0.002996715               0.001569143              -0.000826649               0.001274444               0.000447795               0.000000000               0.000000000               0.000000000               0.000000000              -0.001340767               0.004456885               0.002085985              -0.001059897               0.001838912               0.000779015               0.000000000               0.000000000               0.000000000               0.000000000              -0.001265762               0.005227041               0.002007248              -0.001128039               0.002118342               0.000990303               0.000000000               0.000000000               0.000000000               0.000000000              -0.001116082               0.005643543               0.001785571              -0.001123972               0.002255819               0.001131847               0.000000000               0.000000000               0.000000000               0.000000000              -0.000937334               0.005856787               0.001550472              -0.001083597               0.002313441               0.001229845               0.000000000               0.000000000               0.000000000               0.000000000              -0.000750592               0.005939678               0.001344204              -0.001023930               0.002321182               0.001297253               0.000000000               0.000000000               0.000000000               0.000000000              -0.000571274               0.005940452               0.001164463              -0.000956782               0.002299058               0.001342276               0.000000000               0.000000000               0.000000000               0.000000000              -0.000411873               0.005892087               0.001007439              -0.000890961               0.002260996               0.001370035               0.000000000               0.000000000               0.000000000               0.000000000              -0.000275552               0.005820096               0.000868219              -0.000830842               0.002216960               0.001386118               0.000000000               0.000000000               0.000000000               0.000000000              -0.000158381               0.005738754               0.000739368              -0.000776735               0.002171811               0.001395075               0.000000000               0.000000000               0.000000000               0.000000000              -0.000065886               0.005642993               0.000616148              -0.000730080               0.002124339               0.001394259               0.000000000               0.000000000               0.000000000               0.000000000              -0.000001202               0.005529073               0.000493822              -0.000691583               0.002073534               0.001381950               0.000000000               0.000000000               0.000000000               0.000000000               0.000037738               0.005407752               0.000369445              -0.000661816               0.002023171               0.001361355               0.000000000               0.000000000               0.000000000               0.000000000               0.000037774               0.005287222               0.000241670              -0.000646736               0.001977968               0.001331232               0.000000000               0.000000000               0.000000000               0.000000000              -0.000017829               0.005148236               0.000117424              -0.000650214               0.001932799               0.001282586               0.000000000               0.000000000               0.000000000               0.000000000              -0.000076043               0.005059946               0.000052392              -0.000661008               0.001906968               0.001245960               0.000000000               0.000000000               0.000000000               0.000000000              -0.002528725               0.000751825               0.000335112              -0.001042249               0.000598020              -0.000444228               0.000000000               0.000000000               0.000000000               0.000000000              -0.001686947               0.001980355               0.001242395              -0.000880148               0.000953493               0.000073345               0.000000000               0.000000000               0.000000000               0.000000000              -0.001322705               0.003284670               0.001972390              -0.000906597               0.001397077               0.000490480               0.000000000               0.000000000               0.000000000               0.000000000              -0.001084241               0.004147884               0.002028629              -0.000925075               0.001690972               0.000765897               0.000000000               0.000000000               0.000000000               0.000000000              -0.000896441               0.004717895               0.001879519              -0.000925901               0.001881249               0.000955348               0.000000000               0.000000000               0.000000000               0.000000000              -0.000723806               0.005084000               0.001682156              -0.000906926               0.001996958               0.001090032               0.000000000               0.000000000               0.000000000               0.000000000              -0.000562511               0.005305080               0.001492171              -0.000874075               0.002059700               0.001185625               0.000000000               0.000000000               0.000000000               0.000000000              -0.000405944               0.005427580               0.001318063              -0.000830675               0.002086067               0.001255391               0.000000000               0.000000000               0.000000000               0.000000000              -0.000258249               0.005482241               0.001161463              -0.000782122               0.002088103               0.001305980               0.000000000               0.000000000               0.000000000               0.000000000              -0.000127733               0.005497670               0.001021001              -0.000735107               0.002077574               0.001342467               0.000000000               0.000000000               0.000000000               0.000000000              -0.000010569               0.005494346               0.000890860              -0.000690755               0.002061682               0.001370927               0.000000000               0.000000000               0.000000000               0.000000000               0.000094741               0.005464351               0.000764973              -0.000647514               0.002037270               0.001389756               0.000000000               0.000000000               0.000000000               0.000000000               0.000181122               0.005405183               0.000638366              -0.000607726               0.002004285               0.001396559               0.000000000               0.000000000               0.000000000               0.000000000               0.000241735               0.005326366               0.000499389              -0.000575144               0.001967152               0.001392008               0.000000000               0.000000000               0.000000000               0.000000000               0.000267249               0.005238219               0.000340593              -0.000554558               0.001930908               0.001376350               0.000000000               0.000000000               0.000000000               0.000000000               0.000236081               0.005127013               0.000171715              -0.000552345               0.001893102               0.001340757               0.000000000               0.000000000               0.000000000               0.000000000               0.000185466               0.005051042               0.000081465              -0.000561829               0.001870940               0.001309111               0.000000000               0.000000000               0.000000000               0.000000000              -0.003618216               0.000155898              -0.000001993              -0.001376317               0.000510735              -0.000865582               0.000000000               0.000000000               0.000000000               0.000000000              -0.002187871               0.001151874               0.000898777              -0.000964434               0.000705431              -0.000259004               0.000000000               0.000000000               0.000000000               0.000000000              -0.001307488               0.002209291               0.001672713              -0.000766469               0.000991912               0.000225443               0.000000000               0.000000000               0.000000000               0.000000000              -0.000871187               0.003082765               0.001817965              -0.000712040               0.001264924               0.000552884               0.000000000               0.000000000               0.000000000               0.000000000              -0.000615601               0.003745308               0.001744991              -0.000699013               0.001481427               0.000782414               0.000000000               0.000000000               0.000000000               0.000000000              -0.000435679               0.004233612               0.001601002              -0.000692580               0.001642050               0.000949469               0.000000000               0.000000000               0.000000000               0.000000000              -0.000294902               0.004582760               0.001446609              -0.000683432               0.001755382               0.001071949               0.000000000               0.000000000               0.000000000               0.000000000              -0.000168799               0.004823257               0.001300281              -0.000666206               0.001829804               0.001163599               0.000000000               0.000000000               0.000000000               0.000000000              -0.000043717               0.004989152               0.001161968              -0.000640037               0.001876380               0.001236343               0.000000000               0.000000000               0.000000000               0.000000000               0.000076735               0.005102703               0.001034679              -0.000609061               0.001903904               0.001294843               0.000000000               0.000000000               0.000000000               0.000000000               0.000191856               0.005177168               0.000921882              -0.000575199               0.001917438               0.001342239               0.000000000               0.000000000               0.000000000               0.000000000               0.000306642               0.005218262               0.000815227              -0.000537291               0.001918500               0.001381209               0.000000000               0.000000000               0.000000000               0.000000000               0.000418476               0.005230169               0.000701426              -0.000496841               0.001908986               0.001412144               0.000000000               0.000000000               0.000000000               0.000000000               0.000517752               0.005215264               0.000569270              -0.000457750               0.001890987               0.001433237               0.000000000               0.000000000               0.000000000               0.000000000               0.000599113               0.005178254               0.000407760              -0.000422613               0.001866939               0.001444325               0.000000000               0.000000000               0.000000000               0.000000000               0.000641212               0.005104102               0.000215852              -0.000397557               0.001833869               0.001436312               0.000000000               0.000000000               0.000000000               0.000000000               0.000645213               0.005050175               0.000111528              -0.000389316               0.001813147               0.001423831               0.000000000               0.000000000               0.000000000               0.000000000              -0.004548417              -0.000204544              -0.000146503              -0.001680087               0.000491844              -0.001188243               0.000000000               0.000000000               0.000000000               0.000000000              -0.002638629               0.000544403               0.000572506              -0.001057535               0.000533975              -0.000523560               0.000000000               0.000000000               0.000000000               0.000000000              -0.001307448               0.001340609               0.001214624              -0.000657868               0.000666154               0.000008285               0.000000000               0.000000000               0.000000000               0.000000000              -0.000675485               0.002170561               0.001375973              -0.000524627               0.000898388               0.000373761               0.000000000               0.000000000               0.000000000               0.000000000              -0.000340377               0.002877556               0.001356886              -0.000487336               0.001121620               0.000634285               0.000000000               0.000000000               0.000000000               0.000000000              -0.000142561               0.003448158               0.001269860              -0.000484480               0.001310867               0.000826387               0.000000000               0.000000000               0.000000000               0.000000000              -0.000009201               0.003894459               0.001164362              -0.000490257               0.001461559               0.000971302               0.000000000               0.000000000               0.000000000               0.000000000               0.000093907               0.004234365               0.001059366              -0.000494080               0.001576134               0.001082054               0.000000000               0.000000000               0.000000000               0.000000000               0.000192689               0.004496972               0.000956778              -0.000489863               0.001662263               0.001172401               0.000000000               0.000000000               0.000000000               0.000000000               0.000299150               0.004695937               0.000860578              -0.000474810               0.001723567               0.001248757               0.000000000               0.000000000               0.000000000               0.000000000               0.000414382               0.004846256               0.000777032              -0.000450388               0.001765532               0.001315144               0.000000000               0.000000000               0.000000000               0.000000000               0.000535829               0.004961593               0.000700850              -0.000419262               0.001793602               0.001374339               0.000000000               0.000000000               0.000000000               0.000000000               0.000669149               0.005044412               0.000617283              -0.000379620               0.001807994               0.001428374               0.000000000               0.000000000               0.000000000               0.000000000               0.000814447               0.005096499               0.000514772              -0.000331644               0.001809364               0.001477720               0.000000000               0.000000000               0.000000000               0.000000000               0.000971597               0.005116385               0.000382451              -0.000275199               0.001797177               0.001521979               0.000000000               0.000000000               0.000000000               0.000000000               0.001129419               0.005079458               0.000210364              -0.000211400               0.001763602               0.001552203               0.000000000               0.000000000               0.000000000               0.000000000               0.001238609               0.005053005               0.000116451              -0.000167147               0.001740034               0.001572887               0.000000000               0.000000000               0.000000000               0.000000000              -0.005177508              -0.000385882              -0.000122354              -0.001893329               0.000502479              -0.001390850               0.000000000               0.000000000               0.000000000               0.000000000              -0.002954507               0.000176955               0.000275356              -0.001130058               0.000435668              -0.000694390               0.000000000               0.000000000               0.000000000               0.000000000              -0.001311061               0.000774255               0.000638706              -0.000588429               0.000454224              -0.000134205               0.000000000               0.000000000               0.000000000               0.000000000              -0.000534588               0.001551469               0.000743318              -0.000394404               0.000648619               0.000254215               0.000000000               0.000000000               0.000000000               0.000000000              -0.000139277               0.002275229               0.000745518              -0.000336632               0.000870613               0.000533980               0.000000000               0.000000000               0.000000000               0.000000000               0.000077370               0.002890053               0.000706498              -0.000332242               0.001074089               0.000741846               0.000000000               0.000000000               0.000000000               0.000000000               0.000209797               0.003392109               0.000654538              -0.000345339               0.001245805               0.000900465               0.000000000               0.000000000               0.000000000               0.000000000               0.000303111               0.003795825               0.000600639              -0.000360811               0.001385533               0.001024722               0.000000000               0.000000000               0.000000000               0.000000000               0.000387369               0.004121348               0.000546818              -0.000369905               0.001497070               0.001127166               0.000000000               0.000000000               0.000000000               0.000000000               0.000480525               0.004382380               0.000496438              -0.000367600               0.001583312               0.001215712               0.000000000               0.000000000               0.000000000               0.000000000               0.000590721               0.004593193               0.000450926              -0.000352628               0.001648591               0.001295964               0.000000000               0.000000000               0.000000000               0.000000000               0.000717526               0.004763102               0.000410239              -0.000326315               0.001696457               0.001370142               0.000000000               0.000000000               0.000000000               0.000000000               0.000867484               0.004898914               0.000366165              -0.000287057               0.001728641               0.001441584               0.000000000               0.000000000               0.000000000               0.000000000               0.001051588               0.005004858               0.000309995              -0.000231261               0.001745357               0.001514095               0.000000000               0.000000000               0.000000000               0.000000000               0.001279474               0.005073189               0.000235547              -0.000154346               0.001742495               0.001588149               0.000000000               0.000000000               0.000000000               0.000000000               0.001552222               0.005066465               0.000133118              -0.000051225               0.001705880               0.001654655               0.000000000               0.000000000               0.000000000               0.000000000               0.001772438               0.005063138               0.000077985               0.000031771               0.001677105               0.001708877               0.000000000               0.000000000               0.000000000               0.000000000              -0.005399910              -0.000440079               0.000000000              -0.001969955               0.000509955              -0.001460000               0.000000000               0.000000000               0.000000000               0.000000000              -0.003067758               0.000053202               0.000000000              -0.001157058               0.000403417              -0.000753641               0.000000000               0.000000000               0.000000000               0.000000000              -0.001311047               0.000576490               0.000000000              -0.000563703               0.000380062              -0.000183641               0.000000000               0.000000000               0.000000000               0.000000000              -0.000481171               0.001333016               0.000000000              -0.000347065               0.000560023               0.000212957               0.000000000               0.000000000               0.000000000               0.000000000              -0.000065186               0.002060562               0.000000000              -0.000282014               0.000780852               0.000498837               0.000000000               0.000000000               0.000000000               0.000000000               0.000159394               0.002687527              -0.000000000              -0.000276167               0.000987889               0.000711722               0.000000000               0.000000000               0.000000000               0.000000000               0.000293785               0.003207815               0.000000000              -0.000290807               0.001166197               0.000875390               0.000000000               0.000000000               0.000000000               0.000000000               0.000385051               0.003633864               0.000000000              -0.000309838               0.001314555               0.001004717               0.000000000               0.000000000               0.000000000               0.000000000               0.000465216               0.003981900              -0.000000000              -0.000323281               0.001435047               0.001111766               0.000000000               0.000000000               0.000000000               0.000000000               0.000552292               0.004264805               0.000000000              -0.000325990               0.001530251               0.001204260               0.000000000               0.000000000               0.000000000               0.000000000               0.000656930               0.004495970               0.000000000              -0.000315647               0.001603857               0.001288211               0.000000000               0.000000000               0.000000000               0.000000000               0.000786420               0.004685509              -0.000000000              -0.000290780               0.001658747               0.001367967               0.000000000               0.000000000               0.000000000               0.000000000               0.000943016               0.004840823               0.000000000              -0.000251471               0.001697415               0.001445944               0.000000000               0.000000000               0.000000000               0.000000000               0.001143743               0.004968712               0.000000000              -0.000192185               0.001720282               0.001528098               0.000000000               0.000000000               0.000000000               0.000000000               0.001401002               0.005056590               0.000000000              -0.000106698               0.001721079               0.001614381               0.000000000               0.000000000               0.000000000               0.000000000               0.001722979               0.005062371              -0.000000000               0.000013320               0.001683000               0.001696321               0.000000000               0.000000000               0.000000000               0.000000000               0.001991430               0.005069263              -0.000000000               0.000113127               0.001652029               0.001765156               0.000000000               0.000000000               0.000000000               0.000000000               0.001616029               0.018015514              -0.000000000              -0.001645924               0.006553753               0.004907828               0.000000000               0.000000000               0.000000000               0.000000000               0.001657269               0.014374428               0.000000000              -0.001175325               0.005183203               0.004007878               0.000000000               0.000000000               0.000000000               0.000000000               0.002219920               0.011437062               0.000000000              -0.000597161               0.004011370               0.003414208               0.000000000               0.000000000               0.000000000               0.000000000               0.002175334               0.009806210              -0.000000000              -0.000410025               0.003405379               0.002995354               0.000000000               0.000000000               0.000000000               0.000000000               0.001935575               0.008809993              -0.000000000              -0.000375407               0.003061771               0.002686363               0.000000000               0.000000000               0.000000000               0.000000000               0.001660551               0.008152894              -0.000000000              -0.000396404               0.002849739               0.002453335               0.000000000               0.000000000               0.000000000               0.000000000               0.001390340               0.007684863              -0.000000000              -0.000439229               0.002708005               0.002268776               0.000000000               0.000000000               0.000000000               0.000000000               0.001135815               0.007329714              -0.000000000              -0.000490283               0.002606641               0.002116359               0.000000000               0.000000000               0.000000000               0.000000000               0.000904210               0.007039546               0.000000000              -0.000540863               0.002526780               0.001985917               0.000000000               0.000000000               0.000000000               0.000000000               0.000704293               0.006785449               0.000000000              -0.000584070               0.002456484               0.001872414               0.000000000               0.000000000               0.000000000               0.000000000               0.000539100               0.006557839               0.000000000              -0.000617566               0.002391780               0.001774214               0.000000000               0.000000000               0.000000000               0.000000000               0.000401111               0.006344723              -0.000000000              -0.000642672               0.002329111               0.001686438               0.000000000               0.000000000               0.000000000               0.000000000               0.000283365               0.006130243              -0.000000000              -0.000660017               0.002263399               0.001603383               0.000000000               0.000000000               0.000000000               0.000000000               0.000182458               0.005901161               0.000000000              -0.000669222               0.002190108               0.001520886               0.000000000               0.000000000               0.000000000               0.000000000               0.000098857               0.005645422              -0.000000000              -0.000668605               0.002104657               0.001436052               0.000000000               0.000000000               0.000000000               0.000000000               0.000038250               0.005345552               0.000000000              -0.000653849               0.001999783               0.001345934               0.000000000               0.000000000               0.000000000               0.000000000              -0.000009560               0.005110481               0.000000000              -0.000642394               0.001917608               0.001275214               0.000000000               0.000000000               0.000000000               0.000000000               0.001692708               0.017674518              -0.001280990              -0.001574546               0.006416295               0.004841750               0.000000000               0.000000000               0.000000000               0.000000000               0.001649410               0.014146236              -0.000705565              -0.001149748               0.005098614               0.003948866               0.000000000               0.000000000               0.000000000               0.000000000               0.002120635               0.011329887              -0.000124492              -0.000620996               0.003983590               0.003362594               0.000000000               0.000000000               0.000000000               0.000000000               0.002041348               0.009764896               0.000129480              -0.000455106               0.003406635               0.002951529               0.000000000               0.000000000               0.000000000               0.000000000               0.001794129               0.008805951               0.000239185              -0.000427944               0.003077936               0.002649991               0.000000000               0.000000000               0.000000000               0.000000000               0.001519731               0.008166678               0.000280891              -0.000450935               0.002872510               0.002421576               0.000000000               0.000000000               0.000000000               0.000000000               0.001256548               0.007707158               0.000291738              -0.000492188               0.002733090               0.002240902               0.000000000               0.000000000               0.000000000               0.000000000               0.001014758               0.007356238               0.000288343              -0.000538994               0.002631720               0.002092725               0.000000000               0.000000000               0.000000000               0.000000000               0.000798014               0.007068128               0.000275048              -0.000584259               0.002550772               0.001966513               0.000000000               0.000000000               0.000000000               0.000000000               0.000615697               0.006816699               0.000259264              -0.000621200               0.002479277               0.001858077               0.000000000               0.000000000               0.000000000               0.000000000               0.000468561               0.006588354               0.000246428              -0.000647832               0.002412040               0.001764208               0.000000000               0.000000000               0.000000000               0.000000000               0.000343675               0.006372604               0.000232453              -0.000667696               0.002346745               0.001679050               0.000000000               0.000000000               0.000000000               0.000000000               0.000235274               0.006158624               0.000212541              -0.000681599               0.002280054               0.001598455               0.000000000               0.000000000               0.000000000               0.000000000               0.000145156               0.005936637               0.000184961              -0.000687644               0.002208074               0.001520430               0.000000000               0.000000000               0.000000000               0.000000000               0.000074101               0.005695115               0.000144330              -0.000684100               0.002126386               0.001442286               0.000000000               0.000000000               0.000000000               0.000000000               0.000025969               0.005422442               0.000082191              -0.000668065               0.002030151               0.001362086               0.000000000               0.000000000               0.000000000               0.000000000              -0.000012792               0.005215564               0.000049264              -0.000656741               0.001957418               0.001300677               0.000000000               0.000000000               0.000000000               0.000000000               0.001886734               0.016692739              -0.002391541              -0.001379065               0.006023879               0.004644814               0.000000000               0.000000000               0.000000000               0.000000000               0.001609644               0.013493988              -0.001315564              -0.001083130               0.004858994               0.003775864               0.000000000               0.000000000               0.000000000               0.000000000               0.001831865               0.011028273              -0.000237890              -0.000691583               0.003906582               0.003214999               0.000000000               0.000000000               0.000000000               0.000000000               0.001662834               0.009645024               0.000220487              -0.000582064               0.003408997               0.002826933               0.000000000               0.000000000               0.000000000               0.000000000               0.001397193               0.008780411               0.000410960              -0.000573603               0.003117976               0.002544373               0.000000000               0.000000000               0.000000000               0.000000000               0.001131708               0.008188905               0.000479604              -0.000599221               0.002929348               0.002330127               0.000000000               0.000000000               0.000000000               0.000000000               0.000897442               0.007755040               0.000496337              -0.000632838               0.002795933               0.002163096               0.000000000               0.000000000               0.000000000               0.000000000               0.000697280               0.007414907               0.000489442              -0.000665382               0.002693405               0.002028023               0.000000000               0.000000000               0.000000000               0.000000000               0.000523809               0.007129356               0.000467042              -0.000694740               0.002608008               0.001913268               0.000000000               0.000000000               0.000000000               0.000000000               0.000380164               0.006879030               0.000437834              -0.000717316               0.002532092               0.001814777               0.000000000               0.000000000               0.000000000               0.000000000               0.000269264               0.006650070               0.000410936              -0.000730283               0.002460096               0.001729813               0.000000000               0.000000000               0.000000000               0.000000000               0.000181651               0.006434869               0.000383709              -0.000736238               0.002390347               0.001654110               0.000000000               0.000000000               0.000000000               0.000000000               0.000110791               0.006228572               0.000348565              -0.000737023               0.002321844               0.001584821               0.000000000               0.000000000               0.000000000               0.000000000               0.000059021               0.006026720               0.000299540              -0.000731206               0.002252622               0.001521416               0.000000000               0.000000000               0.000000000               0.000000000               0.000025577               0.005823352               0.000229539              -0.000718326               0.002180540               0.001462214               0.000000000               0.000000000               0.000000000               0.000000000               0.000006558               0.005619517               0.000129477              -0.000699979               0.002106480               0.001406501               0.000000000               0.000000000               0.000000000               0.000000000              -0.000012660               0.005482554               0.000075743              -0.000690065               0.002057521               0.001367456               0.000000000               0.000000000               0.000000000               0.000000000               0.002107023               0.015185495              -0.003208936              -0.001108053               0.005431132               0.004323079               0.000000000               0.000000000               0.000000000               0.000000000               0.001503152               0.012509686              -0.001771484              -0.001000027               0.004503196               0.003503169               0.000000000               0.000000000               0.000000000               0.000000000               0.001380407               0.010580192              -0.000351298              -0.000804870               0.003794985               0.002990116               0.000000000               0.000000000               0.000000000               0.000000000               0.001101482               0.009453981               0.000224756              -0.000768690               0.003407525               0.002638835               0.000000000               0.000000000               0.000000000               0.000000000               0.000829946               0.008713233               0.000454131              -0.000777923               0.003163690               0.002385767               0.000000000               0.000000000               0.000000000               0.000000000               0.000602065               0.008184629               0.000533155              -0.000797302               0.002993950               0.002196648               0.000000000               0.000000000               0.000000000               0.000000000               0.000422452               0.007780377               0.000549522              -0.000814126               0.002864808               0.002050683               0.000000000               0.000000000               0.000000000               0.000000000               0.000284888               0.007449177               0.000538663              -0.000824312               0.002757805               0.001933493               0.000000000               0.000000000               0.000000000               0.000000000               0.000176073               0.007163901               0.000512565              -0.000829458               0.002664429               0.001834971               0.000000000               0.000000000               0.000000000               0.000000000               0.000091827               0.006913374               0.000478825              -0.000829735               0.002581013               0.001751278               0.000000000               0.000000000               0.000000000               0.000000000               0.000030435               0.006688567               0.000444860              -0.000824656               0.002504385               0.001679729               0.000000000               0.000000000               0.000000000               0.000000000              -0.000010841               0.006482370               0.000410447              -0.000814360               0.002432222               0.001617862               0.000000000               0.000000000               0.000000000               0.000000000              -0.000030708               0.006292107               0.000366448              -0.000798027               0.002363357               0.001565330               0.000000000               0.000000000               0.000000000               0.000000000              -0.000032634               0.006113852               0.000305551              -0.000776467               0.002296753               0.001520285               0.000000000               0.000000000               0.000000000               0.000000000              -0.000021215               0.005952518               0.000225403              -0.000752019               0.002234826               0.001482807               0.000000000               0.000000000               0.000000000               0.000000000              -0.000009072               0.005820543               0.000123291              -0.000730968               0.002183818               0.001452850               0.000000000               0.000000000               0.000000000               0.000000000              -0.000009881               0.005751310               0.000069005              -0.000722617               0.002157957               0.001435339               0.000000000               0.000000000               0.000000000               0.000000000               0.002254180               0.013319518              -0.003675070              -0.000819623               0.004713002               0.003893379               0.000000000               0.000000000               0.000000000               0.000000000               0.001305833               0.011318398              -0.002061126              -0.000925111               0.004081132               0.003156020               0.000000000               0.000000000               0.000000000               0.000000000               0.000818846               0.010035460              -0.000489582              -0.000947363               0.003660908               0.002713545               0.000000000               0.000000000               0.000000000               0.000000000               0.000458917               0.009195813               0.000114218              -0.000977380               0.003391034               0.002413654               0.000000000               0.000000000               0.000000000               0.000000000               0.000213760               0.008588015               0.000347707              -0.000993340               0.003193756               0.002200417               0.000000000               0.000000000               0.000000000               0.000000000               0.000052238               0.008118532               0.000427700              -0.000995225               0.003037892               0.002042667               0.000000000               0.000000000               0.000000000               0.000000000              -0.000048834               0.007735882               0.000445910              -0.000985296               0.002907033               0.001921738               0.000000000               0.000000000               0.000000000               0.000000000              -0.000107478               0.007411769               0.000439136              -0.000966773               0.002792822               0.001826049               0.000000000               0.000000000               0.000000000               0.000000000              -0.000140460               0.007127967               0.000420019              -0.000943666               0.002690521               0.001746854               0.000000000               0.000000000               0.000000000               0.000000000              -0.000159358               0.006877924               0.000394149              -0.000919497               0.002599117               0.001679620               0.000000000               0.000000000               0.000000000               0.000000000              -0.000165565               0.006659776               0.000364433              -0.000894557               0.002518089               0.001623532               0.000000000               0.000000000               0.000000000               0.000000000              -0.000159125               0.006465157               0.000331773              -0.000867814               0.002444302               0.001576488               0.000000000               0.000000000               0.000000000               0.000000000              -0.000137732               0.006288015               0.000287167              -0.000837649               0.002375200               0.001537551               0.000000000               0.000000000               0.000000000               0.000000000              -0.000101287               0.006130436               0.000226788              -0.000804285               0.002311553               0.001507268               0.000000000               0.000000000               0.000000000               0.000000000              -0.000059159               0.006003069               0.000157967              -0.000772566               0.002258525               0.001485959               0.000000000               0.000000000               0.000000000               0.000000000              -0.000024951               0.005917172               0.000082798              -0.000749001               0.002222038               0.001473037               0.000000000               0.000000000               0.000000000               0.000000000              -0.000013051               0.005883154               0.000044303              -0.000740287               0.002207794               0.001467507               0.000000000               0.000000000               0.000000000               0.000000000               0.002247448               0.011283711              -0.003792654              -0.000567673               0.003950423               0.003382750               0.000000000               0.000000000               0.000000000               0.000000000               0.001016973               0.010043039              -0.002206085              -0.000874015               0.003638984               0.002764969               0.000000000               0.000000000               0.000000000               0.000000000               0.000219220               0.009433953              -0.000671132              -0.001097034               0.003510298               0.002413264               0.000000000               0.000000000               0.000000000               0.000000000              -0.000160855               0.008870612              -0.000103626              -0.001169144               0.003346556               0.002177412               0.000000000               0.000000000               0.000000000               0.000000000              -0.000339348               0.008383964               0.000116968              -0.001175248               0.003186376               0.002011128               0.000000000               0.000000000               0.000000000               0.000000000              -0.000412923               0.007965012               0.000201724              -0.001150470               0.003038468               0.001887998               0.000000000               0.000000000               0.000000000               0.000000000              -0.000424251               0.007603873               0.000235130              -0.001109575               0.002904457               0.001794882               0.000000000               0.000000000               0.000000000               0.000000000              -0.000400219               0.007290003               0.000246645              -0.001061330               0.002783753               0.001722423               0.000000000               0.000000000               0.000000000               0.000000000              -0.000363628               0.007011860               0.000245764              -0.001012840               0.002674877               0.001662036               0.000000000               0.000000000               0.000000000               0.000000000              -0.000325618               0.006766709               0.000239342              -0.000967943               0.002578195               0.001610252               0.000000000               0.000000000               0.000000000               0.000000000              -0.000284139               0.006555059               0.000226309              -0.000925932               0.002493642               0.001567710               0.000000000               0.000000000               0.000000000               0.000000000              -0.000235686               0.006364695               0.000204001              -0.000883967               0.002416199               0.001532232               0.000000000               0.000000000               0.000000000               0.000000000              -0.000183265               0.006192978               0.000169417              -0.000842844               0.002345254               0.001502409               0.000000000               0.000000000               0.000000000               0.000000000              -0.000126333               0.006050533               0.000124113              -0.000803689               0.002284720               0.001481031               0.000000000               0.000000000               0.000000000               0.000000000              -0.000071851               0.005944528               0.000079399              -0.000770008               0.002238159               0.001468151               0.000000000               0.000000000               0.000000000               0.000000000              -0.000030925               0.005875158               0.000039493              -0.000745990               0.002207030               0.001461040               0.000000000               0.000000000               0.000000000               0.000000000              -0.000018008               0.005844067               0.000022120              -0.000737260               0.002193756               0.001456496               0.000000000               0.000000000               0.000000000               0.000000000               0.002037511               0.009252053              -0.003612825              -0.000392443               0.003214800               0.002822357               0.000000000               0.000000000               0.000000000               0.000000000               0.000654456               0.008783075              -0.002239134              -0.000852463               0.003211816               0.002359353               0.000000000               0.000000000               0.000000000               0.000000000              -0.000345137               0.008808274              -0.000895987              -0.001230458               0.003346215               0.002115757               0.000000000               0.000000000               0.000000000               0.000000000              -0.000679844               0.008481058              -0.000396110              -0.001315071               0.003265348               0.001950277               0.000000000               0.000000000               0.000000000               0.000000000              -0.000763676               0.008096807              -0.000183288              -0.001298476               0.003131734               0.001833258               0.000000000               0.000000000               0.000000000               0.000000000              -0.000736253               0.007726626              -0.000079381              -0.001241920               0.002989489               0.001747570               0.000000000               0.000000000               0.000000000               0.000000000              -0.000660514               0.007391548              -0.000017647              -0.001171633               0.002854369               0.001682736               0.000000000               0.000000000               0.000000000               0.000000000              -0.000565236               0.007093154               0.000022818              -0.001098605               0.002730563               0.001631958               0.000000000               0.000000000               0.000000000               0.000000000              -0.000473547               0.006827087               0.000048742              -0.001030963               0.002619327               0.001588364               0.000000000               0.000000000               0.000000000               0.000000000              -0.000392218               0.006590594               0.000068258              -0.000970904               0.002520477               0.001549574               0.000000000               0.000000000               0.000000000               0.000000000              -0.000317209               0.006378223               0.000076082              -0.000916229               0.002431463               0.001515234               0.000000000               0.000000000               0.000000000               0.000000000              -0.000243017               0.006185557               0.000068000              -0.000864324               0.002349940               0.001485616               0.000000000               0.000000000               0.000000000               0.000000000              -0.000172511               0.006017326               0.000050779              -0.000816855               0.002278040               0.001461185               0.000000000               0.000000000               0.000000000               0.000000000              -0.000109341               0.005880227               0.000028664              -0.000776029               0.002218732               0.001442703               0.000000000               0.000000000               0.000000000               0.000000000              -0.000057169               0.005773552               0.000012197              -0.000743131               0.002172208               0.001429078               0.000000000               0.000000000               0.000000000               0.000000000              -0.000021080               0.005690179               0.000003656              -0.000719176               0.002136433               0.001417257               0.000000000               0.000000000               0.000000000               0.000000000              -0.000015445               0.005640370               0.000005177              -0.000710836               0.002117050               0.001406214               0.000000000               0.000000000               0.000000000               0.000000000               0.001634635               0.007357419              -0.003206213              -0.000306692               0.002554678               0.002247986               0.000000000               0.000000000               0.000000000               0.000000000               0.000241428               0.007615335              -0.002191127              -0.000861381               0.002825546               0.001964165               0.000000000               0.000000000               0.000000000               0.000000000              -0.000816807               0.008171248              -0.001154133              -0.001327706               0.003166290               0.001838585               0.000000000               0.000000000               0.000000000               0.000000000              -0.001048939               0.008035256              -0.000718974              -0.001397756               0.003144310               0.001746555               0.000000000               0.000000000               0.000000000               0.000000000              -0.001025271               0.007742385              -0.000495018              -0.001352271               0.003031526               0.001679255               0.000000000               0.000000000               0.000000000               0.000000000              -0.000907247               0.007424934              -0.000359940              -0.001268331               0.002897730               0.001629399               0.000000000               0.000000000               0.000000000               0.000000000              -0.000758539               0.007124408              -0.000262042              -0.001175000               0.002766446               0.001591446               0.000000000               0.000000000               0.000000000               0.000000000              -0.000613091               0.006848060              -0.000186370              -0.001085914               0.002644635               0.001558721               0.000000000               0.000000000               0.000000000               0.000000000              -0.000484084               0.006597076              -0.000130641              -0.001006163               0.002534391               0.001528228               0.000000000               0.000000000               0.000000000               0.000000000              -0.000379662               0.006364478              -0.000088067              -0.000937931               0.002434115               0.001496184               0.000000000               0.000000000               0.000000000               0.000000000              -0.000290125               0.006146901              -0.000060042              -0.000877157               0.002341332               0.001464175               0.000000000               0.000000000               0.000000000               0.000000000              -0.000204612               0.005953811              -0.000047337              -0.000820954               0.002258235               0.001437281               0.000000000               0.000000000               0.000000000               0.000000000              -0.000132490               0.005787031              -0.000040606              -0.000773061               0.002186678               0.001413617               0.000000000               0.000000000               0.000000000               0.000000000              -0.000079083               0.005646710              -0.000035535              -0.000735493               0.002127382               0.001391889               0.000000000               0.000000000               0.000000000               0.000000000              -0.000043470               0.005531418              -0.000027132              -0.000707727               0.002079696               0.001371970               0.000000000               0.000000000               0.000000000               0.000000000              -0.000021486               0.005431611              -0.000013153              -0.000687007               0.002039521               0.001352514               0.000000000               0.000000000               0.000000000               0.000000000              -0.000021917               0.005366166               0.000001505              -0.000678988               0.002015033               0.001336045               0.000000000               0.000000000               0.000000000               0.000000000               0.001116210               0.005736770              -0.002661859              -0.000298520               0.002011743               0.001713223               0.000000000               0.000000000               0.000000000               0.000000000              -0.000150423               0.006571386              -0.002108610              -0.000877831               0.002483050               0.001605219               0.000000000               0.000000000               0.000000000               0.000000000              -0.001153396               0.007554424              -0.001448669              -0.001376823               0.002977057               0.001600234               0.000000000               0.000000000               0.000000000               0.000000000              -0.001273744               0.007612460              -0.001057774              -0.001429208               0.003013864               0.001584656               0.000000000               0.000000000               0.000000000               0.000000000              -0.001160873               0.007426010              -0.000808849              -0.001363575               0.002929837               0.001566262               0.000000000               0.000000000               0.000000000               0.000000000              -0.000976132               0.007176490              -0.000633433              -0.001263108               0.002813175               0.001550068               0.000000000               0.000000000               0.000000000               0.000000000              -0.000779037               0.006922816              -0.000496565              -0.001157488               0.002693412               0.001535924               0.000000000               0.000000000               0.000000000               0.000000000              -0.000604848               0.006675271              -0.000387138              -0.001061224               0.002578810               0.001517585               0.000000000               0.000000000               0.000000000               0.000000000              -0.000458300               0.006436441              -0.000304560              -0.000976415               0.002470931               0.001494515               0.000000000               0.000000000               0.000000000               0.000000000              -0.000338631               0.006207384              -0.000240899              -0.000902907               0.002370076               0.001467169               0.000000000               0.000000000               0.000000000               0.000000000              -0.000241765               0.005991527              -0.000189852              -0.000839601               0.002277023               0.001437422               0.000000000               0.000000000               0.000000000               0.000000000              -0.000156804               0.005796413              -0.000148193              -0.000783351               0.002193235               0.001409884               0.000000000               0.000000000               0.000000000               0.000000000              -0.000094140               0.005624224              -0.000111690              -0.000738328               0.002120832               0.001382504               0.000000000               0.000000000               0.000000000               0.000000000              -0.000060345               0.005478262              -0.000078800              -0.000707410               0.002061873               0.001354462               0.000000000               0.000000000               0.000000000               0.000000000              -0.000042391               0.005357953              -0.000046879              -0.000685639               0.002014513               0.001328874               0.000000000               0.000000000               0.000000000               0.000000000              -0.000045646               0.005239603              -0.000018567              -0.000672066               0.001970539               0.001298473               0.000000000               0.000000000               0.000000000               0.000000000              -0.000058672               0.005163862              -0.000002147              -0.000667483               0.001943764               0.001276281               0.000000000               0.000000000               0.000000000               0.000000000               0.000471906               0.004207302              -0.002063311              -0.000348949               0.001518735               0.001169786               0.000000000               0.000000000               0.000000000               0.000000000              -0.000450253               0.005364332              -0.002005236              -0.000839386               0.002067887               0.001228501               0.000000000               0.000000000               0.000000000               0.000000000              -0.001296575               0.006650827              -0.001767077              -0.001317566               0.002656109               0.001338542               0.000000000               0.000000000               0.000000000               0.000000000              -0.001365330               0.006978181              -0.001434528              -0.001384268               0.002787459               0.001403191               0.000000000               0.000000000               0.000000000               0.000000000              -0.001223849               0.006980487              -0.001162437              -0.001331501               0.002770639               0.001439138               0.000000000               0.000000000               0.000000000               0.000000000              -0.001026848               0.006862205              -0.000945459              -0.001242841               0.002701659               0.001458818               0.000000000               0.000000000               0.000000000               0.000000000              -0.000824048               0.006697620              -0.000768595              -0.001146218               0.002614590               0.001468372               0.000000000               0.000000000               0.000000000               0.000000000              -0.000637693               0.006512337              -0.000627421              -0.001053175               0.002521816               0.001468641               0.000000000               0.000000000               0.000000000               0.000000000              -0.000481770               0.006315581              -0.000516046              -0.000970109               0.002428542               0.001458433               0.000000000               0.000000000               0.000000000               0.000000000              -0.000352298               0.006122689              -0.000423494              -0.000897445               0.002340024               0.001442579               0.000000000               0.000000000               0.000000000               0.000000000              -0.000250947               0.005936850              -0.000342523              -0.000836209               0.002257667               0.001421457               0.000000000               0.000000000               0.000000000               0.000000000              -0.000174499               0.005755659              -0.000268694              -0.000784893               0.002180165               0.001395272               0.000000000               0.000000000               0.000000000               0.000000000              -0.000119575               0.005587382              -0.000198204              -0.000743262               0.002110196               0.001366934               0.000000000               0.000000000               0.000000000               0.000000000              -0.000093569               0.005436657              -0.000135041              -0.000714669               0.002050424               0.001335755               0.000000000               0.000000000               0.000000000               0.000000000              -0.000092910               0.005301437              -0.000079994              -0.000697519               0.001999634               0.001302115               0.000000000               0.000000000               0.000000000               0.000000000              -0.000115434               0.005157071              -0.000033112              -0.000687920               0.001948313               0.001260393               0.000000000               0.000000000               0.000000000               0.000000000              -0.000136885               0.005072457              -0.000010116              -0.000685387               0.001919265               0.001233877               0.000000000               0.000000000               0.000000000               0.000000000              -0.000394977               0.002804692              -0.001441125              -0.000498703               0.001101122               0.000602419               0.000000000               0.000000000               0.000000000               0.000000000              -0.000785203               0.004149181              -0.001834086              -0.000813098               0.001654078               0.000840981               0.000000000               0.000000000               0.000000000               0.000000000              -0.001341813               0.005612378              -0.002011414              -0.001204725               0.002272348               0.001067623               0.000000000               0.000000000               0.000000000               0.000000000              -0.001368726               0.006198400              -0.001790094              -0.001288070               0.002495469               0.001207399               0.000000000               0.000000000               0.000000000               0.000000000              -0.001226624               0.006417661              -0.001522521              -0.001262189               0.002559928               0.001297739               0.000000000               0.000000000               0.000000000               0.000000000              -0.001037387               0.006460940              -0.001279795              -0.001196635               0.002552503               0.001355868               0.000000000               0.000000000               0.000000000               0.000000000              -0.000838722               0.006409931              -0.001077427              -0.001115760               0.002508542               0.001392782               0.000000000               0.000000000               0.000000000               0.000000000              -0.000648107               0.006305686              -0.000910772              -0.001031248               0.002445624               0.001414375               0.000000000               0.000000000               0.000000000               0.000000000              -0.000485027               0.006172858              -0.000771061              -0.000953490               0.002375429               0.001421939               0.000000000               0.000000000               0.000000000               0.000000000              -0.000349475               0.006032829              -0.000649216              -0.000885155               0.002305974               0.001420820               0.000000000               0.000000000               0.000000000               0.000000000              -0.000239818               0.005887668              -0.000538961              -0.000825888               0.002237832               0.001411944               0.000000000               0.000000000               0.000000000               0.000000000              -0.000158604               0.005739281              -0.000436248              -0.000776885               0.002172036               0.001395151               0.000000000               0.000000000               0.000000000               0.000000000              -0.000103141               0.005590115              -0.000334733              -0.000737441               0.002109167               0.001371726               0.000000000               0.000000000               0.000000000               0.000000000              -0.000074580               0.005444626              -0.000237713              -0.000708544               0.002051038               0.001342494               0.000000000               0.000000000               0.000000000               0.000000000              -0.000079610               0.005308050              -0.000151069              -0.000693358               0.002000452               0.001307093               0.000000000               0.000000000               0.000000000               0.000000000              -0.000123745               0.005158350              -0.000073390              -0.000691196               0.001949831               0.001258635               0.000000000               0.000000000               0.000000000               0.000000000              -0.000164776               0.005069832              -0.000032447              -0.000695518               0.001921766               0.001226248               0.000000000               0.000000000               0.000000000               0.000000000              -0.001419369               0.001630839              -0.000838698              -0.000736117               0.000788979               0.000052862               0.000000000               0.000000000               0.000000000               0.000000000              -0.001205494               0.002996715              -0.001569143              -0.000826649               0.001274444               0.000447795               0.000000000               0.000000000               0.000000000               0.000000000              -0.001340767               0.004456885              -0.002085985              -0.001059897               0.001838912               0.000779015               0.000000000               0.000000000               0.000000000               0.000000000              -0.001265762               0.005227041              -0.002007248              -0.001128039               0.002118342               0.000990303               0.000000000               0.000000000               0.000000000               0.000000000              -0.001116082               0.005643543              -0.001785571              -0.001123972               0.002255819               0.001131847               0.000000000               0.000000000               0.000000000               0.000000000              -0.000937334               0.005856787              -0.001550472              -0.001083597               0.002313441               0.001229845               0.000000000               0.000000000               0.000000000               0.000000000              -0.000750592               0.005939678              -0.001344204              -0.001023930               0.002321182               0.001297253               0.000000000               0.000000000               0.000000000               0.000000000              -0.000571274               0.005940452              -0.001164463              -0.000956782               0.002299058               0.001342276               0.000000000               0.000000000               0.000000000               0.000000000              -0.000411873               0.005892087              -0.001007439              -0.000890961               0.002260996               0.001370035               0.000000000               0.000000000               0.000000000               0.000000000              -0.000275552               0.005820096              -0.000868219              -0.000830842               0.002216960               0.001386118               0.000000000               0.000000000               0.000000000               0.000000000              -0.000158381               0.005738754              -0.000739368              -0.000776735               0.002171811               0.001395075               0.000000000               0.000000000               0.000000000               0.000000000              -0.000065886               0.005642993              -0.000616148              -0.000730080               0.002124339               0.001394259               0.000000000               0.000000000               0.000000000               0.000000000              -0.000001202               0.005529073              -0.000493822              -0.000691583               0.002073534               0.001381950               0.000000000               0.000000000               0.000000000               0.000000000               0.000037738               0.005407752              -0.000369445              -0.000661816               0.002023171               0.001361355               0.000000000               0.000000000               0.000000000               0.000000000               0.000037774               0.005287222              -0.000241670              -0.000646736               0.001977968               0.001331232               0.000000000               0.000000000               0.000000000               0.000000000              -0.000017829               0.005148236              -0.000117424              -0.000650214               0.001932799               0.001282586               0.000000000               0.000000000               0.000000000               0.000000000              -0.000076043               0.005059946              -0.000052392              -0.000661008               0.001906968               0.001245960               0.000000000               0.000000000               0.000000000               0.000000000              -0.002528725               0.000751825              -0.000335112              -0.001042249               0.000598020              -0.000444228               0.000000000               0.000000000               0.000000000               0.000000000              -0.001686947               0.001980355              -0.001242395              -0.000880148               0.000953493               0.000073345               0.000000000               0.000000000               0.000000000               0.000000000              -0.001322705               0.003284670              -0.001972390              -0.000906597               0.001397077               0.000490480               0.000000000               0.000000000               0.000000000               0.000000000              -0.001084241               0.004147884              -0.002028629              -0.000925075               0.001690972               0.000765897               0.000000000               0.000000000               0.000000000               0.000000000              -0.000896441               0.004717895              -0.001879519              -0.000925901               0.001881249               0.000955348               0.000000000               0.000000000               0.000000000               0.000000000              -0.000723806               0.005084000              -0.001682156              -0.000906926               0.001996958               0.001090032               0.000000000               0.000000000               0.000000000               0.000000000              -0.000562511               0.005305080              -0.001492171              -0.000874075               0.002059700               0.001185625               0.000000000               0.000000000               0.000000000               0.000000000              -0.000405944               0.005427580              -0.001318063              -0.000830675               0.002086067               0.001255391               0.000000000               0.000000000               0.000000000               0.000000000              -0.000258249               0.005482241              -0.001161463              -0.000782122               0.002088103               0.001305980               0.000000000               0.000000000               0.000000000               0.000000000              -0.000127733               0.005497670              -0.001021001              -0.000735107               0.002077574               0.001342467               0.000000000               0.000000000               0.000000000               0.000000000              -0.000010569               0.005494346              -0.000890860              -0.000690755               0.002061682               0.001370927               0.000000000               0.000000000               0.000000000               0.000000000               0.000094741               0.005464351              -0.000764973              -0.000647514               0.002037270               0.001389756               0.000000000               0.000000000               0.000000000               0.000000000               0.000181122               0.005405183              -0.000638366              -0.000607726               0.002004285               0.001396559               0.000000000               0.000000000               0.000000000               0.000000000               0.000241735               0.005326366              -0.000499389              -0.000575144               0.001967152               0.001392008               0.000000000               0.000000000               0.000000000               0.000000000               0.000267249               0.005238219              -0.000340593              -0.000554558               0.001930908               0.001376350               0.000000000               0.000000000               0.000000000               0.000000000               0.000236081               0.005127013              -0.000171715              -0.000552345               0.001893102               0.001340757               0.000000000               0.000000000               0.000000000               0.000000000               0.000185466               0.005051042              -0.000081465              -0.000561829               0.001870940               0.001309111               0.000000000               0.000000000               0.000000000               0.000000000              -0.003618216               0.000155898               0.000001993              -0.001376317               0.000510735              -0.000865582               0.000000000               0.000000000               0.000000000               0.000000000              -0.002187871               0.001151874              -0.000898777              -0.000964434               0.000705431              -0.000259004               0.000000000               0.000000000               0.000000000               0.000000000              -0.001307488               0.002209291              -0.001672713              -0.000766469               0.000991912               0.000225443               0.000000000               0.000000000               0.000000000               0.000000000              -0.000871187               0.003082765              -0.001817965              -0.000712040               0.001264924               0.000552884               0.000000000               0.000000000               0.000000000               0.000000000              -0.000615601               0.003745308              -0.001744991              -0.000699013               0.001481427               0.000782414               0.000000000               0.000000000               0.000000000               0.000000000              -0.000435679               0.004233612              -0.001601002              -0.000692580               0.001642050               0.000949469               0.000000000               0.000000000               0.000000000               0.000000000              -0.000294902               0.004582760              -0.001446609              -0.000683432               0.001755382               0.001071949               0.000000000               0.000000000               0.000000000               0.000000000              -0.000168799               0.004823257              -0.001300281              -0.000666206               0.001829804               0.001163599               0.000000000               0.000000000               0.000000000               0.000000000              -0.000043717               0.004989152              -0.001161968              -0.000640037               0.001876380               0.001236343               0.000000000               0.000000000               0.000000000               0.000000000               0.000076735               0.005102703              -0.001034679              -0.000609061               0.001903904               0.001294843               0.000000000               0.000000000               0.000000000               0.000000000               0.000191856               0.005177168              -0.000921882              -0.000575199               0.001917438               0.001342239               0.000000000               0.000000000               0.000000000               0.000000000               0.000306642               0.005218262              -0.000815227              -0.000537291               0.001918500               0.001381209               0.000000000               0.000000000               0.000000000               0.000000000               0.000418476               0.005230169              -0.000701426              -0.000496841               0.001908986               0.001412144               0.000000000               0.000000000               0.000000000               0.000000000               0.000517752               0.005215264              -0.000569270              -0.000457750               0.001890987               0.001433237               0.000000000               0.000000000               0.000000000               0.000000000               0.000599113               0.005178254              -0.000407760              -0.000422613               0.001866939               0.001444325               0.000000000               0.000000000               0.000000000               0.000000000               0.000641212               0.005104102              -0.000215852              -0.000397557               0.001833869               0.001436312               0.000000000               0.000000000               0.000000000               0.000000000               0.000645213               0.005050175              -0.000111528              -0.000389316               0.001813147               0.001423831               0.000000000               0.000000000               0.000000000               0.000000000              -0.004548417              -0.000204544               0.000146503              -0.001680087               0.000491844              -0.001188243               0.000000000               0.000000000               0.000000000               0.000000000              -0.002638629               0.000544403              -0.000572506              -0.001057535               0.000533975              -0.000523560               0.000000000               0.000000000               0.000000000               0.000000000              -0.001307448               0.001340609              -0.001214624              -0.000657868               0.000666154               0.000008285               0.000000000               0.000000000               0.000000000               0.000000000              -0.000675485               0.002170561              -0.001375973              -0.000524627               0.000898388               0.000373761               0.000000000               0.000000000               0.000000000               0.000000000              -0.000340377               0.002877556              -0.001356886              -0.000487336               0.001121620               0.000634285               0.000000000               0.000000000               0.000000000               0.000000000              -0.000142561               0.003448158              -0.001269860              -0.000484480               0.001310867               0.000826387               0.000000000               0.000000000               0.000000000               0.000000000              -0.000009201               0.003894459              -0.001164362              -0.000490257               0.001461559               0.000971302               0.000000000               0.000000000               0.000000000               0.000000000               0.000093907               0.004234365              -0.001059366              -0.000494080               0.001576134               0.001082054               0.000000000               0.000000000               0.000000000               0.000000000               0.000192689               0.004496972              -0.000956778              -0.000489863               0.001662263               0.001172401               0.000000000               0.000000000               0.000000000               0.000000000               0.000299150               0.004695937              -0.000860578              -0.000474810               0.001723567               0.001248757               0.000000000               0.000000000               0.000000000               0.000000000               0.000414382               0.004846256              -0.000777032              -0.000450388               0.001765532               0.001315144               0.000000000               0.000000000               0.000000000               0.000000000               0.000535829               0.004961593              -0.000700850              -0.000419262               0.001793602               0.001374339               0.000000000               0.000000000               0.000000000               0.000000000               0.000669149               0.005044412              -0.000617283              -0.000379620               0.001807994               0.001428374               0.000000000               0.000000000               0.000000000               0.000000000               0.000814447               0.005096499              -0.000514772              -0.000331644               0.001809364               0.001477720               0.000000000               0.000000000               0.000000000               0.000000000               0.000971597               0.005116385              -0.000382451              -0.000275199               0.001797177               0.001521979               0.000000000               0.000000000               0.000000000               0.000000000               0.001129419               0.005079458              -0.000210364              -0.000211400               0.001763602               0.001552203               0.000000000               0.000000000               0.000000000               0.000000000               0.001238609               0.005053005              -0.000116451              -0.000167147               0.001740034               0.001572887               0.000000000               0.000000000               0.000000000               0.000000000              -0.005177508              -0.000385882               0.000122354              -0.001893329               0.000502479              -0.001390850               0.000000000               0.000000000               0.000000000               0.000000000              -0.002954507               0.000176955              -0.000275356              -0.001130058               0.000435668              -0.000694390               0.000000000               0.000000000               0.000000000               0.000000000              -0.001311061               0.000774255              -0.000638706              -0.000588429               0.000454224              -0.000134205               0.000000000               0.000000000               0.000000000               0.000000000              -0.000534588               0.001551469              -0.000743318              -0.000394404               0.000648619               0.000254215               0.000000000               0.000000000               0.000000000               0.000000000              -0.000139277               0.002275229              -0.000745518              -0.000336632               0.000870613               0.000533980               0.000000000               0.000000000               0.000000000               0.000000000               0.000077370               0.002890053              -0.000706498              -0.000332242               0.001074089               0.000741846               0.000000000               0.000000000               0.000000000               0.000000000               0.000209797               0.003392109              -0.000654538              -0.000345339               0.001245805               0.000900465               0.000000000               0.000000000               0.000000000               0.000000000               0.000303111               0.003795825              -0.000600639              -0.000360811               0.001385533               0.001024722               0.000000000               0.000000000               0.000000000               0.000000000               0.000387369               0.004121348              -0.000546818              -0.000369905               0.001497070               0.001127166               0.000000000               0.000000000               0.000000000               0.000000000               0.000480525               0.004382380              -0.000496438              -0.000367600               0.001583312               0.001215712               0.000000000               0.000000000               0.000000000               0.000000000               0.000590721               0.004593193              -0.000450926              -0.000352628               0.001648591               0.001295964               0.000000000               0.000000000               0.000000000               0.000000000               0.000717526               0.004763102              -0.000410239              -0.000326315               0.001696457               0.001370142               0.000000000               0.000000000               0.000000000               0.000000000               0.000867484               0.004898914              -0.000366165              -0.000287057               0.001728641               0.001441584               0.000000000               0.000000000               0.000000000               0.000000000               0.001051588               0.005004858              -0.000309995              -0.000231261               0.001745357               0.001514095               0.000000000               0.000000000               0.000000000               0.000000000               0.001279474               0.005073189              -0.000235547              -0.000154346               0.001742495               0.001588149               0.000000000               0.000000000               0.000000000               0.000000000               0.001552222               0.005066465              -0.000133118              -0.000051225               0.001705880               0.001654655               0.000000000               0.000000000               0.000000000               0.000000000               0.001772438               0.005063138              -0.000077985               0.000031771               0.001677105               0.001708877               0.000000000               0.000000000               0.000000000               0.000000000               0.000000000               0.000000000               0.000000000               0.000000000               0.000000000               0.000000000               0.000000000               0.000000000               0.000000000               0.000000000               0.000000000               0.000000000               0.000000000               0.000000000               0.000000000               0.000000000               0.000000000               0.000000000               0.000000000               0.000000000               0.000000000               0.000000000               0.000000000               0.000000000               0.000000000               0.000000000               0.000000000               0.000000000               0.000000000               0.000000000               0.000000000               0.000000000               0.000000000               0.000000000               0.000000000               0.000000000               0.000000000               0.000000000               0.000000000               0.000000000               0.000000000               0.000000000               0.000000000               0.000000000               0.000000000               0.000000000               0.000000000               0.000000000               0.000000000               0.000000000               0.000000000               0.000000000               0.000000000               0.000000000               0.000000000               0.000000000               0.000000000               0.000000000               0.000000000               0.000000000               0.000000000               0.000000000               0.000000000               0.000000000               0.000000000               0.000000000               0.000000000               0.000000000               0.000000000               0.000000000               0.000000000               0.000000000               0.000000000               0.000000000               0.000000000               0.000000000               0.000000000               0.000000000               0.000000000               0.000000000               0.000000000               0.000000000               0.000000000               0.000000000               0.000000000               0.000000000               0.000000000               0.000000000               0.000000000               0.000000000               0.000000000               0.000000000               0.000000000               0.000000000               0.000000000               0.000000000               0.000000000               0.000000000               0.000000000               0.000000000               0.000000000               0.000000000               0.000000000               0.000000000               0.000000000               0.000000000               0.000000000               0.000000000               0.000000000               0.000000000               0.000000000               0.000000000               0.000000000               0.000000000               0.000000000               0.000000000               0.000000000               0.000000000               0.000000000               0.000000000               0.000000000               0.000000000               0.000000000               0.000000000               0.000000000               0.000000000               0.000000000               0.000000000               0.000000000               0.000000000               0.000000000               0.000000000               0.000000000               0.000000000               0.000000000               0.000000000               0.000000000               0.000000000               0.000000000               0.000000000               0.000000000               0.000000000               0.000000000               0.000000000               0.000000000               0.000000000               0.000000000               0.000000000               0.000000000               0.000000000               0.000000000               0.000000000               0.000000000               0.000000000               0.000000000               0.000000000               0.000000000               0.000000000               0.000000000               0.000000000               0.000000000               0.000000000               0.000000000               0.000000000               0.000000000               0.000000000               0.000000000               0.000000000               0.000000000               0.000000000               0.000000000               0.000000000               0.000000000               0.000000000               0.000000000               0.000000000               0.000000000               0.000000000               0.000000000               0.000000000               0.000000000               0.000000000               0.000000000               0.000000000               0.000000000               0.000000000               0.000000000               0.000000000               0.000000000               0.000000000               0.000000000               0.000000000               0.000000000               0.000000000               0.000000000               0.000000000               0.000000000               0.000000000               0.000000000               0.000000000               0.000000000               0.000000000               0.000000000               0.000000000               0.000000000               0.000000000               0.000000000               0.000000000               0.000000000               0.000000000               0.000000000               0.000000000               0.000000000               0.000000000               0.000000000               0.000000000               0.000000000               0.000000000               0.000000000               0.000000000               0.000000000               0.000000000               0.000000000               0.000000000               0.000000000               0.000000000               0.000000000               0.000000000               0.000000000               0.000000000               0.000000000               0.000000000               0.000000000               0.000000000               0.000000000               0.000000000               0.000000000               0.000000000               0.000000000               0.000000000               0.000000000               0.000000000               0.000000000               0.000000000               0.000000000               0.000000000               0.000000000               0.000000000               0.000000000               0.000000000               0.000000000               0.000000000               0.000000000               0.000000000               0.000000000               0.000000000               0.000000000               0.000000000               0.000000000               0.000000000               0.000000000               0.000000000               0.000000000               0.000000000               0.000000000               0.000000000               0.000000000               0.000000000               0.000000000               0.000000000               0.000000000               0.000000000               0.000000000               0.000000000               0.000000000               0.000000000               0.000000000               0.000000000               0.000000000               0.000000000               0.000000000               0.000000000               0.000000000               0.000000000               0.000000000               0.000000000               0.000000000               0.000000000               0.000000000               0.000000000               0.000000000               0.000000000               0.000000000               0.000000000               0.000000000               0.000000000               0.000000000               0.000000000               0.000000000               0.000000000               0.000000000               0.000000000               0.000000000               0.000000000               0.000000000               0.000000000               0.000000000               0.000000000               0.000000000               0.000000000               0.000000000               0.000000000               0.000000000               0.000000000               0.000000000               0.000000000               0.000000000               0.000000000               0.000000000               0.000000000               0.000000000               0.000000000               0.000000000               0.000000000               0.000000000               0.000000000               0.000000000               0.000000000               0.000000000               0.000000000               0.000000000               0.000000000               0.000000000               0.000000000               0.000000000               0.000000000               0.000000000               0.000000000               0.000000000               0.000000000               0.001692708               0.017674518               0.001280990              -0.001574546               0.006416295               0.004841750               0.000000000               0.000000000               0.000000000               0.000000000               0.001649410               0.014146236               0.000705565              -0.001149748               0.005098614               0.003948866               0.000000000               0.000000000               0.000000000               0.000000000               0.002120635               0.011329887               0.000124492              -0.000620996               0.003983590               0.003362594               0.000000000               0.000000000               0.000000000               0.000000000               0.002041348               0.009764896              -0.000129480              -0.000455106               0.003406635               0.002951529               0.000000000               0.000000000               0.000000000               0.000000000               0.001794129               0.008805951              -0.000239185              -0.000427944               0.003077936               0.002649991               0.000000000               0.000000000               0.000000000               0.000000000               0.001519731               0.008166678              -0.000280891              -0.000450935               0.002872510               0.002421576               0.000000000               0.000000000               0.000000000               0.000000000               0.001256548               0.007707158              -0.000291738              -0.000492188               0.002733090               0.002240902               0.000000000               0.000000000               0.000000000               0.000000000               0.001014758               0.007356238              -0.000288343              -0.000538994               0.002631720               0.002092725               0.000000000               0.000000000               0.000000000               0.000000000               0.000798014               0.007068128              -0.000275048              -0.000584259               0.002550772               0.001966513               0.000000000               0.000000000               0.000000000               0.000000000               0.000615697               0.006816699              -0.000259264              -0.000621200               0.002479277               0.001858077               0.000000000               0.000000000               0.000000000               0.000000000               0.000468561               0.006588354              -0.000246428              -0.000647832               0.002412040               0.001764208               0.000000000               0.000000000               0.000000000               0.000000000               0.000343675               0.006372604              -0.000232453              -0.000667696               0.002346745               0.001679050               0.000000000               0.000000000               0.000000000               0.000000000               0.000235274               0.006158624              -0.000212541              -0.000681599               0.002280054               0.001598455               0.000000000               0.000000000               0.000000000               0.000000000               0.000145156               0.005936637              -0.000184961              -0.000687644               0.002208074               0.001520430               0.000000000               0.000000000               0.000000000               0.000000000               0.000074101               0.005695115              -0.000144330              -0.000684100               0.002126386               0.001442286               0.000000000               0.000000000               0.000000000               0.000000000               0.000025969               0.005422442              -0.000082191              -0.000668065               0.002030151               0.001362086               0.000000000               0.000000000               0.000000000               0.000000000              -0.000012792               0.005215564              -0.000049264              -0.000656741               0.001957418               0.001300677               0.000000000               0.000000000               0.000000000               0.000000000               0.001886734               0.016692739               0.002391541              -0.001379065               0.006023879               0.004644814               0.000000000               0.000000000               0.000000000               0.000000000               0.001609644               0.013493988               0.001315564              -0.001083130               0.004858994               0.003775864               0.000000000               0.000000000               0.000000000               0.000000000               0.001831865               0.011028273               0.000237890              -0.000691583               0.003906582               0.003214999               0.000000000               0.000000000               0.000000000               0.000000000               0.001662834               0.009645024              -0.000220487              -0.000582064               0.003408997               0.002826933               0.000000000               0.000000000               0.000000000               0.000000000               0.001397193               0.008780411              -0.000410960              -0.000573603               0.003117976               0.002544373               0.000000000               0.000000000               0.000000000               0.000000000               0.001131708               0.008188905              -0.000479604              -0.000599221               0.002929348               0.002330127               0.000000000               0.000000000               0.000000000               0.000000000               0.000897442               0.007755040              -0.000496337              -0.000632838               0.002795933               0.002163096               0.000000000               0.000000000               0.000000000               0.000000000               0.000697280               0.007414907              -0.000489442              -0.000665382               0.002693405               0.002028023               0.000000000               0.000000000               0.000000000               0.000000000               0.000523809               0.007129356              -0.000467042              -0.000694740               0.002608008               0.001913268               0.000000000               0.000000000               0.000000000               0.000000000               0.000380164               0.006879030              -0.000437834              -0.000717316               0.002532092               0.001814777               0.000000000               0.000000000               0.000000000               0.000000000               0.000269264               0.006650070              -0.000410936              -0.000730283               0.002460096               0.001729813               0.000000000               0.000000000               0.000000000               0.000000000               0.000181651               0.006434869              -0.000383709              -0.000736238               0.002390347               0.001654110               0.000000000               0.000000000               0.000000000               0.000000000               0.000110791               0.006228572              -0.000348565              -0.000737023               0.002321844               0.001584821               0.000000000               0.000000000               0.000000000               0.000000000               0.000059021               0.006026720              -0.000299540              -0.000731206               0.002252622               0.001521416               0.000000000               0.000000000               0.000000000               0.000000000               0.000025577               0.005823352              -0.000229539              -0.000718326               0.002180540               0.001462214               0.000000000               0.000000000               0.000000000               0.000000000               0.000006558               0.005619517              -0.000129477              -0.000699979               0.002106480               0.001406501               0.000000000               0.000000000               0.000000000               0.000000000              -0.000012660               0.005482554              -0.000075743              -0.000690065               0.002057521               0.001367456               0.000000000               0.000000000               0.000000000               0.000000000               0.002107023               0.015185495               0.003208936              -0.001108053               0.005431132               0.004323079               0.000000000               0.000000000               0.000000000               0.000000000               0.001503152               0.012509686               0.001771484              -0.001000027               0.004503196               0.003503169               0.000000000               0.000000000               0.000000000               0.000000000               0.001380407               0.010580192               0.000351298              -0.000804870               0.003794985               0.002990116               0.000000000               0.000000000               0.000000000               0.000000000               0.001101482               0.009453981              -0.000224756              -0.000768690               0.003407525               0.002638835               0.000000000               0.000000000               0.000000000               0.000000000               0.000829946               0.008713233              -0.000454131              -0.000777923               0.003163690               0.002385767               0.000000000               0.000000000               0.000000000               0.000000000               0.000602065               0.008184629              -0.000533155              -0.000797302               0.002993950               0.002196648               0.000000000               0.000000000               0.000000000               0.000000000               0.000422452               0.007780377              -0.000549522              -0.000814126               0.002864808               0.002050683               0.000000000               0.000000000               0.000000000               0.000000000               0.000284888               0.007449177              -0.000538663              -0.000824312               0.002757805               0.001933493               0.000000000               0.000000000               0.000000000               0.000000000               0.000176073               0.007163901              -0.000512565              -0.000829458               0.002664429               0.001834971               0.000000000               0.000000000               0.000000000               0.000000000               0.000091827               0.006913374              -0.000478825              -0.000829735               0.002581013               0.001751278               0.000000000               0.000000000               0.000000000               0.000000000               0.000030435               0.006688567              -0.000444860              -0.000824656               0.002504385               0.001679729               0.000000000               0.000000000               0.000000000               0.000000000              -0.000010841               0.006482370              -0.000410447              -0.000814360               0.002432222               0.001617862               0.000000000               0.000000000               0.000000000               0.000000000              -0.000030708               0.006292107              -0.000366448              -0.000798027               0.002363357               0.001565330               0.000000000               0.000000000               0.000000000               0.000000000              -0.000032634               0.006113852              -0.000305551              -0.000776467               0.002296753               0.001520285               0.000000000               0.000000000               0.000000000               0.000000000              -0.000021215               0.005952518              -0.000225403              -0.000752019               0.002234826               0.001482807               0.000000000               0.000000000               0.000000000               0.000000000              -0.000009072               0.005820543              -0.000123291              -0.000730968               0.002183818               0.001452850               0.000000000               0.000000000               0.000000000               0.000000000              -0.000009881               0.005751310              -0.000069005              -0.000722617               0.002157957               0.001435339               0.000000000               0.000000000               0.000000000               0.000000000               0.002254180               0.013319518               0.003675070              -0.000819623               0.004713002               0.003893379               0.000000000               0.000000000               0.000000000               0.000000000               0.001305833               0.011318398               0.002061126              -0.000925111               0.004081132               0.003156020               0.000000000               0.000000000               0.000000000               0.000000000               0.000818846               0.010035460               0.000489582              -0.000947363               0.003660908               0.002713545               0.000000000               0.000000000               0.000000000               0.000000000               0.000458917               0.009195813              -0.000114218              -0.000977380               0.003391034               0.002413654               0.000000000               0.000000000               0.000000000               0.000000000               0.000213760               0.008588015              -0.000347707              -0.000993340               0.003193756               0.002200417               0.000000000               0.000000000               0.000000000               0.000000000               0.000052238               0.008118532              -0.000427700              -0.000995225               0.003037892               0.002042667               0.000000000               0.000000000               0.000000000               0.000000000              -0.000048834               0.007735882              -0.000445910              -0.000985296               0.002907033               0.001921738               0.000000000               0.000000000               0.000000000               0.000000000              -0.000107478               0.007411769              -0.000439136              -0.000966773               0.002792822               0.001826049               0.000000000               0.000000000               0.000000000               0.000000000              -0.000140460               0.007127967              -0.000420019              -0.000943666               0.002690521               0.001746854               0.000000000               0.000000000               0.000000000               0.000000000              -0.000159358               0.006877924              -0.000394149              -0.000919497               0.002599117               0.001679620               0.000000000               0.000000000               0.000000000               0.000000000              -0.000165565               0.006659776              -0.000364433              -0.000894557               0.002518089               0.001623532               0.000000000               0.000000000               0.000000000               0.000000000              -0.000159125               0.006465157              -0.000331773              -0.000867814               0.002444302               0.001576488               0.000000000               0.000000000               0.000000000               0.000000000              -0.000137732               0.006288015              -0.000287167              -0.000837649               0.002375200               0.001537551               0.000000000               0.000000000               0.000000000               0.000000000              -0.000101287               0.006130436              -0.000226788              -0.000804285               0.002311553               0.001507268               0.000000000               0.000000000               0.000000000               0.000000000              -0.000059159               0.006003069              -0.000157967              -0.000772566               0.002258525               0.001485959               0.000000000               0.000000000               0.000000000               0.000000000              -0.000024951               0.005917172              -0.000082798              -0.000749001               0.002222038               0.001473037               0.000000000               0.000000000               0.000000000               0.000000000              -0.000013051               0.005883154              -0.000044303              -0.000740287               0.002207794               0.001467507               0.000000000               0.000000000               0.000000000               0.000000000               0.002247448               0.011283711               0.003792654              -0.000567673               0.003950423               0.003382750               0.000000000               0.000000000               0.000000000               0.000000000               0.001016973               0.010043039               0.002206085              -0.000874015               0.003638984               0.002764969               0.000000000               0.000000000               0.000000000               0.000000000               0.000219220               0.009433953               0.000671132              -0.001097034               0.003510298               0.002413264               0.000000000               0.000000000               0.000000000               0.000000000              -0.000160855               0.008870612               0.000103626              -0.001169144               0.003346556               0.002177412               0.000000000               0.000000000               0.000000000               0.000000000              -0.000339348               0.008383964              -0.000116968              -0.001175248               0.003186376               0.002011128               0.000000000               0.000000000               0.000000000               0.000000000              -0.000412923               0.007965012              -0.000201724              -0.001150470               0.003038468               0.001887998               0.000000000               0.000000000               0.000000000               0.000000000              -0.000424251               0.007603873              -0.000235130              -0.001109575               0.002904457               0.001794882               0.000000000               0.000000000               0.000000000               0.000000000              -0.000400219               0.007290003              -0.000246645              -0.001061330               0.002783753               0.001722423               0.000000000               0.000000000               0.000000000               0.000000000              -0.000363628               0.007011860              -0.000245764              -0.001012840               0.002674877               0.001662036               0.000000000               0.000000000               0.000000000               0.000000000              -0.000325618               0.006766709              -0.000239342              -0.000967943               0.002578195               0.001610252               0.000000000               0.000000000               0.000000000               0.000000000              -0.000284139               0.006555059              -0.000226309              -0.000925932               0.002493642               0.001567710               0.000000000               0.000000000               0.000000000               0.000000000              -0.000235686               0.006364695              -0.000204001              -0.000883967               0.002416199               0.001532232               0.000000000               0.000000000               0.000000000               0.000000000              -0.000183265               0.006192978              -0.000169417              -0.000842844               0.002345254               0.001502409               0.000000000               0.000000000               0.000000000               0.000000000              -0.000126333               0.006050533              -0.000124113              -0.000803689               0.002284720               0.001481031               0.000000000               0.000000000               0.000000000               0.000000000              -0.000071851               0.005944528              -0.000079399              -0.000770008               0.002238159               0.001468151               0.000000000               0.000000000               0.000000000               0.000000000              -0.000030925               0.005875158              -0.000039493              -0.000745990               0.002207030               0.001461040               0.000000000               0.000000000               0.000000000               0.000000000              -0.000018008               0.005844067              -0.000022120              -0.000737260               0.002193756               0.001456496               0.000000000               0.000000000               0.000000000               0.000000000               0.002037511               0.009252053               0.003612825              -0.000392443               0.003214800               0.002822357               0.000000000               0.000000000               0.000000000               0.000000000               0.000654456               0.008783075               0.002239134              -0.000852463               0.003211816               0.002359353               0.000000000               0.000000000               0.000000000               0.000000000              -0.000345137               0.008808274               0.000895987              -0.001230458               0.003346215               0.002115757               0.000000000               0.000000000               0.000000000               0.000000000              -0.000679844               0.008481058               0.000396110              -0.001315071               0.003265348               0.001950277               0.000000000               0.000000000               0.000000000               0.000000000              -0.000763676               0.008096807               0.000183288              -0.001298476               0.003131734               0.001833258               0.000000000               0.000000000               0.000000000               0.000000000              -0.000736253               0.007726626               0.000079381              -0.001241920               0.002989489               0.001747570               0.000000000               0.000000000               0.000000000               0.000000000              -0.000660514               0.007391548               0.000017647              -0.001171633               0.002854369               0.001682736               0.000000000               0.000000000               0.000000000               0.000000000              -0.000565236               0.007093154              -0.000022818              -0.001098605               0.002730563               0.001631958               0.000000000               0.000000000               0.000000000               0.000000000              -0.000473547               0.006827087              -0.000048742              -0.001030963               0.002619327               0.001588364               0.000000000               0.000000000               0.000000000               0.000000000              -0.000392218               0.006590594              -0.000068258              -0.000970904               0.002520477               0.001549574               0.000000000               0.000000000               0.000000000               0.000000000              -0.000317209               0.006378223              -0.000076082              -0.000916229               0.002431463               0.001515234               0.000000000               0.000000000               0.000000000               0.000000000              -0.000243017               0.006185557              -0.000068000              -0.000864324               0.002349940               0.001485616               0.000000000               0.000000000               0.000000000               0.000000000              -0.000172511               0.006017326              -0.000050779              -0.000816855               0.002278040               0.001461185               0.000000000               0.000000000               0.000000000               0.000000000              -0.000109341               0.005880227              -0.000028664              -0.000776029               0.002218732               0.001442703               0.000000000               0.000000000               0.000000000               0.000000000              -0.000057169               0.005773552              -0.000012197              -0.000743131               0.002172208               0.001429078               0.000000000               0.000000000               0.000000000               0.000000000              -0.000021080               0.005690179              -0.000003656              -0.000719176               0.002136433               0.001417257               0.000000000               0.000000000               0.000000000               0.000000000              -0.000015445               0.005640370              -0.000005177              -0.000710836               0.002117050               0.001406214               0.000000000               0.000000000               0.000000000               0.000000000               0.001634635               0.007357419               0.003206213              -0.000306692               0.002554678               0.002247986               0.000000000               0.000000000               0.000000000               0.000000000               0.000241428               0.007615335               0.002191127              -0.000861381               0.002825546               0.001964165               0.000000000               0.000000000               0.000000000               0.000000000              -0.000816807               0.008171248               0.001154133              -0.001327706               0.003166290               0.001838585               0.000000000               0.000000000               0.000000000               0.000000000              -0.001048939               0.008035256               0.000718974              -0.001397756               0.003144310               0.001746555               0.000000000               0.000000000               0.000000000               0.000000000              -0.001025271               0.007742385               0.000495018              -0.001352271               0.003031526               0.001679255               0.000000000               0.000000000               0.000000000               0.000000000              -0.000907247               0.007424934               0.000359940              -0.001268331               0.002897730               0.001629399               0.000000000               0.000000000               0.000000000               0.000000000              -0.000758539               0.007124408               0.000262042              -0.001175000               0.002766446               0.001591446               0.000000000               0.000000000               0.000000000               0.000000000              -0.000613091               0.006848060               0.000186370              -0.001085914               0.002644635               0.001558721               0.000000000               0.000000000               0.000000000               0.000000000              -0.000484084               0.006597076               0.000130641              -0.001006163               0.002534391               0.001528228               0.000000000               0.000000000               0.000000000               0.000000000              -0.000379662               0.006364478               0.000088067              -0.000937931               0.002434115               0.001496184               0.000000000               0.000000000               0.000000000               0.000000000              -0.000290125               0.006146901               0.000060042              -0.000877157               0.002341332               0.001464175               0.000000000               0.000000000               0.000000000               0.000000000              -0.000204612               0.005953811               0.000047337              -0.000820954               0.002258235               0.001437281               0.000000000               0.000000000               0.000000000               0.000000000              -0.000132490               0.005787031               0.000040606              -0.000773061               0.002186678               0.001413617               0.000000000               0.000000000               0.000000000               0.000000000              -0.000079083               0.005646710               0.000035535              -0.000735493               0.002127382               0.001391889               0.000000000               0.000000000               0.000000000               0.000000000              -0.000043470               0.005531418               0.000027132              -0.000707727               0.002079696               0.001371970               0.000000000               0.000000000               0.000000000               0.000000000              -0.000021486               0.005431611               0.000013153              -0.000687007               0.002039521               0.001352514               0.000000000               0.000000000               0.000000000               0.000000000              -0.000021917               0.005366166              -0.000001505              -0.000678988               0.002015033               0.001336045               0.000000000               0.000000000               0.000000000               0.000000000               0.001116210               0.005736770               0.002661859              -0.000298520               0.002011743               0.001713223               0.000000000               0.000000000               0.000000000               0.000000000              -0.000150423               0.006571386               0.002108610              -0.000877831               0.002483050               0.001605219               0.000000000               0.000000000               0.000000000               0.000000000              -0.001153396               0.007554424               0.001448669              -0.001376823               0.002977057               0.001600234               0.000000000               0.000000000               0.000000000               0.000000000              -0.001273744               0.007612460               0.001057774              -0.001429208               0.003013864               0.001584656               0.000000000               0.000000000               0.000000000               0.000000000              -0.001160873               0.007426010               0.000808849              -0.001363575               0.002929837               0.001566262               0.000000000               0.000000000               0.000000000               0.000000000              -0.000976132               0.007176490               0.000633433              -0.001263108               0.002813175               0.001550068               0.000000000               0.000000000               0.000000000               0.000000000              -0.000779037               0.006922816               0.000496565              -0.001157488               0.002693412               0.001535924               0.000000000               0.000000000               0.000000000               0.000000000              -0.000604848               0.006675271               0.000387138              -0.001061224               0.002578810               0.001517585               0.000000000               0.000000000               0.000000000               0.000000000              -0.000458300               0.006436441               0.000304560              -0.000976415               0.002470931               0.001494515               0.000000000               0.000000000               0.000000000               0.000000000              -0.000338631               0.006207384               0.000240899              -0.000902907               0.002370076               0.001467169               0.000000000               0.000000000               0.000000000               0.000000000              -0.000241765               0.005991527               0.000189852              -0.000839601               0.002277023               0.001437422               0.000000000               0.000000000               0.000000000               0.000000000              -0.000156804               0.005796413               0.000148193              -0.000783351               0.002193235               0.001409884               0.000000000               0.000000000               0.000000000               0.000000000              -0.000094140               0.005624224               0.000111690              -0.000738328               0.002120832               0.001382504               0.000000000               0.000000000               0.000000000               0.000000000              -0.000060345               0.005478262               0.000078800              -0.000707410               0.002061873               0.001354462               0.000000000               0.000000000               0.000000000               0.000000000              -0.000042391               0.005357953               0.000046879              -0.000685639               0.002014513               0.001328874               0.000000000               0.000000000               0.000000000               0.000000000              -0.000045646               0.005239603               0.000018567              -0.000672066               0.001970539               0.001298473               0.000000000               0.000000000               0.000000000               0.000000000              -0.000058672               0.005163862               0.000002147              -0.000667483               0.001943764               0.001276281               0.000000000               0.000000000               0.000000000               0.000000000               0.000471906               0.004207302               0.002063311              -0.000348949               0.001518735               0.001169786               0.000000000               0.000000000               0.000000000               0.000000000              -0.000450253               0.005364332               0.002005236              -0.000839386               0.002067887               0.001228501               0.000000000               0.000000000               0.000000000               0.000000000              -0.001296575               0.006650827               0.001767077              -0.001317566               0.002656109               0.001338542               0.000000000               0.000000000               0.000000000               0.000000000              -0.001365330               0.006978181               0.001434528              -0.001384268               0.002787459               0.001403191               0.000000000               0.000000000               0.000000000               0.000000000              -0.001223849               0.006980487               0.001162437              -0.001331501               0.002770639               0.001439138               0.000000000               0.000000000               0.000000000               0.000000000              -0.001026848               0.006862205               0.000945459              -0.001242841               0.002701659               0.001458818               0.000000000               0.000000000               0.000000000               0.000000000              -0.000824048               0.006697620               0.000768595              -0.001146218               0.002614590               0.001468372               0.000000000               0.000000000               0.000000000               0.000000000              -0.000637693               0.006512337               0.000627421              -0.001053175               0.002521816               0.001468641               0.000000000               0.000000000               0.000000000               0.000000000              -0.000481770               0.006315581               0.000516046              -0.000970109               0.002428542               0.001458433               0.000000000               0.000000000               0.000000000               0.000000000              -0.000352298               0.006122689               0.000423494              -0.000897445               0.002340024               0.001442579               0.000000000               0.000000000               0.000000000               0.000000000              -0.000250947               0.005936850               0.000342523              -0.000836209               0.002257667               0.001421457               0.000000000               0.000000000               0.000000000               0.000000000              -0.000174499               0.005755659               0.000268694              -0.000784893               0.002180165               0.001395272               0.000000000               0.000000000               0.000000000               0.000000000              -0.000119575               0.005587382               0.000198204              -0.000743262               0.002110196               0.001366934               0.000000000               0.000000000               0.000000000               0.000000000              -0.000093569               0.005436657               0.000135041              -0.000714669               0.002050424               0.001335755               0.000000000               0.000000000               0.000000000               0.000000000              -0.000092910               0.005301437               0.000079994              -0.000697519               0.001999634               0.001302115               0.000000000               0.000000000               0.000000000               0.000000000              -0.000115434               0.005157071               0.000033112              -0.000687920               0.001948313               0.001260393               0.000000000               0.000000000               0.000000000               0.000000000              -0.000136885               0.005072457               0.000010116              -0.000685387               0.001919265               0.001233877               0.000000000               0.000000000               0.000000000               0.000000000              -0.000394977               0.002804692               0.001441125              -0.000498703               0.001101122               0.000602419               0.000000000               0.000000000               0.000000000               0.000000000              -0.000785203               0.004149181               0.001834086              -0.000813098               0.001654078               0.000840981               0.000000000               0.000000000               0.000000000               0.000000000              -0.001341813               0.005612378               0.002011414              -0.001204725               0.002272348               0.001067623               0.000000000               0.000000000               0.000000000               0.000000000              -0.001368726               0.006198400               0.001790094              -0.001288070               0.002495469               0.001207399               0.000000000               0.000000000               0.000000000               0.000000000              -0.001226624               0.006417661               0.001522521              -0.001262189               0.002559928               0.001297739               0.000000000               0.000000000               0.000000000               0.000000000              -0.001037387               0.006460940               0.001279795              -0.001196635               0.002552503               0.001355868               0.000000000               0.000000000               0.000000000               0.000000000              -0.000838722               0.006409931               0.001077427              -0.001115760               0.002508542               0.001392782               0.000000000               0.000000000               0.000000000               0.000000000              -0.000648107               0.006305686               0.000910772              -0.001031248               0.002445624               0.001414375               0.000000000               0.000000000               0.000000000               0.000000000              -0.000485027               0.006172858               0.000771061              -0.000953490               0.002375429               0.001421939               0.000000000               0.000000000               0.000000000               0.000000000              -0.000349475               0.006032829               0.000649216              -0.000885155               0.002305974               0.001420820               0.000000000               0.000000000               0.000000000               0.000000000              -0.000239818               0.005887668               0.000538961              -0.000825888               0.002237832               0.001411944               0.000000000               0.000000000               0.000000000               0.000000000              -0.000158604               0.005739281               0.000436248              -0.000776885               0.002172036               0.001395151               0.000000000               0.000000000               0.000000000               0.000000000              -0.000103141               0.005590115               0.000334733              -0.000737441               0.002109167               0.001371726               0.000000000               0.000000000               0.000000000               0.000000000              -0.000074580               0.005444626               0.000237713              -0.000708544               0.002051038               0.001342494               0.000000000               0.000000000               0.000000000               0.000000000              -0.000079610               0.005308050               0.000151069              -0.000693358               0.002000452               0.001307093               0.000000000               0.000000000               0.000000000               0.000000000              -0.000123745               0.005158350               0.000073390              -0.000691196               0.001949831               0.001258635               0.000000000               0.000000000               0.000000000               0.000000000              -0.000164776               0.005069832               0.000032447              -0.000695518               0.001921766               0.001226248               0.000000000               0.000000000               0.000000000               0.000000000              -0.001419369               0.001630839               0.000838698              -0.000736117               0.000788979               0.000052862               0.000000000               0.000000000               0.000000000               0.000000000              -0.001205494               0.002996715               0.001569143              -0.000826649               0.001274444               0.000447795               0.000000000               0.000000000               0.000000000               0.000000000              -0.001340767               0.004456885               0.002085985              -0.001059897               0.001838912               0.000779015               0.000000000               0.000000000               0.000000000               0.000000000              -0.001265762               0.005227041               0.002007248              -0.001128039               0.002118342               0.000990303               0.000000000               0.000000000               0.000000000               0.000000000              -0.001116082               0.005643543               0.001785571              -0.001123972               0.002255819               0.001131847               0.000000000               0.000000000               0.000000000               0.000000000              -0.000937334               0.005856787               0.001550472              -0.001083597               0.002313441               0.001229845               0.000000000               0.000000000               0.000000000               0.000000000              -0.000750592               0.005939678               0.001344204              -0.001023930               0.002321182               0.001297253               0.000000000               0.000000000               0.000000000               0.000000000              -0.000571274               0.005940452               0.001164463              -0.000956782               0.002299058               0.001342276               0.000000000               0.000000000               0.000000000               0.000000000              -0.000411873               0.005892087               0.001007439              -0.000890961               0.002260996               0.001370035               0.000000000               0.000000000               0.000000000               0.000000000              -0.000275552               0.005820096               0.000868219              -0.000830842               0.002216960               0.001386118               0.000000000               0.000000000               0.000000000               0.000000000              -0.000158381               0.005738754               0.000739368              -0.000776735               0.002171811               0.001395075               0.000000000               0.000000000               0.000000000               0.000000000              -0.000065886               0.005642993               0.000616148              -0.000730080               0.002124339               0.001394259               0.000000000               0.000000000               0.000000000               0.000000000              -0.000001202               0.005529073               0.000493822              -0.000691583               0.002073534               0.001381950               0.000000000               0.000000000               0.000000000               0.000000000               0.000037738               0.005407752               0.000369445              -0.000661816               0.002023171               0.001361355               0.000000000               0.000000000               0.000000000               0.000000000               0.000037774               0.005287222               0.000241670              -0.000646736               0.001977968               0.001331232               0.000000000               0.000000000               0.000000000               0.000000000              -0.000017829               0.005148236               0.000117424              -0.000650214               0.001932799               0.001282586               0.000000000               0.000000000               0.000000000               0.000000000              -0.000076043               0.005059946               0.000052392              -0.000661008               0.001906968               0.001245960               0.000000000               0.000000000               0.000000000               0.000000000              -0.002528725               0.000751825               0.000335112              -0.001042249               0.000598020              -0.000444228               0.000000000               0.000000000               0.000000000               0.000000000              -0.001686947               0.001980355               0.001242395              -0.000880148               0.000953493               0.000073345               0.000000000               0.000000000               0.000000000               0.000000000              -0.001322705               0.003284670               0.001972390              -0.000906597               0.001397077               0.000490480               0.000000000               0.000000000               0.000000000               0.000000000              -0.001084241               0.004147884               0.002028629              -0.000925075               0.001690972               0.000765897               0.000000000               0.000000000               0.000000000               0.000000000              -0.000896441               0.004717895               0.001879519              -0.000925901               0.001881249               0.000955348               0.000000000               0.000000000               0.000000000               0.000000000              -0.000723806               0.005084000               0.001682156              -0.000906926               0.001996958               0.001090032               0.000000000               0.000000000               0.000000000               0.000000000              -0.000562511               0.005305080               0.001492171              -0.000874075               0.002059700               0.001185625               0.000000000               0.000000000               0.000000000               0.000000000              -0.000405944               0.005427580               0.001318063              -0.000830675               0.002086067               0.001255391               0.000000000               0.000000000               0.000000000               0.000000000              -0.000258249               0.005482241               0.001161463              -0.000782122               0.002088103               0.001305980               0.000000000               0.000000000               0.000000000               0.000000000              -0.000127733               0.005497670               0.001021001              -0.000735107               0.002077574               0.001342467               0.000000000               0.000000000               0.000000000               0.000000000              -0.000010569               0.005494346               0.000890860              -0.000690755               0.002061682               0.001370927               0.000000000               0.000000000               0.000000000               0.000000000               0.000094741               0.005464351               0.000764973              -0.000647514               0.002037270               0.001389756               0.000000000               0.000000000               0.000000000               0.000000000               0.000181122               0.005405183               0.000638366              -0.000607726               0.002004285               0.001396559               0.000000000               0.000000000               0.000000000               0.000000000               0.000241735               0.005326366               0.000499389              -0.000575144               0.001967152               0.001392008               0.000000000               0.000000000               0.000000000               0.000000000               0.000267249               0.005238219               0.000340593              -0.000554558               0.001930908               0.001376350               0.000000000               0.000000000               0.000000000               0.000000000               0.000236081               0.005127013               0.000171715              -0.000552345               0.001893102               0.001340757               0.000000000               0.000000000               0.000000000               0.000000000               0.000185466               0.005051042               0.000081465              -0.000561829               0.001870940               0.001309111               0.000000000               0.000000000               0.000000000               0.000000000              -0.003618216               0.000155898              -0.000001993              -0.001376317               0.000510735              -0.000865582               0.000000000               0.000000000               0.000000000               0.000000000              -0.002187871               0.001151874               0.000898777              -0.000964434               0.000705431              -0.000259004               0.000000000               0.000000000               0.000000000               0.000000000              -0.001307488               0.002209291               0.001672713              -0.000766469               0.000991912               0.000225443               0.000000000               0.000000000               0.000000000               0.000000000              -0.000871187               0.003082765               0.001817965              -0.000712040               0.001264924               0.000552884               0.000000000               0.000000000               0.000000000               0.000000000              -0.000615601               0.003745308               0.001744991              -0.000699013               0.001481427               0.000782414               0.000000000               0.000000000               0.000000000               0.000000000              -0.000435679               0.004233612               0.001601002              -0.000692580               0.001642050               0.000949469               0.000000000               0.000000000               0.000000000               0.000000000              -0.000294902               0.004582760               0.001446609              -0.000683432               0.001755382               0.001071949               0.000000000               0.000000000               0.000000000               0.000000000              -0.000168799               0.004823257               0.001300281              -0.000666206               0.001829804               0.001163599               0.000000000               0.000000000               0.000000000               0.000000000              -0.000043717               0.004989152               0.001161968              -0.000640037               0.001876380               0.001236343               0.000000000               0.000000000               0.000000000               0.000000000               0.000076735               0.005102703               0.001034679              -0.000609061               0.001903904               0.001294843               0.000000000               0.000000000               0.000000000               0.000000000               0.000191856               0.005177168               0.000921882              -0.000575199               0.001917438               0.001342239               0.000000000               0.000000000               0.000000000               0.000000000               0.000306642               0.005218262               0.000815227              -0.000537291               0.001918500               0.001381209               0.000000000               0.000000000               0.000000000               0.000000000               0.000418476               0.005230169               0.000701426              -0.000496841               0.001908986               0.001412144               0.000000000               0.000000000               0.000000000               0.000000000               0.000517752               0.005215264               0.000569270              -0.000457750               0.001890987               0.001433237               0.000000000               0.000000000               0.000000000               0.000000000               0.000599113               0.005178254               0.000407760              -0.000422613               0.001866939               0.001444325               0.000000000               0.000000000               0.000000000               0.000000000               0.000641212               0.005104102               0.000215852              -0.000397557               0.001833869               0.001436312               0.000000000               0.000000000               0.000000000               0.000000000               0.000645213               0.005050175               0.000111528              -0.000389316               0.001813147               0.001423831               0.000000000               0.000000000               0.000000000               0.000000000              -0.004548417              -0.000204544              -0.000146503              -0.001680087               0.000491844              -0.001188243               0.000000000               0.000000000               0.000000000               0.000000000              -0.002638629               0.000544403               0.000572506              -0.001057535               0.000533975              -0.000523560               0.000000000               0.000000000               0.000000000               0.000000000              -0.001307448               0.001340609               0.001214624              -0.000657868               0.000666154               0.000008285               0.000000000               0.000000000               0.000000000               0.000000000              -0.000675485               0.002170561               0.001375973              -0.000524627               0.000898388               0.000373761               0.000000000               0.000000000               0.000000000               0.000000000              -0.000340377               0.002877556               0.001356886              -0.000487336               0.001121620               0.000634285               0.000000000               0.000000000               0.000000000               0.000000000              -0.000142561               0.003448158               0.001269860              -0.000484480               0.001310867               0.000826387               0.000000000               0.000000000               0.000000000               0.000000000              -0.000009201               0.003894459               0.001164362              -0.000490257               0.001461559               0.000971302               0.000000000               0.000000000               0.000000000               0.000000000               0.000093907               0.004234365               0.001059366              -0.000494080               0.001576134               0.001082054               0.000000000               0.000000000               0.000000000               0.000000000               0.000192689               0.004496972               0.000956778              -0.000489863               0.001662263               0.001172401               0.000000000               0.000000000               0.000000000               0.000000000               0.000299150               0.004695937               0.000860578              -0.000474810               0.001723567               0.001248757               0.000000000               0.000000000               0.000000000               0.000000000               0.000414382               0.004846256               0.000777032              -0.000450388               0.001765532               0.001315144               0.000000000               0.000000000               0.000000000               0.000000000               0.000535829               0.004961593               0.000700850              -0.000419262               0.001793602               0.001374339               0.000000000               0.000000000               0.000000000               0.000000000               0.000669149               0.005044412               0.000617283              -0.000379620               0.001807994               0.001428374               0.000000000               0.000000000               0.000000000               0.000000000               0.000814447               0.005096499               0.000514772              -0.000331644               0.001809364               0.001477720               0.000000000               0.000000000               0.000000000               0.000000000               0.000971597               0.005116385               0.000382451              -0.000275199               0.001797177               0.001521979               0.000000000               0.000000000               0.000000000               0.000000000               0.001129419               0.005079458               0.000210364              -0.000211400               0.001763602               0.001552203               0.000000000               0.000000000               0.000000000               0.000000000               0.001238609               0.005053005               0.000116451              -0.000167147               0.001740034               0.001572887               0.000000000               0.000000000               0.000000000               0.000000000              -0.005177508              -0.000385882              -0.000122354              -0.001893329               0.000502479              -0.001390850               0.000000000               0.000000000               0.000000000               0.000000000              -0.002954507               0.000176955               0.000275356              -0.001130058               0.000435668              -0.000694390               0.000000000               0.000000000               0.000000000               0.000000000              -0.001311061               0.000774255               0.000638706              -0.000588429               0.000454224              -0.000134205               0.000000000               0.000000000               0.000000000               0.000000000              -0.000534588               0.001551469               0.000743318              -0.000394404               0.000648619               0.000254215               0.000000000               0.000000000               0.000000000               0.000000000              -0.000139277               0.002275229               0.000745518              -0.000336632               0.000870613               0.000533980               0.000000000               0.000000000               0.000000000               0.000000000               0.000077370               0.002890053               0.000706498              -0.000332242               0.001074089               0.000741846               0.000000000               0.000000000               0.000000000               0.000000000               0.000209797               0.003392109               0.000654538              -0.000345339               0.001245805               0.000900465               0.000000000               0.000000000               0.000000000               0.000000000               0.000303111               0.003795825               0.000600639              -0.000360811               0.001385533               0.001024722               0.000000000               0.000000000               0.000000000               0.000000000               0.000387369               0.004121348               0.000546818              -0.000369905               0.001497070               0.001127166               0.000000000               0.000000000               0.000000000               0.000000000               0.000480525               0.004382380               0.000496438              -0.000367600               0.001583312               0.001215712               0.000000000               0.000000000               0.000000000               0.000000000               0.000590721               0.004593193               0.000450926              -0.000352628               0.001648591               0.001295964               0.000000000               0.000000000               0.000000000               0.000000000               0.000717526               0.004763102               0.000410239              -0.000326315               0.001696457               0.001370142               0.000000000               0.000000000               0.000000000               0.000000000               0.000867484               0.004898914               0.000366165              -0.000287057               0.001728641               0.001441584               0.000000000               0.000000000               0.000000000               0.000000000               0.001051588               0.005004858               0.000309995              -0.000231261               0.001745357               0.001514095               0.000000000               0.000000000               0.000000000               0.000000000               0.001279474               0.005073189               0.000235547              -0.000154346               0.001742495               0.001588149               0.000000000               0.000000000               0.000000000               0.000000000               0.001552222               0.005066465               0.000133118              -0.000051225               0.001705880               0.001654655               0.000000000               0.000000000               0.000000000               0.000000000               0.001772438               0.005063138               0.000077985               0.000031771               0.001677105               0.001708877               0.000000000               0.000000000               0.000000000               0.000000000               0.000000000               0.000000000               0.000000000               0.000000000               0.000000000               0.000000000               0.000000000               0.000000000               0.000000000               0.000000000               0.000000000               0.000000000               0.000000000               0.000000000               0.000000000               0.000000000               0.000000000               0.000000000               0.000000000               0.000000000               0.000000000               0.000000000               0.000000000               0.000000000               0.000000000               0.000000000               0.000000000               0.000000000               0.000000000               0.000000000               0.000000000               0.000000000               0.000000000               0.000000000               0.000000000               0.000000000               0.000000000               0.000000000               0.000000000               0.000000000               0.000000000               0.000000000               0.000000000               0.000000000               0.000000000               0.000000000               0.000000000               0.000000000               0.000000000               0.000000000               0.000000000               0.000000000               0.000000000               0.000000000               0.000000000               0.000000000               0.000000000               0.000000000               0.000000000               0.000000000               0.000000000               0.000000000               0.000000000               0.000000000               0.000000000               0.000000000               0.000000000               0.000000000               0.000000000               0.000000000               0.000000000               0.000000000               0.000000000               0.000000000               0.000000000               0.000000000               0.000000000               0.000000000               0.000000000               0.000000000               0.000000000               0.000000000               0.000000000               0.000000000               0.000000000               0.000000000               0.000000000               0.000000000               0.000000000               0.000000000               0.000000000               0.000000000               0.000000000               0.000000000               0.000000000               0.000000000               0.000000000               0.000000000               0.000000000               0.000000000               0.000000000               0.000000000               0.000000000               0.000000000               0.000000000               0.000000000               0.000000000               0.000000000               0.000000000               0.000000000               0.000000000               0.000000000               0.000000000               0.000000000               0.000000000               0.000000000               0.000000000               0.000000000               0.000000000               0.000000000               0.000000000               0.000000000               0.000000000               0.000000000               0.000000000               0.000000000               0.000000000               0.000000000               0.000000000               0.000000000               0.000000000               0.000000000               0.000000000               0.000000000               0.000000000               0.000000000               0.000000000               0.000000000               0.000000000               0.000000000               0.000000000               0.000000000               0.000000000               0.000000000               0.000000000               0.000000000               0.000000000               0.000000000               0.000000000               0.000000000               0.000000000               0.000000000               0.000000000               0.000000000               0.000000000               0.000000000               0.000000000               0.000000000               0.000000000               0.000000000               0.000000000               0.000000000               0.000000000               0.000000000               0.000000000               0.000000000               0.000000000               0.000000000               0.000000000               0.000000000 </DataArray>
</PointData>
</Piece>
</UnstructuredGrid> </VTKFile>
