<?xml version="1.0"?>
<VTKFile type="UnstructuredGrid" version="0.1">
<UnstructuredGrid>
<Piece NumberOfPoints="      1156" NumberOfCells="      1024">
<Points>
<DataArray type="Float64"                                    Name="coordinates"                                                      NumberOfComponents=" 3" format="ascii">
              0.133000000               0.000000000               0.000000000               0.155937500               0.000000000               0.000000000               0.178875000               0.000000000               0.000000000               0.201812500               0.000000000               0.000000000               0.224750000               0.000000000               0.000000000               0.247687500               0.000000000               0.000000000               0.270625000               0.000000000               0.000000000               0.293562500               0.000000000               0.000000000               0.316500000               0.000000000               0.000000000               0.339437500               0.000000000               0.000000000               0.362375000               0.000000000               0.000000000               0.385312500               0.000000000               0.000000000               0.408250000               0.000000000               0.000000000               0.431187500               0.000000000               0.000000000               0.454125000               0.000000000               0.000000000               0.477062500               0.000000000               0.000000000               0.500000000               0.000000000               0.000000000               0.132359569               0.013036280               0.000000000               0.155337096               0.016127762               0.000000000               0.178314623               0.019219245               0.000000000               0.201292150               0.022310727               0.000000000               0.224269676               0.025402210               0.000000000               0.247247203               0.028493692               0.000000000               0.270224730               0.031585175               0.000000000               0.293202257               0.034676657               0.000000000               0.316179784               0.037768140               0.000000000               0.339157311               0.040859622               0.000000000               0.362134838               0.043951105               0.000000000               0.385112365               0.047042587               0.000000000               0.408089892               0.050134070               0.000000000               0.431067419               0.053225552               0.000000000               0.454044946               0.056317035               0.000000000               0.477022473               0.059408517               0.000000000               0.500000000               0.062500000               0.000000000               0.130444442               0.025947013               0.000000000               0.153541665               0.032137825               0.000000000               0.176638887               0.038328636               0.000000000               0.199736109               0.044519448               0.000000000               0.222833332               0.050710260               0.000000000               0.245930554               0.056901071               0.000000000               0.269027776               0.063091883               0.000000000               0.292124999               0.069282695               0.000000000               0.315222221               0.075473506               0.000000000               0.338319444               0.081664318               0.000000000               0.361416666               0.087855130               0.000000000               0.384513888               0.094045942               0.000000000               0.407611111               0.100236753               0.000000000               0.430708333               0.106427565               0.000000000               0.453805555               0.112618377               0.000000000               0.476902778               0.118809188               0.000000000               0.500000000               0.125000000               0.000000000               0.127273065               0.038607862               0.000000000               0.150568498               0.047913621               0.000000000               0.173863932               0.057219379               0.000000000               0.197159365               0.066525138               0.000000000               0.220454798               0.075830897               0.000000000               0.243750232               0.085136655               0.000000000               0.267045665               0.094442414               0.000000000               0.290341099               0.103748172               0.000000000               0.313636532               0.113053931               0.000000000               0.336931966               0.122359690               0.000000000               0.360227399               0.131665448               0.000000000               0.383522833               0.140971207               0.000000000               0.406818266               0.150276966               0.000000000               0.430113700               0.159582724               0.000000000               0.453409133               0.168888483               0.000000000               0.476704567               0.178194241               0.000000000               0.500000000               0.187500000               0.000000000               0.122875978               0.050896897               0.000000000               0.146446229               0.063340840               0.000000000               0.170016481               0.075784784               0.000000000               0.193586732               0.088228728               0.000000000               0.217156983               0.100672672               0.000000000               0.240727235               0.113116616               0.000000000               0.264297486               0.125560560               0.000000000               0.287867738               0.138004504               0.000000000               0.311437989               0.150448448               0.000000000               0.335008240               0.162892392               0.000000000               0.358578492               0.175336336               0.000000000               0.382148743               0.187780280               0.000000000               0.405718994               0.200224224               0.000000000               0.429289246               0.212668168               0.000000000               0.452859497               0.225112112               0.000000000               0.476429749               0.237556056               0.000000000               0.500000000               0.250000000               0.000000000               0.117295528               0.062695766               0.000000000               0.141214558               0.078308531               0.000000000               0.165133587               0.093921295               0.000000000               0.189052617               0.109534060               0.000000000               0.212971646               0.125146824               0.000000000               0.236890676               0.140759589               0.000000000               0.260809705               0.156372354               0.000000000               0.284728735               0.171985118               0.000000000               0.308647764               0.187597883               0.000000000               0.332566794               0.203210648               0.000000000               0.356485823               0.218823412               0.000000000               0.380404853               0.234436177               0.000000000               0.404323882               0.250048941               0.000000000               0.428242912               0.265661706               0.000000000               0.452161941               0.281274471               0.000000000               0.476080971               0.296887235               0.000000000               0.500000000               0.312500000               0.000000000               0.110585458               0.073890841               0.000000000               0.134923867               0.092710163               0.000000000               0.159262276               0.111529486               0.000000000               0.183600685               0.130348808               0.000000000               0.207939094               0.149168131               0.000000000               0.232277503               0.167987453               0.000000000               0.256615912               0.186806776               0.000000000               0.280954320               0.205626098               0.000000000               0.305292729               0.224445420               0.000000000               0.329631138               0.243264743               0.000000000               0.353969547               0.262084065               0.000000000               0.378307956               0.280903388               0.000000000               0.402646365               0.299722710               0.000000000               0.426984773               0.318542033               0.000000000               0.451323182               0.337361355               0.000000000               0.475661591               0.356180678               0.000000000               0.500000000               0.375000000               0.000000000               0.102810390               0.084374307               0.000000000               0.127634741               0.106444663               0.000000000               0.152459092               0.128515018               0.000000000               0.177283442               0.150585374               0.000000000               0.202107793               0.172655730               0.000000000               0.226932143               0.194726086               0.000000000               0.251756494               0.216796442               0.000000000               0.276580845               0.238866798               0.000000000               0.301405195               0.260937153               0.000000000               0.326229546               0.283007509               0.000000000               0.351053896               0.305077865               0.000000000               0.375878247               0.327148221               0.000000000               0.400702598               0.349218577               0.000000000               0.425526948               0.371288933               0.000000000               0.450351299               0.393359288               0.000000000               0.475175649               0.415429644               0.000000000               0.500000000               0.437500000               0.000000000               0.094045202               0.094045202               0.000000000               0.119417377               0.119417377               0.000000000               0.144789552               0.144789552               0.000000000               0.170161727               0.170161727               0.000000000               0.195533901               0.195533901               0.000000000               0.220906076               0.220906076               0.000000000               0.246278251               0.246278251               0.000000000               0.271650426               0.271650426               0.000000000               0.297022601               0.297022601               0.000000000               0.322394776               0.322394776               0.000000000               0.347766951               0.347766951               0.000000000               0.373139126               0.373139126               0.000000000               0.398511300               0.398511300               0.000000000               0.423883475               0.423883475               0.000000000               0.449255650               0.449255650               0.000000000               0.474627825               0.474627825               0.000000000               0.500000000               0.500000000               0.000000000               0.084374307               0.102810390               0.000000000               0.106444663               0.127634741               0.000000000               0.128515018               0.152459092               0.000000000               0.150585374               0.177283442               0.000000000               0.172655730               0.202107793               0.000000000               0.194726086               0.226932143               0.000000000               0.216796442               0.251756494               0.000000000               0.238866798               0.276580845               0.000000000               0.260937153               0.301405195               0.000000000               0.283007509               0.326229546               0.000000000               0.305077865               0.351053896               0.000000000               0.327148221               0.375878247               0.000000000               0.349218577               0.400702598               0.000000000               0.371288933               0.425526948               0.000000000               0.393359288               0.450351299               0.000000000               0.415429644               0.475175649               0.000000000               0.437500000               0.500000000               0.000000000               0.073890841               0.110585458               0.000000000               0.092710163               0.134923867               0.000000000               0.111529486               0.159262276               0.000000000               0.130348808               0.183600685               0.000000000               0.149168131               0.207939094               0.000000000               0.167987453               0.232277503               0.000000000               0.186806776               0.256615912               0.000000000               0.205626098               0.280954320               0.000000000               0.224445420               0.305292729               0.000000000               0.243264743               0.329631138               0.000000000               0.262084065               0.353969547               0.000000000               0.280903388               0.378307956               0.000000000               0.299722710               0.402646365               0.000000000               0.318542033               0.426984773               0.000000000               0.337361355               0.451323182               0.000000000               0.356180678               0.475661591               0.000000000               0.375000000               0.500000000               0.000000000               0.062695766               0.117295528               0.000000000               0.078308531               0.141214558               0.000000000               0.093921295               0.165133587               0.000000000               0.109534060               0.189052617               0.000000000               0.125146824               0.212971646               0.000000000               0.140759589               0.236890676               0.000000000               0.156372354               0.260809705               0.000000000               0.171985118               0.284728735               0.000000000               0.187597883               0.308647764               0.000000000               0.203210648               0.332566794               0.000000000               0.218823412               0.356485823               0.000000000               0.234436177               0.380404853               0.000000000               0.250048941               0.404323882               0.000000000               0.265661706               0.428242912               0.000000000               0.281274471               0.452161941               0.000000000               0.296887235               0.476080971               0.000000000               0.312500000               0.500000000               0.000000000               0.050896897               0.122875978               0.000000000               0.063340840               0.146446229               0.000000000               0.075784784               0.170016481               0.000000000               0.088228728               0.193586732               0.000000000               0.100672672               0.217156983               0.000000000               0.113116616               0.240727235               0.000000000               0.125560560               0.264297486               0.000000000               0.138004504               0.287867738               0.000000000               0.150448448               0.311437989               0.000000000               0.162892392               0.335008240               0.000000000               0.175336336               0.358578492               0.000000000               0.187780280               0.382148743               0.000000000               0.200224224               0.405718994               0.000000000               0.212668168               0.429289246               0.000000000               0.225112112               0.452859497               0.000000000               0.237556056               0.476429749               0.000000000               0.250000000               0.500000000               0.000000000               0.038607862               0.127273065               0.000000000               0.047913621               0.150568498               0.000000000               0.057219379               0.173863932               0.000000000               0.066525138               0.197159365               0.000000000               0.075830897               0.220454798               0.000000000               0.085136655               0.243750232               0.000000000               0.094442414               0.267045665               0.000000000               0.103748172               0.290341099               0.000000000               0.113053931               0.313636532               0.000000000               0.122359690               0.336931966               0.000000000               0.131665448               0.360227399               0.000000000               0.140971207               0.383522833               0.000000000               0.150276966               0.406818266               0.000000000               0.159582724               0.430113700               0.000000000               0.168888483               0.453409133               0.000000000               0.178194241               0.476704567               0.000000000               0.187500000               0.500000000               0.000000000               0.025947013               0.130444442               0.000000000               0.032137825               0.153541665               0.000000000               0.038328636               0.176638887               0.000000000               0.044519448               0.199736109               0.000000000               0.050710260               0.222833332               0.000000000               0.056901071               0.245930554               0.000000000               0.063091883               0.269027776               0.000000000               0.069282695               0.292124999               0.000000000               0.075473506               0.315222221               0.000000000               0.081664318               0.338319444               0.000000000               0.087855130               0.361416666               0.000000000               0.094045942               0.384513888               0.000000000               0.100236753               0.407611111               0.000000000               0.106427565               0.430708333               0.000000000               0.112618377               0.453805555               0.000000000               0.118809188               0.476902778               0.000000000               0.125000000               0.500000000               0.000000000               0.013036280               0.132359569               0.000000000               0.016127762               0.155337096               0.000000000               0.019219245               0.178314623               0.000000000               0.022310727               0.201292150               0.000000000               0.025402210               0.224269676               0.000000000               0.028493692               0.247247203               0.000000000               0.031585175               0.270224730               0.000000000               0.034676657               0.293202257               0.000000000               0.037768140               0.316179784               0.000000000               0.040859622               0.339157311               0.000000000               0.043951105               0.362134838               0.000000000               0.047042587               0.385112365               0.000000000               0.050134070               0.408089892               0.000000000               0.053225552               0.431067419               0.000000000               0.056317035               0.454044946               0.000000000               0.059408517               0.477022473               0.000000000               0.062500000               0.500000000               0.000000000               0.000000000               0.133000000               0.000000000               0.000000000               0.155937500               0.000000000               0.000000000               0.178875000               0.000000000               0.000000000               0.201812500               0.000000000               0.000000000               0.224750000               0.000000000               0.000000000               0.247687500               0.000000000               0.000000000               0.270625000               0.000000000               0.000000000               0.293562500               0.000000000               0.000000000               0.316500000               0.000000000               0.000000000               0.339437500               0.000000000               0.000000000               0.362375000               0.000000000               0.000000000               0.385312500               0.000000000               0.000000000               0.408250000               0.000000000               0.000000000               0.431187500               0.000000000               0.000000000               0.454125000               0.000000000               0.000000000               0.477062500               0.000000000               0.000000000               0.500000000               0.000000000               0.133000000               0.000000000               0.000000000               0.155937500               0.000000000               0.000000000               0.178875000               0.000000000               0.000000000               0.201812500               0.000000000               0.000000000               0.224750000               0.000000000               0.000000000               0.247687500               0.000000000               0.000000000               0.270625000               0.000000000               0.000000000               0.293562500               0.000000000               0.000000000               0.316500000               0.000000000               0.000000000               0.339437500               0.000000000               0.000000000               0.362375000               0.000000000               0.000000000               0.385312500               0.000000000               0.000000000               0.408250000               0.000000000               0.000000000               0.431187500               0.000000000               0.000000000               0.454125000               0.000000000               0.000000000               0.477062500               0.000000000               0.000000000               0.500000000               0.000000000               0.000000000               0.132359569              -0.013036280               0.000000000               0.155337096              -0.016127762               0.000000000               0.178314623              -0.019219245               0.000000000               0.201292150              -0.022310727               0.000000000               0.224269676              -0.025402210               0.000000000               0.247247203              -0.028493692               0.000000000               0.270224730              -0.031585175               0.000000000               0.293202257              -0.034676657               0.000000000               0.316179784              -0.037768140               0.000000000               0.339157311              -0.040859622               0.000000000               0.362134838              -0.043951105               0.000000000               0.385112365              -0.047042587               0.000000000               0.408089892              -0.050134070               0.000000000               0.431067419              -0.053225552               0.000000000               0.454044946              -0.056317035               0.000000000               0.477022473              -0.059408517               0.000000000               0.500000000              -0.062500000               0.000000000               0.130444442              -0.025947013               0.000000000               0.153541665              -0.032137825               0.000000000               0.176638887              -0.038328636               0.000000000               0.199736109              -0.044519448               0.000000000               0.222833332              -0.050710260               0.000000000               0.245930554              -0.056901071               0.000000000               0.269027776              -0.063091883               0.000000000               0.292124999              -0.069282695               0.000000000               0.315222221              -0.075473506               0.000000000               0.338319444              -0.081664318               0.000000000               0.361416666              -0.087855130               0.000000000               0.384513888              -0.094045942               0.000000000               0.407611111              -0.100236753               0.000000000               0.430708333              -0.106427565               0.000000000               0.453805555              -0.112618377               0.000000000               0.476902778              -0.118809188               0.000000000               0.500000000              -0.125000000               0.000000000               0.127273065              -0.038607862               0.000000000               0.150568498              -0.047913621               0.000000000               0.173863932              -0.057219379               0.000000000               0.197159365              -0.066525138               0.000000000               0.220454798              -0.075830897               0.000000000               0.243750232              -0.085136655               0.000000000               0.267045665              -0.094442414               0.000000000               0.290341099              -0.103748172               0.000000000               0.313636532              -0.113053931               0.000000000               0.336931966              -0.122359690               0.000000000               0.360227399              -0.131665448               0.000000000               0.383522833              -0.140971207               0.000000000               0.406818266              -0.150276966               0.000000000               0.430113700              -0.159582724               0.000000000               0.453409133              -0.168888483               0.000000000               0.476704567              -0.178194241               0.000000000               0.500000000              -0.187500000               0.000000000               0.122875978              -0.050896897               0.000000000               0.146446229              -0.063340840               0.000000000               0.170016481              -0.075784784               0.000000000               0.193586732              -0.088228728               0.000000000               0.217156983              -0.100672672               0.000000000               0.240727235              -0.113116616               0.000000000               0.264297486              -0.125560560               0.000000000               0.287867738              -0.138004504               0.000000000               0.311437989              -0.150448448               0.000000000               0.335008240              -0.162892392               0.000000000               0.358578492              -0.175336336               0.000000000               0.382148743              -0.187780280               0.000000000               0.405718994              -0.200224224               0.000000000               0.429289246              -0.212668168               0.000000000               0.452859497              -0.225112112               0.000000000               0.476429749              -0.237556056               0.000000000               0.500000000              -0.250000000               0.000000000               0.117295528              -0.062695766               0.000000000               0.141214558              -0.078308531               0.000000000               0.165133587              -0.093921295               0.000000000               0.189052617              -0.109534060               0.000000000               0.212971646              -0.125146824               0.000000000               0.236890676              -0.140759589               0.000000000               0.260809705              -0.156372354               0.000000000               0.284728735              -0.171985118               0.000000000               0.308647764              -0.187597883               0.000000000               0.332566794              -0.203210648               0.000000000               0.356485823              -0.218823412               0.000000000               0.380404853              -0.234436177               0.000000000               0.404323882              -0.250048941               0.000000000               0.428242912              -0.265661706               0.000000000               0.452161941              -0.281274471               0.000000000               0.476080971              -0.296887235               0.000000000               0.500000000              -0.312500000               0.000000000               0.110585458              -0.073890841               0.000000000               0.134923867              -0.092710163               0.000000000               0.159262276              -0.111529486               0.000000000               0.183600685              -0.130348808               0.000000000               0.207939094              -0.149168131               0.000000000               0.232277503              -0.167987453               0.000000000               0.256615912              -0.186806776               0.000000000               0.280954320              -0.205626098               0.000000000               0.305292729              -0.224445420               0.000000000               0.329631138              -0.243264743               0.000000000               0.353969547              -0.262084065               0.000000000               0.378307956              -0.280903388               0.000000000               0.402646365              -0.299722710               0.000000000               0.426984773              -0.318542033               0.000000000               0.451323182              -0.337361355               0.000000000               0.475661591              -0.356180678               0.000000000               0.500000000              -0.375000000               0.000000000               0.102810390              -0.084374307               0.000000000               0.127634741              -0.106444663               0.000000000               0.152459092              -0.128515018               0.000000000               0.177283442              -0.150585374               0.000000000               0.202107793              -0.172655730               0.000000000               0.226932143              -0.194726086               0.000000000               0.251756494              -0.216796442               0.000000000               0.276580845              -0.238866798               0.000000000               0.301405195              -0.260937153               0.000000000               0.326229546              -0.283007509               0.000000000               0.351053896              -0.305077865               0.000000000               0.375878247              -0.327148221               0.000000000               0.400702598              -0.349218577               0.000000000               0.425526948              -0.371288933               0.000000000               0.450351299              -0.393359288               0.000000000               0.475175649              -0.415429644               0.000000000               0.500000000              -0.437500000               0.000000000               0.094045202              -0.094045202               0.000000000               0.119417377              -0.119417377               0.000000000               0.144789552              -0.144789552               0.000000000               0.170161727              -0.170161727               0.000000000               0.195533901              -0.195533901               0.000000000               0.220906076              -0.220906076               0.000000000               0.246278251              -0.246278251               0.000000000               0.271650426              -0.271650426               0.000000000               0.297022601              -0.297022601               0.000000000               0.322394776              -0.322394776               0.000000000               0.347766951              -0.347766951               0.000000000               0.373139126              -0.373139126               0.000000000               0.398511300              -0.398511300               0.000000000               0.423883475              -0.423883475               0.000000000               0.449255650              -0.449255650               0.000000000               0.474627825              -0.474627825               0.000000000               0.500000000              -0.500000000               0.000000000               0.084374307              -0.102810390               0.000000000               0.106444663              -0.127634741               0.000000000               0.128515018              -0.152459092               0.000000000               0.150585374              -0.177283442               0.000000000               0.172655730              -0.202107793               0.000000000               0.194726086              -0.226932143               0.000000000               0.216796442              -0.251756494               0.000000000               0.238866798              -0.276580845               0.000000000               0.260937153              -0.301405195               0.000000000               0.283007509              -0.326229546               0.000000000               0.305077865              -0.351053896               0.000000000               0.327148221              -0.375878247               0.000000000               0.349218577              -0.400702598               0.000000000               0.371288933              -0.425526948               0.000000000               0.393359288              -0.450351299               0.000000000               0.415429644              -0.475175649               0.000000000               0.437500000              -0.500000000               0.000000000               0.073890841              -0.110585458               0.000000000               0.092710163              -0.134923867               0.000000000               0.111529486              -0.159262276               0.000000000               0.130348808              -0.183600685               0.000000000               0.149168131              -0.207939094               0.000000000               0.167987453              -0.232277503               0.000000000               0.186806776              -0.256615912               0.000000000               0.205626098              -0.280954320               0.000000000               0.224445420              -0.305292729               0.000000000               0.243264743              -0.329631138               0.000000000               0.262084065              -0.353969547               0.000000000               0.280903388              -0.378307956               0.000000000               0.299722710              -0.402646365               0.000000000               0.318542033              -0.426984773               0.000000000               0.337361355              -0.451323182               0.000000000               0.356180678              -0.475661591               0.000000000               0.375000000              -0.500000000               0.000000000               0.062695766              -0.117295528               0.000000000               0.078308531              -0.141214558               0.000000000               0.093921295              -0.165133587               0.000000000               0.109534060              -0.189052617               0.000000000               0.125146824              -0.212971646               0.000000000               0.140759589              -0.236890676               0.000000000               0.156372354              -0.260809705               0.000000000               0.171985118              -0.284728735               0.000000000               0.187597883              -0.308647764               0.000000000               0.203210648              -0.332566794               0.000000000               0.218823412              -0.356485823               0.000000000               0.234436177              -0.380404853               0.000000000               0.250048941              -0.404323882               0.000000000               0.265661706              -0.428242912               0.000000000               0.281274471              -0.452161941               0.000000000               0.296887235              -0.476080971               0.000000000               0.312500000              -0.500000000               0.000000000               0.050896897              -0.122875978               0.000000000               0.063340840              -0.146446229               0.000000000               0.075784784              -0.170016481               0.000000000               0.088228728              -0.193586732               0.000000000               0.100672672              -0.217156983               0.000000000               0.113116616              -0.240727235               0.000000000               0.125560560              -0.264297486               0.000000000               0.138004504              -0.287867738               0.000000000               0.150448448              -0.311437989               0.000000000               0.162892392              -0.335008240               0.000000000               0.175336336              -0.358578492               0.000000000               0.187780280              -0.382148743               0.000000000               0.200224224              -0.405718994               0.000000000               0.212668168              -0.429289246               0.000000000               0.225112112              -0.452859497               0.000000000               0.237556056              -0.476429749               0.000000000               0.250000000              -0.500000000               0.000000000               0.038607862              -0.127273065               0.000000000               0.047913621              -0.150568498               0.000000000               0.057219379              -0.173863932               0.000000000               0.066525138              -0.197159365               0.000000000               0.075830897              -0.220454798               0.000000000               0.085136655              -0.243750232               0.000000000               0.094442414              -0.267045665               0.000000000               0.103748172              -0.290341099               0.000000000               0.113053931              -0.313636532               0.000000000               0.122359690              -0.336931966               0.000000000               0.131665448              -0.360227399               0.000000000               0.140971207              -0.383522833               0.000000000               0.150276966              -0.406818266               0.000000000               0.159582724              -0.430113700               0.000000000               0.168888483              -0.453409133               0.000000000               0.178194241              -0.476704567               0.000000000               0.187500000              -0.500000000               0.000000000               0.025947013              -0.130444442               0.000000000               0.032137825              -0.153541665               0.000000000               0.038328636              -0.176638887               0.000000000               0.044519448              -0.199736109               0.000000000               0.050710260              -0.222833332               0.000000000               0.056901071              -0.245930554               0.000000000               0.063091883              -0.269027776               0.000000000               0.069282695              -0.292124999               0.000000000               0.075473506              -0.315222221               0.000000000               0.081664318              -0.338319444               0.000000000               0.087855130              -0.361416666               0.000000000               0.094045942              -0.384513888               0.000000000               0.100236753              -0.407611111               0.000000000               0.106427565              -0.430708333               0.000000000               0.112618377              -0.453805555               0.000000000               0.118809188              -0.476902778               0.000000000               0.125000000              -0.500000000               0.000000000               0.013036280              -0.132359569               0.000000000               0.016127762              -0.155337096               0.000000000               0.019219245              -0.178314623               0.000000000               0.022310727              -0.201292150               0.000000000               0.025402210              -0.224269676               0.000000000               0.028493692              -0.247247203               0.000000000               0.031585175              -0.270224730               0.000000000               0.034676657              -0.293202257               0.000000000               0.037768140              -0.316179784               0.000000000               0.040859622              -0.339157311               0.000000000               0.043951105              -0.362134838               0.000000000               0.047042587              -0.385112365               0.000000000               0.050134070              -0.408089892               0.000000000               0.053225552              -0.431067419               0.000000000               0.056317035              -0.454044946               0.000000000               0.059408517              -0.477022473               0.000000000               0.062500000              -0.500000000               0.000000000               0.000000000              -0.133000000               0.000000000               0.000000000              -0.155937500               0.000000000               0.000000000              -0.178875000               0.000000000               0.000000000              -0.201812500               0.000000000               0.000000000              -0.224750000               0.000000000               0.000000000              -0.247687500               0.000000000               0.000000000              -0.270625000               0.000000000               0.000000000              -0.293562500               0.000000000               0.000000000              -0.316500000               0.000000000               0.000000000              -0.339437500               0.000000000               0.000000000              -0.362375000               0.000000000               0.000000000              -0.385312500               0.000000000               0.000000000              -0.408250000               0.000000000               0.000000000              -0.431187500               0.000000000               0.000000000              -0.454125000               0.000000000               0.000000000              -0.477062500               0.000000000               0.000000000              -0.500000000               0.000000000              -0.133000000               0.000000000               0.000000000              -0.155937500               0.000000000               0.000000000              -0.178875000               0.000000000               0.000000000              -0.201812500               0.000000000               0.000000000              -0.224750000               0.000000000               0.000000000              -0.247687500               0.000000000               0.000000000              -0.270625000               0.000000000               0.000000000              -0.293562500               0.000000000               0.000000000              -0.316500000               0.000000000               0.000000000              -0.339437500               0.000000000               0.000000000              -0.362375000               0.000000000               0.000000000              -0.385312500               0.000000000               0.000000000              -0.408250000               0.000000000               0.000000000              -0.431187500               0.000000000               0.000000000              -0.454125000               0.000000000               0.000000000              -0.477062500               0.000000000               0.000000000              -0.500000000               0.000000000               0.000000000              -0.132359569              -0.013036280               0.000000000              -0.155337096              -0.016127762               0.000000000              -0.178314623              -0.019219245               0.000000000              -0.201292150              -0.022310727               0.000000000              -0.224269676              -0.025402210               0.000000000              -0.247247203              -0.028493692               0.000000000              -0.270224730              -0.031585175               0.000000000              -0.293202257              -0.034676657               0.000000000              -0.316179784              -0.037768140               0.000000000              -0.339157311              -0.040859622               0.000000000              -0.362134838              -0.043951105               0.000000000              -0.385112365              -0.047042587               0.000000000              -0.408089892              -0.050134070               0.000000000              -0.431067419              -0.053225552               0.000000000              -0.454044946              -0.056317035               0.000000000              -0.477022473              -0.059408517               0.000000000              -0.500000000              -0.062500000               0.000000000              -0.130444442              -0.025947013               0.000000000              -0.153541665              -0.032137825               0.000000000              -0.176638887              -0.038328636               0.000000000              -0.199736109              -0.044519448               0.000000000              -0.222833332              -0.050710260               0.000000000              -0.245930554              -0.056901071               0.000000000              -0.269027776              -0.063091883               0.000000000              -0.292124999              -0.069282695               0.000000000              -0.315222221              -0.075473506               0.000000000              -0.338319444              -0.081664318               0.000000000              -0.361416666              -0.087855130               0.000000000              -0.384513888              -0.094045942               0.000000000              -0.407611111              -0.100236753               0.000000000              -0.430708333              -0.106427565               0.000000000              -0.453805555              -0.112618377               0.000000000              -0.476902778              -0.118809188               0.000000000              -0.500000000              -0.125000000               0.000000000              -0.127273065              -0.038607862               0.000000000              -0.150568498              -0.047913621               0.000000000              -0.173863932              -0.057219379               0.000000000              -0.197159365              -0.066525138               0.000000000              -0.220454798              -0.075830897               0.000000000              -0.243750232              -0.085136655               0.000000000              -0.267045665              -0.094442414               0.000000000              -0.290341099              -0.103748172               0.000000000              -0.313636532              -0.113053931               0.000000000              -0.336931966              -0.122359690               0.000000000              -0.360227399              -0.131665448               0.000000000              -0.383522833              -0.140971207               0.000000000              -0.406818266              -0.150276966               0.000000000              -0.430113700              -0.159582724               0.000000000              -0.453409133              -0.168888483               0.000000000              -0.476704567              -0.178194241               0.000000000              -0.500000000              -0.187500000               0.000000000              -0.122875978              -0.050896897               0.000000000              -0.146446229              -0.063340840               0.000000000              -0.170016481              -0.075784784               0.000000000              -0.193586732              -0.088228728               0.000000000              -0.217156983              -0.100672672               0.000000000              -0.240727235              -0.113116616               0.000000000              -0.264297486              -0.125560560               0.000000000              -0.287867738              -0.138004504               0.000000000              -0.311437989              -0.150448448               0.000000000              -0.335008240              -0.162892392               0.000000000              -0.358578492              -0.175336336               0.000000000              -0.382148743              -0.187780280               0.000000000              -0.405718994              -0.200224224               0.000000000              -0.429289246              -0.212668168               0.000000000              -0.452859497              -0.225112112               0.000000000              -0.476429749              -0.237556056               0.000000000              -0.500000000              -0.250000000               0.000000000              -0.117295528              -0.062695766               0.000000000              -0.141214558              -0.078308531               0.000000000              -0.165133587              -0.093921295               0.000000000              -0.189052617              -0.109534060               0.000000000              -0.212971646              -0.125146824               0.000000000              -0.236890676              -0.140759589               0.000000000              -0.260809705              -0.156372354               0.000000000              -0.284728735              -0.171985118               0.000000000              -0.308647764              -0.187597883               0.000000000              -0.332566794              -0.203210648               0.000000000              -0.356485823              -0.218823412               0.000000000              -0.380404853              -0.234436177               0.000000000              -0.404323882              -0.250048941               0.000000000              -0.428242912              -0.265661706               0.000000000              -0.452161941              -0.281274471               0.000000000              -0.476080971              -0.296887235               0.000000000              -0.500000000              -0.312500000               0.000000000              -0.110585458              -0.073890841               0.000000000              -0.134923867              -0.092710163               0.000000000              -0.159262276              -0.111529486               0.000000000              -0.183600685              -0.130348808               0.000000000              -0.207939094              -0.149168131               0.000000000              -0.232277503              -0.167987453               0.000000000              -0.256615912              -0.186806776               0.000000000              -0.280954320              -0.205626098               0.000000000              -0.305292729              -0.224445420               0.000000000              -0.329631138              -0.243264743               0.000000000              -0.353969547              -0.262084065               0.000000000              -0.378307956              -0.280903388               0.000000000              -0.402646365              -0.299722710               0.000000000              -0.426984773              -0.318542033               0.000000000              -0.451323182              -0.337361355               0.000000000              -0.475661591              -0.356180678               0.000000000              -0.500000000              -0.375000000               0.000000000              -0.102810390              -0.084374307               0.000000000              -0.127634741              -0.106444663               0.000000000              -0.152459092              -0.128515018               0.000000000              -0.177283442              -0.150585374               0.000000000              -0.202107793              -0.172655730               0.000000000              -0.226932143              -0.194726086               0.000000000              -0.251756494              -0.216796442               0.000000000              -0.276580845              -0.238866798               0.000000000              -0.301405195              -0.260937153               0.000000000              -0.326229546              -0.283007509               0.000000000              -0.351053896              -0.305077865               0.000000000              -0.375878247              -0.327148221               0.000000000              -0.400702598              -0.349218577               0.000000000              -0.425526948              -0.371288933               0.000000000              -0.450351299              -0.393359288               0.000000000              -0.475175649              -0.415429644               0.000000000              -0.500000000              -0.437500000               0.000000000              -0.094045202              -0.094045202               0.000000000              -0.119417377              -0.119417377               0.000000000              -0.144789552              -0.144789552               0.000000000              -0.170161727              -0.170161727               0.000000000              -0.195533901              -0.195533901               0.000000000              -0.220906076              -0.220906076               0.000000000              -0.246278251              -0.246278251               0.000000000              -0.271650426              -0.271650426               0.000000000              -0.297022601              -0.297022601               0.000000000              -0.322394776              -0.322394776               0.000000000              -0.347766951              -0.347766951               0.000000000              -0.373139126              -0.373139126               0.000000000              -0.398511300              -0.398511300               0.000000000              -0.423883475              -0.423883475               0.000000000              -0.449255650              -0.449255650               0.000000000              -0.474627825              -0.474627825               0.000000000              -0.500000000              -0.500000000               0.000000000              -0.084374307              -0.102810390               0.000000000              -0.106444663              -0.127634741               0.000000000              -0.128515018              -0.152459092               0.000000000              -0.150585374              -0.177283442               0.000000000              -0.172655730              -0.202107793               0.000000000              -0.194726086              -0.226932143               0.000000000              -0.216796442              -0.251756494               0.000000000              -0.238866798              -0.276580845               0.000000000              -0.260937153              -0.301405195               0.000000000              -0.283007509              -0.326229546               0.000000000              -0.305077865              -0.351053896               0.000000000              -0.327148221              -0.375878247               0.000000000              -0.349218577              -0.400702598               0.000000000              -0.371288933              -0.425526948               0.000000000              -0.393359288              -0.450351299               0.000000000              -0.415429644              -0.475175649               0.000000000              -0.437500000              -0.500000000               0.000000000              -0.073890841              -0.110585458               0.000000000              -0.092710163              -0.134923867               0.000000000              -0.111529486              -0.159262276               0.000000000              -0.130348808              -0.183600685               0.000000000              -0.149168131              -0.207939094               0.000000000              -0.167987453              -0.232277503               0.000000000              -0.186806776              -0.256615912               0.000000000              -0.205626098              -0.280954320               0.000000000              -0.224445420              -0.305292729               0.000000000              -0.243264743              -0.329631138               0.000000000              -0.262084065              -0.353969547               0.000000000              -0.280903388              -0.378307956               0.000000000              -0.299722710              -0.402646365               0.000000000              -0.318542033              -0.426984773               0.000000000              -0.337361355              -0.451323182               0.000000000              -0.356180678              -0.475661591               0.000000000              -0.375000000              -0.500000000               0.000000000              -0.062695766              -0.117295528               0.000000000              -0.078308531              -0.141214558               0.000000000              -0.093921295              -0.165133587               0.000000000              -0.109534060              -0.189052617               0.000000000              -0.125146824              -0.212971646               0.000000000              -0.140759589              -0.236890676               0.000000000              -0.156372354              -0.260809705               0.000000000              -0.171985118              -0.284728735               0.000000000              -0.187597883              -0.308647764               0.000000000              -0.203210648              -0.332566794               0.000000000              -0.218823412              -0.356485823               0.000000000              -0.234436177              -0.380404853               0.000000000              -0.250048941              -0.404323882               0.000000000              -0.265661706              -0.428242912               0.000000000              -0.281274471              -0.452161941               0.000000000              -0.296887235              -0.476080971               0.000000000              -0.312500000              -0.500000000               0.000000000              -0.050896897              -0.122875978               0.000000000              -0.063340840              -0.146446229               0.000000000              -0.075784784              -0.170016481               0.000000000              -0.088228728              -0.193586732               0.000000000              -0.100672672              -0.217156983               0.000000000              -0.113116616              -0.240727235               0.000000000              -0.125560560              -0.264297486               0.000000000              -0.138004504              -0.287867738               0.000000000              -0.150448448              -0.311437989               0.000000000              -0.162892392              -0.335008240               0.000000000              -0.175336336              -0.358578492               0.000000000              -0.187780280              -0.382148743               0.000000000              -0.200224224              -0.405718994               0.000000000              -0.212668168              -0.429289246               0.000000000              -0.225112112              -0.452859497               0.000000000              -0.237556056              -0.476429749               0.000000000              -0.250000000              -0.500000000               0.000000000              -0.038607862              -0.127273065               0.000000000              -0.047913621              -0.150568498               0.000000000              -0.057219379              -0.173863932               0.000000000              -0.066525138              -0.197159365               0.000000000              -0.075830897              -0.220454798               0.000000000              -0.085136655              -0.243750232               0.000000000              -0.094442414              -0.267045665               0.000000000              -0.103748172              -0.290341099               0.000000000              -0.113053931              -0.313636532               0.000000000              -0.122359690              -0.336931966               0.000000000              -0.131665448              -0.360227399               0.000000000              -0.140971207              -0.383522833               0.000000000              -0.150276966              -0.406818266               0.000000000              -0.159582724              -0.430113700               0.000000000              -0.168888483              -0.453409133               0.000000000              -0.178194241              -0.476704567               0.000000000              -0.187500000              -0.500000000               0.000000000              -0.025947013              -0.130444442               0.000000000              -0.032137825              -0.153541665               0.000000000              -0.038328636              -0.176638887               0.000000000              -0.044519448              -0.199736109               0.000000000              -0.050710260              -0.222833332               0.000000000              -0.056901071              -0.245930554               0.000000000              -0.063091883              -0.269027776               0.000000000              -0.069282695              -0.292124999               0.000000000              -0.075473506              -0.315222221               0.000000000              -0.081664318              -0.338319444               0.000000000              -0.087855130              -0.361416666               0.000000000              -0.094045942              -0.384513888               0.000000000              -0.100236753              -0.407611111               0.000000000              -0.106427565              -0.430708333               0.000000000              -0.112618377              -0.453805555               0.000000000              -0.118809188              -0.476902778               0.000000000              -0.125000000              -0.500000000               0.000000000              -0.013036280              -0.132359569               0.000000000              -0.016127762              -0.155337096               0.000000000              -0.019219245              -0.178314623               0.000000000              -0.022310727              -0.201292150               0.000000000              -0.025402210              -0.224269676               0.000000000              -0.028493692              -0.247247203               0.000000000              -0.031585175              -0.270224730               0.000000000              -0.034676657              -0.293202257               0.000000000              -0.037768140              -0.316179784               0.000000000              -0.040859622              -0.339157311               0.000000000              -0.043951105              -0.362134838               0.000000000              -0.047042587              -0.385112365               0.000000000              -0.050134070              -0.408089892               0.000000000              -0.053225552              -0.431067419               0.000000000              -0.056317035              -0.454044946               0.000000000              -0.059408517              -0.477022473               0.000000000              -0.062500000              -0.500000000               0.000000000               0.000000000              -0.133000000               0.000000000               0.000000000              -0.155937500               0.000000000               0.000000000              -0.178875000               0.000000000               0.000000000              -0.201812500               0.000000000               0.000000000              -0.224750000               0.000000000               0.000000000              -0.247687500               0.000000000               0.000000000              -0.270625000               0.000000000               0.000000000              -0.293562500               0.000000000               0.000000000              -0.316500000               0.000000000               0.000000000              -0.339437500               0.000000000               0.000000000              -0.362375000               0.000000000               0.000000000              -0.385312500               0.000000000               0.000000000              -0.408250000               0.000000000               0.000000000              -0.431187500               0.000000000               0.000000000              -0.454125000               0.000000000               0.000000000              -0.477062500               0.000000000               0.000000000              -0.500000000               0.000000000              -0.133000000               0.000000000               0.000000000              -0.155937500               0.000000000               0.000000000              -0.178875000               0.000000000               0.000000000              -0.201812500               0.000000000               0.000000000              -0.224750000               0.000000000               0.000000000              -0.247687500               0.000000000               0.000000000              -0.270625000               0.000000000               0.000000000              -0.293562500               0.000000000               0.000000000              -0.316500000               0.000000000               0.000000000              -0.339437500               0.000000000               0.000000000              -0.362375000               0.000000000               0.000000000              -0.385312500               0.000000000               0.000000000              -0.408250000               0.000000000               0.000000000              -0.431187500               0.000000000               0.000000000              -0.454125000               0.000000000               0.000000000              -0.477062500               0.000000000               0.000000000              -0.500000000               0.000000000               0.000000000              -0.132359569               0.013036280               0.000000000              -0.155337096               0.016127762               0.000000000              -0.178314623               0.019219245               0.000000000              -0.201292150               0.022310727               0.000000000              -0.224269676               0.025402210               0.000000000              -0.247247203               0.028493692               0.000000000              -0.270224730               0.031585175               0.000000000              -0.293202257               0.034676657               0.000000000              -0.316179784               0.037768140               0.000000000              -0.339157311               0.040859622               0.000000000              -0.362134838               0.043951105               0.000000000              -0.385112365               0.047042587               0.000000000              -0.408089892               0.050134070               0.000000000              -0.431067419               0.053225552               0.000000000              -0.454044946               0.056317035               0.000000000              -0.477022473               0.059408517               0.000000000              -0.500000000               0.062500000               0.000000000              -0.130444442               0.025947013               0.000000000              -0.153541665               0.032137825               0.000000000              -0.176638887               0.038328636               0.000000000              -0.199736109               0.044519448               0.000000000              -0.222833332               0.050710260               0.000000000              -0.245930554               0.056901071               0.000000000              -0.269027776               0.063091883               0.000000000              -0.292124999               0.069282695               0.000000000              -0.315222221               0.075473506               0.000000000              -0.338319444               0.081664318               0.000000000              -0.361416666               0.087855130               0.000000000              -0.384513888               0.094045942               0.000000000              -0.407611111               0.100236753               0.000000000              -0.430708333               0.106427565               0.000000000              -0.453805555               0.112618377               0.000000000              -0.476902778               0.118809188               0.000000000              -0.500000000               0.125000000               0.000000000              -0.127273065               0.038607862               0.000000000              -0.150568498               0.047913621               0.000000000              -0.173863932               0.057219379               0.000000000              -0.197159365               0.066525138               0.000000000              -0.220454798               0.075830897               0.000000000              -0.243750232               0.085136655               0.000000000              -0.267045665               0.094442414               0.000000000              -0.290341099               0.103748172               0.000000000              -0.313636532               0.113053931               0.000000000              -0.336931966               0.122359690               0.000000000              -0.360227399               0.131665448               0.000000000              -0.383522833               0.140971207               0.000000000              -0.406818266               0.150276966               0.000000000              -0.430113700               0.159582724               0.000000000              -0.453409133               0.168888483               0.000000000              -0.476704567               0.178194241               0.000000000              -0.500000000               0.187500000               0.000000000              -0.122875978               0.050896897               0.000000000              -0.146446229               0.063340840               0.000000000              -0.170016481               0.075784784               0.000000000              -0.193586732               0.088228728               0.000000000              -0.217156983               0.100672672               0.000000000              -0.240727235               0.113116616               0.000000000              -0.264297486               0.125560560               0.000000000              -0.287867738               0.138004504               0.000000000              -0.311437989               0.150448448               0.000000000              -0.335008240               0.162892392               0.000000000              -0.358578492               0.175336336               0.000000000              -0.382148743               0.187780280               0.000000000              -0.405718994               0.200224224               0.000000000              -0.429289246               0.212668168               0.000000000              -0.452859497               0.225112112               0.000000000              -0.476429749               0.237556056               0.000000000              -0.500000000               0.250000000               0.000000000              -0.117295528               0.062695766               0.000000000              -0.141214558               0.078308531               0.000000000              -0.165133587               0.093921295               0.000000000              -0.189052617               0.109534060               0.000000000              -0.212971646               0.125146824               0.000000000              -0.236890676               0.140759589               0.000000000              -0.260809705               0.156372354               0.000000000              -0.284728735               0.171985118               0.000000000              -0.308647764               0.187597883               0.000000000              -0.332566794               0.203210648               0.000000000              -0.356485823               0.218823412               0.000000000              -0.380404853               0.234436177               0.000000000              -0.404323882               0.250048941               0.000000000              -0.428242912               0.265661706               0.000000000              -0.452161941               0.281274471               0.000000000              -0.476080971               0.296887235               0.000000000              -0.500000000               0.312500000               0.000000000              -0.110585458               0.073890841               0.000000000              -0.134923867               0.092710163               0.000000000              -0.159262276               0.111529486               0.000000000              -0.183600685               0.130348808               0.000000000              -0.207939094               0.149168131               0.000000000              -0.232277503               0.167987453               0.000000000              -0.256615912               0.186806776               0.000000000              -0.280954320               0.205626098               0.000000000              -0.305292729               0.224445420               0.000000000              -0.329631138               0.243264743               0.000000000              -0.353969547               0.262084065               0.000000000              -0.378307956               0.280903388               0.000000000              -0.402646365               0.299722710               0.000000000              -0.426984773               0.318542033               0.000000000              -0.451323182               0.337361355               0.000000000              -0.475661591               0.356180678               0.000000000              -0.500000000               0.375000000               0.000000000              -0.102810390               0.084374307               0.000000000              -0.127634741               0.106444663               0.000000000              -0.152459092               0.128515018               0.000000000              -0.177283442               0.150585374               0.000000000              -0.202107793               0.172655730               0.000000000              -0.226932143               0.194726086               0.000000000              -0.251756494               0.216796442               0.000000000              -0.276580845               0.238866798               0.000000000              -0.301405195               0.260937153               0.000000000              -0.326229546               0.283007509               0.000000000              -0.351053896               0.305077865               0.000000000              -0.375878247               0.327148221               0.000000000              -0.400702598               0.349218577               0.000000000              -0.425526948               0.371288933               0.000000000              -0.450351299               0.393359288               0.000000000              -0.475175649               0.415429644               0.000000000              -0.500000000               0.437500000               0.000000000              -0.094045202               0.094045202               0.000000000              -0.119417377               0.119417377               0.000000000              -0.144789552               0.144789552               0.000000000              -0.170161727               0.170161727               0.000000000              -0.195533901               0.195533901               0.000000000              -0.220906076               0.220906076               0.000000000              -0.246278251               0.246278251               0.000000000              -0.271650426               0.271650426               0.000000000              -0.297022601               0.297022601               0.000000000              -0.322394776               0.322394776               0.000000000              -0.347766951               0.347766951               0.000000000              -0.373139126               0.373139126               0.000000000              -0.398511300               0.398511300               0.000000000              -0.423883475               0.423883475               0.000000000              -0.449255650               0.449255650               0.000000000              -0.474627825               0.474627825               0.000000000              -0.500000000               0.500000000               0.000000000              -0.084374307               0.102810390               0.000000000              -0.106444663               0.127634741               0.000000000              -0.128515018               0.152459092               0.000000000              -0.150585374               0.177283442               0.000000000              -0.172655730               0.202107793               0.000000000              -0.194726086               0.226932143               0.000000000              -0.216796442               0.251756494               0.000000000              -0.238866798               0.276580845               0.000000000              -0.260937153               0.301405195               0.000000000              -0.283007509               0.326229546               0.000000000              -0.305077865               0.351053896               0.000000000              -0.327148221               0.375878247               0.000000000              -0.349218577               0.400702598               0.000000000              -0.371288933               0.425526948               0.000000000              -0.393359288               0.450351299               0.000000000              -0.415429644               0.475175649               0.000000000              -0.437500000               0.500000000               0.000000000              -0.073890841               0.110585458               0.000000000              -0.092710163               0.134923867               0.000000000              -0.111529486               0.159262276               0.000000000              -0.130348808               0.183600685               0.000000000              -0.149168131               0.207939094               0.000000000              -0.167987453               0.232277503               0.000000000              -0.186806776               0.256615912               0.000000000              -0.205626098               0.280954320               0.000000000              -0.224445420               0.305292729               0.000000000              -0.243264743               0.329631138               0.000000000              -0.262084065               0.353969547               0.000000000              -0.280903388               0.378307956               0.000000000              -0.299722710               0.402646365               0.000000000              -0.318542033               0.426984773               0.000000000              -0.337361355               0.451323182               0.000000000              -0.356180678               0.475661591               0.000000000              -0.375000000               0.500000000               0.000000000              -0.062695766               0.117295528               0.000000000              -0.078308531               0.141214558               0.000000000              -0.093921295               0.165133587               0.000000000              -0.109534060               0.189052617               0.000000000              -0.125146824               0.212971646               0.000000000              -0.140759589               0.236890676               0.000000000              -0.156372354               0.260809705               0.000000000              -0.171985118               0.284728735               0.000000000              -0.187597883               0.308647764               0.000000000              -0.203210648               0.332566794               0.000000000              -0.218823412               0.356485823               0.000000000              -0.234436177               0.380404853               0.000000000              -0.250048941               0.404323882               0.000000000              -0.265661706               0.428242912               0.000000000              -0.281274471               0.452161941               0.000000000              -0.296887235               0.476080971               0.000000000              -0.312500000               0.500000000               0.000000000              -0.050896897               0.122875978               0.000000000              -0.063340840               0.146446229               0.000000000              -0.075784784               0.170016481               0.000000000              -0.088228728               0.193586732               0.000000000              -0.100672672               0.217156983               0.000000000              -0.113116616               0.240727235               0.000000000              -0.125560560               0.264297486               0.000000000              -0.138004504               0.287867738               0.000000000              -0.150448448               0.311437989               0.000000000              -0.162892392               0.335008240               0.000000000              -0.175336336               0.358578492               0.000000000              -0.187780280               0.382148743               0.000000000              -0.200224224               0.405718994               0.000000000              -0.212668168               0.429289246               0.000000000              -0.225112112               0.452859497               0.000000000              -0.237556056               0.476429749               0.000000000              -0.250000000               0.500000000               0.000000000              -0.038607862               0.127273065               0.000000000              -0.047913621               0.150568498               0.000000000              -0.057219379               0.173863932               0.000000000              -0.066525138               0.197159365               0.000000000              -0.075830897               0.220454798               0.000000000              -0.085136655               0.243750232               0.000000000              -0.094442414               0.267045665               0.000000000              -0.103748172               0.290341099               0.000000000              -0.113053931               0.313636532               0.000000000              -0.122359690               0.336931966               0.000000000              -0.131665448               0.360227399               0.000000000              -0.140971207               0.383522833               0.000000000              -0.150276966               0.406818266               0.000000000              -0.159582724               0.430113700               0.000000000              -0.168888483               0.453409133               0.000000000              -0.178194241               0.476704567               0.000000000              -0.187500000               0.500000000               0.000000000              -0.025947013               0.130444442               0.000000000              -0.032137825               0.153541665               0.000000000              -0.038328636               0.176638887               0.000000000              -0.044519448               0.199736109               0.000000000              -0.050710260               0.222833332               0.000000000              -0.056901071               0.245930554               0.000000000              -0.063091883               0.269027776               0.000000000              -0.069282695               0.292124999               0.000000000              -0.075473506               0.315222221               0.000000000              -0.081664318               0.338319444               0.000000000              -0.087855130               0.361416666               0.000000000              -0.094045942               0.384513888               0.000000000              -0.100236753               0.407611111               0.000000000              -0.106427565               0.430708333               0.000000000              -0.112618377               0.453805555               0.000000000              -0.118809188               0.476902778               0.000000000              -0.125000000               0.500000000               0.000000000              -0.013036280               0.132359569               0.000000000              -0.016127762               0.155337096               0.000000000              -0.019219245               0.178314623               0.000000000              -0.022310727               0.201292150               0.000000000              -0.025402210               0.224269676               0.000000000              -0.028493692               0.247247203               0.000000000              -0.031585175               0.270224730               0.000000000              -0.034676657               0.293202257               0.000000000              -0.037768140               0.316179784               0.000000000              -0.040859622               0.339157311               0.000000000              -0.043951105               0.362134838               0.000000000              -0.047042587               0.385112365               0.000000000              -0.050134070               0.408089892               0.000000000              -0.053225552               0.431067419               0.000000000              -0.056317035               0.454044946               0.000000000              -0.059408517               0.477022473               0.000000000              -0.062500000               0.500000000               0.000000000               0.000000000               0.133000000               0.000000000               0.000000000               0.155937500               0.000000000               0.000000000               0.178875000               0.000000000               0.000000000               0.201812500               0.000000000               0.000000000               0.224750000               0.000000000               0.000000000               0.247687500               0.000000000               0.000000000               0.270625000               0.000000000               0.000000000               0.293562500               0.000000000               0.000000000               0.316500000               0.000000000               0.000000000               0.339437500               0.000000000               0.000000000               0.362375000               0.000000000               0.000000000               0.385312500               0.000000000               0.000000000               0.408250000               0.000000000               0.000000000               0.431187500               0.000000000               0.000000000               0.454125000               0.000000000               0.000000000               0.477062500               0.000000000               0.000000000               0.500000000               0.000000000 </DataArray>
</Points>
<Cells>
<DataArray type="Int32"                                    Name="connectivity"                                                      NumberOfComponents=" 1" format="ascii">
         0          1         18         17          1          2         19         18          2          3         20         19          3          4         21         20          4          5         22         21          5          6         23         22          6          7         24         23          7          8         25         24          8          9         26         25          9         10         27         26         10         11         28         27         11         12         29         28         12         13         30         29         13         14         31         30         14         15         32         31         15         16         33         32         17         18         35         34         18         19         36         35         19         20         37         36         20         21         38         37         21         22         39         38         22         23         40         39         23         24         41         40         24         25         42         41         25         26         43         42         26         27         44         43         27         28         45         44         28         29         46         45         29         30         47         46         30         31         48         47         31         32         49         48         32         33         50         49         34         35         52         51         35         36         53         52         36         37         54         53         37         38         55         54         38         39         56         55         39         40         57         56         40         41         58         57         41         42         59         58         42         43         60         59         43         44         61         60         44         45         62         61         45         46         63         62         46         47         64         63         47         48         65         64         48         49         66         65         49         50         67         66         51         52         69         68         52         53         70         69         53         54         71         70         54         55         72         71         55         56         73         72         56         57         74         73         57         58         75         74         58         59         76         75         59         60         77         76         60         61         78         77         61         62         79         78         62         63         80         79         63         64         81         80         64         65         82         81         65         66         83         82         66         67         84         83         68         69         86         85         69         70         87         86         70         71         88         87         71         72         89         88         72         73         90         89         73         74         91         90         74         75         92         91         75         76         93         92         76         77         94         93         77         78         95         94         78         79         96         95         79         80         97         96         80         81         98         97         81         82         99         98         82         83        100         99         83         84        101        100         85         86        103        102         86         87        104        103         87         88        105        104         88         89        106        105         89         90        107        106         90         91        108        107         91         92        109        108         92         93        110        109         93         94        111        110         94         95        112        111         95         96        113        112         96         97        114        113         97         98        115        114         98         99        116        115         99        100        117        116        100        101        118        117        102        103        120        119        103        104        121        120        104        105        122        121        105        106        123        122        106        107        124        123        107        108        125        124        108        109        126        125        109        110        127        126        110        111        128        127        111        112        129        128        112        113        130        129        113        114        131        130        114        115        132        131        115        116        133        132        116        117        134        133        117        118        135        134        119        120        137        136        120        121        138        137        121        122        139        138        122        123        140        139        123        124        141        140        124        125        142        141        125        126        143        142        126        127        144        143        127        128        145        144        128        129        146        145        129        130        147        146        130        131        148        147        131        132        149        148        132        133        150        149        133        134        151        150        134        135        152        151        136        137        154        153        137        138        155        154        138        139        156        155        139        140        157        156        140        141        158        157        141        142        159        158        142        143        160        159        143        144        161        160        144        145        162        161        145        146        163        162        146        147        164        163        147        148        165        164        148        149        166        165        149        150        167        166        150        151        168        167        151        152        169        168        153        154        171        170        154        155        172        171        155        156        173        172        156        157        174        173        157        158        175        174        158        159        176        175        159        160        177        176        160        161        178        177        161        162        179        178        162        163        180        179        163        164        181        180        164        165        182        181        165        166        183        182        166        167        184        183        167        168        185        184        168        169        186        185        170        171        188        187        171        172        189        188        172        173        190        189        173        174        191        190        174        175        192        191        175        176        193        192        176        177        194        193        177        178        195        194        178        179        196        195        179        180        197        196        180        181        198        197        181        182        199        198        182        183        200        199        183        184        201        200        184        185        202        201        185        186        203        202        187        188        205        204        188        189        206        205        189        190        207        206        190        191        208        207        191        192        209        208        192        193        210        209        193        194        211        210        194        195        212        211        195        196        213        212        196        197        214        213        197        198        215        214        198        199        216        215        199        200        217        216        200        201        218        217        201        202        219        218        202        203        220        219        204        205        222        221        205        206        223        222        206        207        224        223        207        208        225        224        208        209        226        225        209        210        227        226        210        211        228        227        211        212        229        228        212        213        230        229        213        214        231        230        214        215        232        231        215        216        233        232        216        217        234        233        217        218        235        234        218        219        236        235        219        220        237        236        221        222        239        238        222        223        240        239        223        224        241        240        224        225        242        241        225        226        243        242        226        227        244        243        227        228        245        244        228        229        246        245        229        230        247        246        230        231        248        247        231        232        249        248        232        233        250        249        233        234        251        250        234        235        252        251        235        236        253        252        236        237        254        253        238        239        256        255        239        240        257        256        240        241        258        257        241        242        259        258        242        243        260        259        243        244        261        260        244        245        262        261        245        246        263        262        246        247        264        263        247        248        265        264        248        249        266        265        249        250        267        266        250        251        268        267        251        252        269        268        252        253        270        269        253        254        271        270        255        256        273        272        256        257        274        273        257        258        275        274        258        259        276        275        259        260        277        276        260        261        278        277        261        262        279        278        262        263        280        279        263        264        281        280        264        265        282        281        265        266        283        282        266        267        284        283        267        268        285        284        268        269        286        285        269        270        287        286        270        271        288        287        306        307          1          0        307        308          2          1        308        309          3          2        309        310          4          3        310        311          5          4        311        312          6          5        312        313          7          6        313        314          8          7        314        315          9          8        315        316         10          9        316        317         11         10        317        318         12         11        318        319         13         12        319        320         14         13        320        321         15         14        321        322         16         15        323        324        307        306        324        325        308        307        325        326        309        308        326        327        310        309        327        328        311        310        328        329        312        311        329        330        313        312        330        331        314        313        331        332        315        314        332        333        316        315        333        334        317        316        334        335        318        317        335        336        319        318        336        337        320        319        337        338        321        320        338        339        322        321        340        341        324        323        341        342        325        324        342        343        326        325        343        344        327        326        344        345        328        327        345        346        329        328        346        347        330        329        347        348        331        330        348        349        332        331        349        350        333        332        350        351        334        333        351        352        335        334        352        353        336        335        353        354        337        336        354        355        338        337        355        356        339        338        357        358        341        340        358        359        342        341        359        360        343        342        360        361        344        343        361        362        345        344        362        363        346        345        363        364        347        346        364        365        348        347        365        366        349        348        366        367        350        349        367        368        351        350        368        369        352        351        369        370        353        352        370        371        354        353        371        372        355        354        372        373        356        355        374        375        358        357        375        376        359        358        376        377        360        359        377        378        361        360        378        379        362        361        379        380        363        362        380        381        364        363        381        382        365        364        382        383        366        365        383        384        367        366        384        385        368        367        385        386        369        368        386        387        370        369        387        388        371        370        388        389        372        371        389        390        373        372        391        392        375        374        392        393        376        375        393        394        377        376        394        395        378        377        395        396        379        378        396        397        380        379        397        398        381        380        398        399        382        381        399        400        383        382        400        401        384        383        401        402        385        384        402        403        386        385        403        404        387        386        404        405        388        387        405        406        389        388        406        407        390        389        408        409        392        391        409        410        393        392        410        411        394        393        411        412        395        394        412        413        396        395        413        414        397        396        414        415        398        397        415        416        399        398        416        417        400        399        417        418        401        400        418        419        402        401        419        420        403        402        420        421        404        403        421        422        405        404        422        423        406        405        423        424        407        406        425        426        409        408        426        427        410        409        427        428        411        410        428        429        412        411        429        430        413        412        430        431        414        413        431        432        415        414        432        433        416        415        433        434        417        416        434        435        418        417        435        436        419        418        436        437        420        419        437        438        421        420        438        439        422        421        439        440        423        422        440        441        424        423        442        443        426        425        443        444        427        426        444        445        428        427        445        446        429        428        446        447        430        429        447        448        431        430        448        449        432        431        449        450        433        432        450        451        434        433        451        452        435        434        452        453        436        435        453        454        437        436        454        455        438        437        455        456        439        438        456        457        440        439        457        458        441        440        459        460        443        442        460        461        444        443        461        462        445        444        462        463        446        445        463        464        447        446        464        465        448        447        465        466        449        448        466        467        450        449        467        468        451        450        468        469        452        451        469        470        453        452        470        471        454        453        471        472        455        454        472        473        456        455        473        474        457        456        474        475        458        457        476        477        460        459        477        478        461        460        478        479        462        461        479        480        463        462        480        481        464        463        481        482        465        464        482        483        466        465        483        484        467        466        484        485        468        467        485        486        469        468        486        487        470        469        487        488        471        470        488        489        472        471        489        490        473        472        490        491        474        473        491        492        475        474        493        494        477        476        494        495        478        477        495        496        479        478        496        497        480        479        497        498        481        480        498        499        482        481        499        500        483        482        500        501        484        483        501        502        485        484        502        503        486        485        503        504        487        486        504        505        488        487        505        506        489        488        506        507        490        489        507        508        491        490        508        509        492        491        510        511        494        493        511        512        495        494        512        513        496        495        513        514        497        496        514        515        498        497        515        516        499        498        516        517        500        499        517        518        501        500        518        519        502        501        519        520        503        502        520        521        504        503        521        522        505        504        522        523        506        505        523        524        507        506        524        525        508        507        525        526        509        508        527        528        511        510        528        529        512        511        529        530        513        512        530        531        514        513        531        532        515        514        532        533        516        515        533        534        517        516        534        535        518        517        535        536        519        518        536        537        520        519        537        538        521        520        538        539        522        521        539        540        523        522        540        541        524        523        541        542        525        524        542        543        526        525        544        545        528        527        545        546        529        528        546        547        530        529        547        548        531        530        548        549        532        531        549        550        533        532        550        551        534        533        551        552        535        534        552        553        536        535        553        554        537        536        554        555        538        537        555        556        539        538        556        557        540        539        557        558        541        540        558        559        542        541        559        560        543        542        561        562        545        544        562        563        546        545        563        564        547        546        564        565        548        547        565        566        549        548        566        567        550        549        567        568        551        550        568        569        552        551        569        570        553        552        570        571        554        553        571        572        555        554        572        573        556        555        573        574        557        556        574        575        558        557        575        576        559        558        576        577        560        559        578        579        596        595        579        580        597        596        580        581        598        597        581        582        599        598        582        583        600        599        583        584        601        600        584        585        602        601        585        586        603        602        586        587        604        603        587        588        605        604        588        589        606        605        589        590        607        606        590        591        608        607        591        592        609        608        592        593        610        609        593        594        611        610        595        596        613        612        596        597        614        613        597        598        615        614        598        599        616        615        599        600        617        616        600        601        618        617        601        602        619        618        602        603        620        619        603        604        621        620        604        605        622        621        605        606        623        622        606        607        624        623        607        608        625        624        608        609        626        625        609        610        627        626        610        611        628        627        612        613        630        629        613        614        631        630        614        615        632        631        615        616        633        632        616        617        634        633        617        618        635        634        618        619        636        635        619        620        637        636        620        621        638        637        621        622        639        638        622        623        640        639        623        624        641        640        624        625        642        641        625        626        643        642        626        627        644        643        627        628        645        644        629        630        647        646        630        631        648        647        631        632        649        648        632        633        650        649        633        634        651        650        634        635        652        651        635        636        653        652        636        637        654        653        637        638        655        654        638        639        656        655        639        640        657        656        640        641        658        657        641        642        659        658        642        643        660        659        643        644        661        660        644        645        662        661        646        647        664        663        647        648        665        664        648        649        666        665        649        650        667        666        650        651        668        667        651        652        669        668        652        653        670        669        653        654        671        670        654        655        672        671        655        656        673        672        656        657        674        673        657        658        675        674        658        659        676        675        659        660        677        676        660        661        678        677        661        662        679        678        663        664        681        680        664        665        682        681        665        666        683        682        666        667        684        683        667        668        685        684        668        669        686        685        669        670        687        686        670        671        688        687        671        672        689        688        672        673        690        689        673        674        691        690        674        675        692        691        675        676        693        692        676        677        694        693        677        678        695        694        678        679        696        695        680        681        698        697        681        682        699        698        682        683        700        699        683        684        701        700        684        685        702        701        685        686        703        702        686        687        704        703        687        688        705        704        688        689        706        705        689        690        707        706        690        691        708        707        691        692        709        708        692        693        710        709        693        694        711        710        694        695        712        711        695        696        713        712        697        698        715        714        698        699        716        715        699        700        717        716        700        701        718        717        701        702        719        718        702        703        720        719        703        704        721        720        704        705        722        721        705        706        723        722        706        707        724        723        707        708        725        724        708        709        726        725        709        710        727        726        710        711        728        727        711        712        729        728        712        713        730        729        714        715        732        731        715        716        733        732        716        717        734        733        717        718        735        734        718        719        736        735        719        720        737        736        720        721        738        737        721        722        739        738        722        723        740        739        723        724        741        740        724        725        742        741        725        726        743        742        726        727        744        743        727        728        745        744        728        729        746        745        729        730        747        746        731        732        749        748        732        733        750        749        733        734        751        750        734        735        752        751        735        736        753        752        736        737        754        753        737        738        755        754        738        739        756        755        739        740        757        756        740        741        758        757        741        742        759        758        742        743        760        759        743        744        761        760        744        745        762        761        745        746        763        762        746        747        764        763        748        749        766        765        749        750        767        766        750        751        768        767        751        752        769        768        752        753        770        769        753        754        771        770        754        755        772        771        755        756        773        772        756        757        774        773        757        758        775        774        758        759        776        775        759        760        777        776        760        761        778        777        761        762        779        778        762        763        780        779        763        764        781        780        765        766        783        782        766        767        784        783        767        768        785        784        768        769        786        785        769        770        787        786        770        771        788        787        771        772        789        788        772        773        790        789        773        774        791        790        774        775        792        791        775        776        793        792        776        777        794        793        777        778        795        794        778        779        796        795        779        780        797        796        780        781        798        797        782        783        800        799        783        784        801        800        784        785        802        801        785        786        803        802        786        787        804        803        787        788        805        804        788        789        806        805        789        790        807        806        790        791        808        807        791        792        809        808        792        793        810        809        793        794        811        810        794        795        812        811        795        796        813        812        796        797        814        813        797        798        815        814        799        800        817        816        800        801        818        817        801        802        819        818        802        803        820        819        803        804        821        820        804        805        822        821        805        806        823        822        806        807        824        823        807        808        825        824        808        809        826        825        809        810        827        826        810        811        828        827        811        812        829        828        812        813        830        829        813        814        831        830        814        815        832        831        816        817        834        833        817        818        835        834        818        819        836        835        819        820        837        836        820        821        838        837        821        822        839        838        822        823        840        839        823        824        841        840        824        825        842        841        825        826        843        842        826        827        844        843        827        828        845        844        828        829        846        845        829        830        847        846        830        831        848        847        831        832        849        848        833        834        562        561        834        835        563        562        835        836        564        563        836        837        565        564        837        838        566        565        838        839        567        566        839        840        568        567        840        841        569        568        841        842        570        569        842        843        571        570        843        844        572        571        844        845        573        572        845        846        574        573        846        847        575        574        847        848        576        575        848        849        577        576        884        885        579        578        885        886        580        579        886        887        581        580        887        888        582        581        888        889        583        582        889        890        584        583        890        891        585        584        891        892        586        585        892        893        587        586        893        894        588        587        894        895        589        588        895        896        590        589        896        897        591        590        897        898        592        591        898        899        593        592        899        900        594        593        901        902        885        884        902        903        886        885        903        904        887        886        904        905        888        887        905        906        889        888        906        907        890        889        907        908        891        890        908        909        892        891        909        910        893        892        910        911        894        893        911        912        895        894        912        913        896        895        913        914        897        896        914        915        898        897        915        916        899        898        916        917        900        899        918        919        902        901        919        920        903        902        920        921        904        903        921        922        905        904        922        923        906        905        923        924        907        906        924        925        908        907        925        926        909        908        926        927        910        909        927        928        911        910        928        929        912        911        929        930        913        912        930        931        914        913        931        932        915        914        932        933        916        915        933        934        917        916        935        936        919        918        936        937        920        919        937        938        921        920        938        939        922        921        939        940        923        922        940        941        924        923        941        942        925        924        942        943        926        925        943        944        927        926        944        945        928        927        945        946        929        928        946        947        930        929        947        948        931        930        948        949        932        931        949        950        933        932        950        951        934        933        952        953        936        935        953        954        937        936        954        955        938        937        955        956        939        938        956        957        940        939        957        958        941        940        958        959        942        941        959        960        943        942        960        961        944        943        961        962        945        944        962        963        946        945        963        964        947        946        964        965        948        947        965        966        949        948        966        967        950        949        967        968        951        950        969        970        953        952        970        971        954        953        971        972        955        954        972        973        956        955        973        974        957        956        974        975        958        957        975        976        959        958        976        977        960        959        977        978        961        960        978        979        962        961        979        980        963        962        980        981        964        963        981        982        965        964        982        983        966        965        983        984        967        966        984        985        968        967        986        987        970        969        987        988        971        970        988        989        972        971        989        990        973        972        990        991        974        973        991        992        975        974        992        993        976        975        993        994        977        976        994        995        978        977        995        996        979        978        996        997        980        979        997        998        981        980        998        999        982        981        999       1000        983        982       1000       1001        984        983       1001       1002        985        984       1003       1004        987        986       1004       1005        988        987       1005       1006        989        988       1006       1007        990        989       1007       1008        991        990       1008       1009        992        991       1009       1010        993        992       1010       1011        994        993       1011       1012        995        994       1012       1013        996        995       1013       1014        997        996       1014       1015        998        997       1015       1016        999        998       1016       1017       1000        999       1017       1018       1001       1000       1018       1019       1002       1001       1020       1021       1004       1003       1021       1022       1005       1004       1022       1023       1006       1005       1023       1024       1007       1006       1024       1025       1008       1007       1025       1026       1009       1008       1026       1027       1010       1009       1027       1028       1011       1010       1028       1029       1012       1011       1029       1030       1013       1012       1030       1031       1014       1013       1031       1032       1015       1014       1032       1033       1016       1015       1033       1034       1017       1016       1034       1035       1018       1017       1035       1036       1019       1018       1037       1038       1021       1020       1038       1039       1022       1021       1039       1040       1023       1022       1040       1041       1024       1023       1041       1042       1025       1024       1042       1043       1026       1025       1043       1044       1027       1026       1044       1045       1028       1027       1045       1046       1029       1028       1046       1047       1030       1029       1047       1048       1031       1030       1048       1049       1032       1031       1049       1050       1033       1032       1050       1051       1034       1033       1051       1052       1035       1034       1052       1053       1036       1035       1054       1055       1038       1037       1055       1056       1039       1038       1056       1057       1040       1039       1057       1058       1041       1040       1058       1059       1042       1041       1059       1060       1043       1042       1060       1061       1044       1043       1061       1062       1045       1044       1062       1063       1046       1045       1063       1064       1047       1046       1064       1065       1048       1047       1065       1066       1049       1048       1066       1067       1050       1049       1067       1068       1051       1050       1068       1069       1052       1051       1069       1070       1053       1052       1071       1072       1055       1054       1072       1073       1056       1055       1073       1074       1057       1056       1074       1075       1058       1057       1075       1076       1059       1058       1076       1077       1060       1059       1077       1078       1061       1060       1078       1079       1062       1061       1079       1080       1063       1062       1080       1081       1064       1063       1081       1082       1065       1064       1082       1083       1066       1065       1083       1084       1067       1066       1084       1085       1068       1067       1085       1086       1069       1068       1086       1087       1070       1069       1088       1089       1072       1071       1089       1090       1073       1072       1090       1091       1074       1073       1091       1092       1075       1074       1092       1093       1076       1075       1093       1094       1077       1076       1094       1095       1078       1077       1095       1096       1079       1078       1096       1097       1080       1079       1097       1098       1081       1080       1098       1099       1082       1081       1099       1100       1083       1082       1100       1101       1084       1083       1101       1102       1085       1084       1102       1103       1086       1085       1103       1104       1087       1086       1105       1106       1089       1088       1106       1107       1090       1089       1107       1108       1091       1090       1108       1109       1092       1091       1109       1110       1093       1092       1110       1111       1094       1093       1111       1112       1095       1094       1112       1113       1096       1095       1113       1114       1097       1096       1114       1115       1098       1097       1115       1116       1099       1098       1116       1117       1100       1099       1117       1118       1101       1100       1118       1119       1102       1101       1119       1120       1103       1102       1120       1121       1104       1103       1122       1123       1106       1105       1123       1124       1107       1106       1124       1125       1108       1107       1125       1126       1109       1108       1126       1127       1110       1109       1127       1128       1111       1110       1128       1129       1112       1111       1129       1130       1113       1112       1130       1131       1114       1113       1131       1132       1115       1114       1132       1133       1116       1115       1133       1134       1117       1116       1134       1135       1118       1117       1135       1136       1119       1118       1136       1137       1120       1119       1137       1138       1121       1120        272        273       1123       1122        273        274       1124       1123        274        275       1125       1124        275        276       1126       1125        276        277       1127       1126        277        278       1128       1127        278        279       1129       1128        279        280       1130       1129        280        281       1131       1130        281        282       1132       1131        282        283       1133       1132        283        284       1134       1133        284        285       1135       1134        285        286       1136       1135        286        287       1137       1136        287        288       1138       1137 </DataArray>
<DataArray type="Int32"                                    Name="offsets"                                                      NumberOfComponents=" 1" format="ascii">
         4          8         12         16         20         24         28         32         36         40         44         48         52         56         60         64         68         72         76         80         84         88         92         96        100        104        108        112        116        120        124        128        132        136        140        144        148        152        156        160        164        168        172        176        180        184        188        192        196        200        204        208        212        216        220        224        228        232        236        240        244        248        252        256        260        264        268        272        276        280        284        288        292        296        300        304        308        312        316        320        324        328        332        336        340        344        348        352        356        360        364        368        372        376        380        384        388        392        396        400        404        408        412        416        420        424        428        432        436        440        444        448        452        456        460        464        468        472        476        480        484        488        492        496        500        504        508        512        516        520        524        528        532        536        540        544        548        552        556        560        564        568        572        576        580        584        588        592        596        600        604        608        612        616        620        624        628        632        636        640        644        648        652        656        660        664        668        672        676        680        684        688        692        696        700        704        708        712        716        720        724        728        732        736        740        744        748        752        756        760        764        768        772        776        780        784        788        792        796        800        804        808        812        816        820        824        828        832        836        840        844        848        852        856        860        864        868        872        876        880        884        888        892        896        900        904        908        912        916        920        924        928        932        936        940        944        948        952        956        960        964        968        972        976        980        984        988        992        996       1000       1004       1008       1012       1016       1020       1024       1028       1032       1036       1040       1044       1048       1052       1056       1060       1064       1068       1072       1076       1080       1084       1088       1092       1096       1100       1104       1108       1112       1116       1120       1124       1128       1132       1136       1140       1144       1148       1152       1156       1160       1164       1168       1172       1176       1180       1184       1188       1192       1196       1200       1204       1208       1212       1216       1220       1224       1228       1232       1236       1240       1244       1248       1252       1256       1260       1264       1268       1272       1276       1280       1284       1288       1292       1296       1300       1304       1308       1312       1316       1320       1324       1328       1332       1336       1340       1344       1348       1352       1356       1360       1364       1368       1372       1376       1380       1384       1388       1392       1396       1400       1404       1408       1412       1416       1420       1424       1428       1432       1436       1440       1444       1448       1452       1456       1460       1464       1468       1472       1476       1480       1484       1488       1492       1496       1500       1504       1508       1512       1516       1520       1524       1528       1532       1536       1540       1544       1548       1552       1556       1560       1564       1568       1572       1576       1580       1584       1588       1592       1596       1600       1604       1608       1612       1616       1620       1624       1628       1632       1636       1640       1644       1648       1652       1656       1660       1664       1668       1672       1676       1680       1684       1688       1692       1696       1700       1704       1708       1712       1716       1720       1724       1728       1732       1736       1740       1744       1748       1752       1756       1760       1764       1768       1772       1776       1780       1784       1788       1792       1796       1800       1804       1808       1812       1816       1820       1824       1828       1832       1836       1840       1844       1848       1852       1856       1860       1864       1868       1872       1876       1880       1884       1888       1892       1896       1900       1904       1908       1912       1916       1920       1924       1928       1932       1936       1940       1944       1948       1952       1956       1960       1964       1968       1972       1976       1980       1984       1988       1992       1996       2000       2004       2008       2012       2016       2020       2024       2028       2032       2036       2040       2044       2048       2052       2056       2060       2064       2068       2072       2076       2080       2084       2088       2092       2096       2100       2104       2108       2112       2116       2120       2124       2128       2132       2136       2140       2144       2148       2152       2156       2160       2164       2168       2172       2176       2180       2184       2188       2192       2196       2200       2204       2208       2212       2216       2220       2224       2228       2232       2236       2240       2244       2248       2252       2256       2260       2264       2268       2272       2276       2280       2284       2288       2292       2296       2300       2304       2308       2312       2316       2320       2324       2328       2332       2336       2340       2344       2348       2352       2356       2360       2364       2368       2372       2376       2380       2384       2388       2392       2396       2400       2404       2408       2412       2416       2420       2424       2428       2432       2436       2440       2444       2448       2452       2456       2460       2464       2468       2472       2476       2480       2484       2488       2492       2496       2500       2504       2508       2512       2516       2520       2524       2528       2532       2536       2540       2544       2548       2552       2556       2560       2564       2568       2572       2576       2580       2584       2588       2592       2596       2600       2604       2608       2612       2616       2620       2624       2628       2632       2636       2640       2644       2648       2652       2656       2660       2664       2668       2672       2676       2680       2684       2688       2692       2696       2700       2704       2708       2712       2716       2720       2724       2728       2732       2736       2740       2744       2748       2752       2756       2760       2764       2768       2772       2776       2780       2784       2788       2792       2796       2800       2804       2808       2812       2816       2820       2824       2828       2832       2836       2840       2844       2848       2852       2856       2860       2864       2868       2872       2876       2880       2884       2888       2892       2896       2900       2904       2908       2912       2916       2920       2924       2928       2932       2936       2940       2944       2948       2952       2956       2960       2964       2968       2972       2976       2980       2984       2988       2992       2996       3000       3004       3008       3012       3016       3020       3024       3028       3032       3036       3040       3044       3048       3052       3056       3060       3064       3068       3072       3076       3080       3084       3088       3092       3096       3100       3104       3108       3112       3116       3120       3124       3128       3132       3136       3140       3144       3148       3152       3156       3160       3164       3168       3172       3176       3180       3184       3188       3192       3196       3200       3204       3208       3212       3216       3220       3224       3228       3232       3236       3240       3244       3248       3252       3256       3260       3264       3268       3272       3276       3280       3284       3288       3292       3296       3300       3304       3308       3312       3316       3320       3324       3328       3332       3336       3340       3344       3348       3352       3356       3360       3364       3368       3372       3376       3380       3384       3388       3392       3396       3400       3404       3408       3412       3416       3420       3424       3428       3432       3436       3440       3444       3448       3452       3456       3460       3464       3468       3472       3476       3480       3484       3488       3492       3496       3500       3504       3508       3512       3516       3520       3524       3528       3532       3536       3540       3544       3548       3552       3556       3560       3564       3568       3572       3576       3580       3584       3588       3592       3596       3600       3604       3608       3612       3616       3620       3624       3628       3632       3636       3640       3644       3648       3652       3656       3660       3664       3668       3672       3676       3680       3684       3688       3692       3696       3700       3704       3708       3712       3716       3720       3724       3728       3732       3736       3740       3744       3748       3752       3756       3760       3764       3768       3772       3776       3780       3784       3788       3792       3796       3800       3804       3808       3812       3816       3820       3824       3828       3832       3836       3840       3844       3848       3852       3856       3860       3864       3868       3872       3876       3880       3884       3888       3892       3896       3900       3904       3908       3912       3916       3920       3924       3928       3932       3936       3940       3944       3948       3952       3956       3960       3964       3968       3972       3976       3980       3984       3988       3992       3996       4000       4004       4008       4012       4016       4020       4024       4028       4032       4036       4040       4044       4048       4052       4056       4060       4064       4068       4072       4076       4080       4084       4088       4092       4096 </DataArray>
<DataArray type="UInt8"                                    Name="types"                                                      NumberOfComponents=" 1" format="ascii">
         9          9          9          9          9          9          9          9          9          9          9          9          9          9          9          9          9          9          9          9          9          9          9          9          9          9          9          9          9          9          9          9          9          9          9          9          9          9          9          9          9          9          9          9          9          9          9          9          9          9          9          9          9          9          9          9          9          9          9          9          9          9          9          9          9          9          9          9          9          9          9          9          9          9          9          9          9          9          9          9          9          9          9          9          9          9          9          9          9          9          9          9          9          9          9          9          9          9          9          9          9          9          9          9          9          9          9          9          9          9          9          9          9          9          9          9          9          9          9          9          9          9          9          9          9          9          9          9          9          9          9          9          9          9          9          9          9          9          9          9          9          9          9          9          9          9          9          9          9          9          9          9          9          9          9          9          9          9          9          9          9          9          9          9          9          9          9          9          9          9          9          9          9          9          9          9          9          9          9          9          9          9          9          9          9          9          9          9          9          9          9          9          9          9          9          9          9          9          9          9          9          9          9          9          9          9          9          9          9          9          9          9          9          9          9          9          9          9          9          9          9          9          9          9          9          9          9          9          9          9          9          9          9          9          9          9          9          9          9          9          9          9          9          9          9          9          9          9          9          9          9          9          9          9          9          9          9          9          9          9          9          9          9          9          9          9          9          9          9          9          9          9          9          9          9          9          9          9          9          9          9          9          9          9          9          9          9          9          9          9          9          9          9          9          9          9          9          9          9          9          9          9          9          9          9          9          9          9          9          9          9          9          9          9          9          9          9          9          9          9          9          9          9          9          9          9          9          9          9          9          9          9          9          9          9          9          9          9          9          9          9          9          9          9          9          9          9          9          9          9          9          9          9          9          9          9          9          9          9          9          9          9          9          9          9          9          9          9          9          9          9          9          9          9          9          9          9          9          9          9          9          9          9          9          9          9          9          9          9          9          9          9          9          9          9          9          9          9          9          9          9          9          9          9          9          9          9          9          9          9          9          9          9          9          9          9          9          9          9          9          9          9          9          9          9          9          9          9          9          9          9          9          9          9          9          9          9          9          9          9          9          9          9          9          9          9          9          9          9          9          9          9          9          9          9          9          9          9          9          9          9          9          9          9          9          9          9          9          9          9          9          9          9          9          9          9          9          9          9          9          9          9          9          9          9          9          9          9          9          9          9          9          9          9          9          9          9          9          9          9          9          9          9          9          9          9          9          9          9          9          9          9          9          9          9          9          9          9          9          9          9          9          9          9          9          9          9          9          9          9          9          9          9          9          9          9          9          9          9          9          9          9          9          9          9          9          9          9          9          9          9          9          9          9          9          9          9          9          9          9          9          9          9          9          9          9          9          9          9          9          9          9          9          9          9          9          9          9          9          9          9          9          9          9          9          9          9          9          9          9          9          9          9          9          9          9          9          9          9          9          9          9          9          9          9          9          9          9          9          9          9          9          9          9          9          9          9          9          9          9          9          9          9          9          9          9          9          9          9          9          9          9          9          9          9          9          9          9          9          9          9          9          9          9          9          9          9          9          9          9          9          9          9          9          9          9          9          9          9          9          9          9          9          9          9          9          9          9          9          9          9          9          9          9          9          9          9          9          9          9          9          9          9          9          9          9          9          9          9          9          9          9          9          9          9          9          9          9          9          9          9          9          9          9          9          9          9          9          9          9          9          9          9          9          9          9          9          9          9          9          9          9          9          9          9          9          9          9          9          9          9          9          9          9          9          9          9          9          9          9          9          9          9          9          9          9          9          9          9          9          9          9          9          9          9          9          9          9          9          9          9          9          9          9          9          9          9          9          9          9          9          9          9          9          9          9          9          9          9          9          9          9          9          9          9          9          9          9          9          9          9          9          9          9          9          9          9          9          9          9          9          9          9          9          9          9          9          9          9          9          9          9          9          9          9          9          9          9          9          9          9          9          9          9          9          9          9          9          9          9          9          9          9          9          9          9          9          9          9          9          9          9          9          9          9          9          9          9          9          9          9          9          9          9          9          9          9          9          9          9          9          9          9          9          9          9          9          9          9          9          9          9          9          9          9          9          9          9          9          9          9          9          9          9          9          9          9          9          9          9          9          9          9          9          9          9          9          9          9          9          9          9          9          9          9          9          9          9          9          9          9          9          9          9          9          9          9          9          9          9          9          9          9          9          9          9          9          9          9          9          9          9          9          9          9          9          9          9          9          9          9          9          9          9          9          9          9          9          9          9          9          9          9          9          9          9          9          9          9          9          9          9          9          9          9          9          9          9          9          9          9          9          9          9          9          9          9          9          9          9          9          9          9          9          9          9          9          9          9          9          9          9          9          9          9          9          9          9          9          9          9          9          9          9          9          9          9          9          9          9          9          9          9          9          9          9          9          9          9          9          9          9          9          9 </DataArray>
</Cells>
<CellData>
<DataArray type="Int32"                                    Name="material"                                                      NumberOfComponents=" 1" format="ascii">
         1          1          1          1          1          1          1          1          1          1          1          1          1          1          1          1          1          1          1          1          1          1          1          1          1          1          1          1          1          1          1          1          1          1          1          1          1          1          1          1          1          1          1          1          1          1          1          1          1          1          1          1          1          1          1          1          1          1          1          1          1          1          1          1          1          1          1          1          1          1          1          1          1          1          1          1          1          1          1          1          1          1          1          1          1          1          1          1          1          1          1          1          1          1          1          1          1          1          1          1          1          1          1          1          1          1          1          1          1          1          1          1          1          1          1          1          1          1          1          1          1          1          1          1          1          1          1          1          1          1          1          1          1          1          1          1          1          1          1          1          1          1          1          1          1          1          1          1          1          1          1          1          1          1          1          1          1          1          1          1          1          1          1          1          1          1          1          1          1          1          1          1          1          1          1          1          1          1          1          1          1          1          1          1          1          1          1          1          1          1          1          1          1          1          1          1          1          1          1          1          1          1          1          1          1          1          1          1          1          1          1          1          1          1          1          1          1          1          1          1          1          1          1          1          1          1          1          1          1          1          1          1          1          1          1          1          1          1          1          1          1          1          1          1          1          1          1          1          1          1          1          1          1          1          1          1          1          1          1          1          1          1          1          1          1          1          1          1          1          1          1          1          1          1          1          1          1          1          1          1          1          1          1          1          1          1          1          1          1          1          1          1          1          1          1          1          1          1          1          1          1          1          1          1          1          1          1          1          1          1          1          1          1          1          1          1          1          1          1          1          1          1          1          1          1          1          1          1          1          1          1          1          1          1          1          1          1          1          1          1          1          1          1          1          1          1          1          1          1          1          1          1          1          1          1          1          1          1          1          1          1          1          1          1          1          1          1          1          1          1          1          1          1          1          1          1          1          1          1          1          1          1          1          1          1          1          1          1          1          1          1          1          1          1          1          1          1          1          1          1          1          1          1          1          1          1          1          1          1          1          1          1          1          1          1          1          1          1          1          1          1          1          1          1          1          1          1          1          1          1          1          1          1          1          1          1          1          1          1          1          1          1          1          1          1          1          1          1          1          1          1          1          1          1          1          1          1          1          1          1          1          1          1          1          1          1          1          1          1          1          1          1          1          1          1          1          1          1          1          1          1          1          1          1          1          1          1          1          1          1          1          1          1          1          1          1          1          1          1          1          1          1          1          1          1          1          1          1          1          1          1          1          1          1          1          1          1          1          1          1          1          1          1          1          1          1          1          1          1          1          1          1          1          1          1          1          1          1          1          1          1          1          1          1          1          1          1          1          1          1          1          1          1          1          1          1          1          1          1          1          1          1          1          1          1          1          1          1          1          1          1          1          1          1          1          1          1          1          1          1          1          1          1          1          1          1          1          1          1          1          1          1          1          1          1          1          1          1          1          1          1          1          1          1          1          1          1          1          1          1          1          1          1          1          1          1          1          1          1          1          1          1          1          1          1          1          1          1          1          1          1          1          1          1          1          1          1          1          1          1          1          1          1          1          1          1          1          1          1          1          1          1          1          1          1          1          1          1          1          1          1          1          1          1          1          1          1          1          1          1          1          1          1          1          1          1          1          1          1          1          1          1          1          1          1          1          1          1          1          1          1          1          1          1          1          1          1          1          1          1          1          1          1          1          1          1          1          1          1          1          1          1          1          1          1          1          1          1          1          1          1          1          1          1          1          1          1          1          1          1          1          1          1          1          1          1          1          1          1          1          1          1          1          1          1          1          1          1          1          1          1          1          1          1          1          1          1          1          1          1          1          1          1          1          1          1          1          1          1          1          1          1          1          1          1          1          1          1          1          1          1          1          1          1          1          1          1          1          1          1          1          1          1          1          1          1          1          1          1          1          1          1          1          1          1          1          1          1          1          1          1          1          1          1          1          1          1          1          1          1          1          1          1          1          1          1          1          1          1          1          1          1          1          1          1          1          1          1          1          1          1          1          1          1          1          1          1          1          1          1          1          1          1          1          1          1          1          1          1          1          1          1          1          1          1          1          1          1          1          1          1          1          1          1          1          1          1          1          1          1          1          1          1          1          1          1          1          1          1          1          1          1          1          1          1          1          1          1          1          1          1          1          1          1          1          1          1          1          1          1          1          1          1          1          1          1          1          1          1          1          1          1          1          1          1          1          1          1          1          1          1          1          1          1          1          1          1          1          1          1          1          1          1          1          1          1          1          1          1          1          1          1          1          1          1          1          1          1          1          1          1          1          1          1          1          1          1          1          1          1          1          1          1          1          1          1          1          1          1          1          1          1          1          1          1          1          1          1          1          1          1          1          1          1          1          1          1          1          1          1          1          1          1          1          1          1          1          1          1          1          1          1          1          1          1          1          1          1          1          1          1          1          1          1 </DataArray>
</CellData>
<PointData>
<DataArray type="Float64"                                    Name="u"                                                      NumberOfComponents=" 3" format="ascii">
             -0.000902200               0.000000000               0.999999987              -0.000949069              -0.000000000               0.999999987              -0.000968186               0.000000000               0.999999987              -0.000978091              -0.000000000               0.999999988              -0.000985643              -0.000000000               0.999999988              -0.000993280               0.000000000               0.999999988              -0.001001784              -0.000000000               0.999999988              -0.001011164              -0.000000000               0.999999988              -0.001021406               0.000000000               0.999999988              -0.001032285               0.000000000               0.999999988              -0.001043446               0.000000000               0.999999988              -0.001054381               0.000000000               0.999999988              -0.001064599               0.000000000               0.999999988              -0.001073608              -0.000000000               0.999999988              -0.001080997               0.000000000               0.999999988              -0.001086173               0.000000000               0.999999988              -0.001088023               0.000000000               0.999999988              -0.000897283               0.000123466               0.999999987              -0.000940006               0.000097209               0.999999987              -0.000956418               0.000084809               0.999999987              -0.000964543               0.000079344               0.999999988              -0.000970853               0.000077354               0.999999988              -0.000977567               0.000076849               0.999999988              -0.000985237               0.000076791               0.999999988              -0.000993762               0.000076653               0.999999988              -0.001002941               0.000075860               0.999999988              -0.001012490               0.000074031               0.999999988              -0.001022036               0.000070832               0.999999988              -0.001031147               0.000065726               0.999999988              -0.001039316               0.000058559               0.999999988              -0.001046110               0.000049043               0.999999988              -0.001051024               0.000036639               0.999999988              -0.001053464               0.000020248               0.999999988              -0.001052766              -0.000001607               0.999999988              -0.000882474               0.000245904               0.999999987              -0.000913120               0.000194151               0.999999987              -0.000921995               0.000170690               0.999999987              -0.000925410               0.000160801               0.999999988              -0.000928504               0.000157673               0.999999988              -0.000932639               0.000157272               0.999999988              -0.000937910               0.000157491               0.999999988              -0.000943892               0.000157257               0.999999988              -0.000950109               0.000155581               0.999999988              -0.000956097               0.000151876               0.999999988              -0.000961365               0.000145455               0.999999988              -0.000965575               0.000135503               0.999999988              -0.000968248               0.000121807               0.999999988              -0.000968933               0.000103802               0.999999988              -0.000967273               0.000080428               0.999999988              -0.000962892               0.000050489               0.999999988              -0.000955642               0.000012305               0.999999988              -0.000857950               0.000366249               0.999999987              -0.000869635               0.000290706               0.999999987              -0.000867633               0.000258570               0.999999988              -0.000864710               0.000246201               0.999999988              -0.000863701               0.000243062               0.999999988              -0.000864482               0.000243476               0.999999988              -0.000866400               0.000244451               0.999999988              -0.000868661               0.000244352               0.999999988              -0.000870497               0.000241962               0.999999988              -0.000871296               0.000236221               0.999999988              -0.000870495               0.000226711               0.999999988              -0.000867665               0.000212495               0.999999988              -0.000862485               0.000193111               0.999999988              -0.000854632               0.000167926               0.999999988              -0.000843871               0.000136218               0.999999988              -0.000830314               0.000097284               0.999999988              -0.000814361               0.000050227               0.999999988              -0.000824260               0.000483405               0.999999987              -0.000811794               0.000386924               0.999999987              -0.000797696               0.000349117               0.999999988              -0.000788421               0.000336285               0.999999988              -0.000783428               0.000334353               0.999999988              -0.000781003               0.000336206               0.999999988              -0.000779481               0.000338188               0.999999988              -0.000777519               0.000338273               0.999999988              -0.000774053               0.000335009               0.999999988              -0.000768408               0.000327437               0.999999988              -0.000760059               0.000314886               0.999999988              -0.000748671               0.000296827               0.999999988              -0.000733973               0.000272753               0.999999988              -0.000715896               0.000242372               0.999999988              -0.000694728               0.000205452               0.999999988              -0.000671032               0.000161958               0.999999988              -0.000645627               0.000112317               0.999999988              -0.000782145               0.000596277               0.999999987              -0.000742537               0.000482949               0.999999988              -0.000717164               0.000442543               0.999999988              -0.000702887               0.000430915               0.999999988              -0.000695087               0.000431081               0.999999988              -0.000690034               0.000434688               0.999999988              -0.000685138               0.000437608               0.999999988              -0.000678484               0.000437665               0.999999988              -0.000668940               0.000433375               0.999999988              -0.000655998               0.000423823               0.999999988              -0.000639102               0.000408378               0.999999988              -0.000618039               0.000386979               0.999999988              -0.000592963               0.000359335               0.999999988              -0.000564257               0.000325286               0.999999988              -0.000532608               0.000285467               0.999999988              -0.000498818               0.000240722               0.999999988              -0.000463902               0.000192534               0.999999988              -0.000732378               0.000703816               0.999999988              -0.000665233               0.000578847               0.999999988              -0.000631247               0.000538391               0.999999988              -0.000614407               0.000529004               0.999999988              -0.000605325               0.000531398               0.999999988              -0.000598190               0.000536642               0.999999988              -0.000589758               0.000540480               0.999999988              -0.000577965               0.000540136               0.999999988              -0.000561813               0.000534600               0.999999988              -0.000540642               0.000522933               0.999999988              -0.000514278               0.000504608               0.999999988              -0.000482915               0.000480240               0.999999988              -0.000447066               0.000449714               0.999999988              -0.000407425               0.000413512               0.999999988              -0.000365016               0.000372773               0.999999988              -0.000320968               0.000329035               0.999999988              -0.000276413               0.000284173               0.999999988              -0.000675770               0.000805006               0.999999988              -0.000583450               0.000674515               0.999999988              -0.000544738               0.000635735               0.999999988              -0.000528125               0.000628703               0.999999988              -0.000518881               0.000633041               0.999999988              -0.000510074               0.000639697               0.999999988              -0.000497965               0.000643890               0.999999988              -0.000480397               0.000642898               0.999999988              -0.000456544               0.000635875               0.999999988              -0.000425998               0.000622055               0.999999988              -0.000389198               0.000601289               0.999999988              -0.000346713               0.000574430               0.999999988              -0.000299233               0.000542044               0.999999988              -0.000247912               0.000505141               0.999999988              -0.000194221               0.000465587               0.999999988              -0.000139634               0.000425083               0.999999988              -0.000085277               0.000385020               0.999999988              -0.000614275               0.000897842               0.999999988              -0.000500211               0.000769746               0.999999988              -0.000462110               0.000732921               0.999999988              -0.000447601               0.000727813               0.999999988              -0.000439046               0.000733712               0.999999988              -0.000428557               0.000741271               0.999999988              -0.000412087               0.000745358               0.999999988              -0.000387588               0.000743588               0.999999988              -0.000354805               0.000734873               0.999999988              -0.000313889               0.000718863               0.999999988              -0.000265521               0.000696135               0.999999988              -0.000210503               0.000667633               0.999999988              -0.000150138               0.000634786               0.999999988              -0.000086387               0.000599421               0.999999988              -0.000021081               0.000563561               0.999999988               0.000044232               0.000528481               0.999999988               0.000108987               0.000494705               0.999999988              -0.000550473               0.000985921               0.999999988              -0.000430197               0.000877226               0.999999988              -0.000390023               0.000837294               0.999999988              -0.000375433               0.000828232               0.999999988              -0.000368024               0.000831991               0.999999988              -0.000359989               0.000839994               0.999999988              -0.000347034               0.000847276               0.999999988              -0.000327078               0.000851077               0.999999988              -0.000299473               0.000849847               0.999999988              -0.000264189               0.000843095               0.999999988              -0.000221564               0.000830803               0.999999988              -0.000171849               0.000813374               0.999999988              -0.000115725               0.000791750               0.999999988              -0.000054284               0.000767286               0.999999988               0.000010592               0.000741436               0.999999988               0.000077120               0.000715687               0.999999988               0.000143972               0.000691232               0.999999988              -0.000480988               0.001066259               0.999999988              -0.000362634               0.000981386               0.999999988              -0.000320542               0.000944573               0.999999988              -0.000305060               0.000933689               0.999999988              -0.000297919               0.000936211               0.999999988              -0.000291580               0.000944808               0.999999988              -0.000281515               0.000954804               0.999999988              -0.000265642               0.000963499               0.999999988              -0.000242954               0.000969052               0.999999988              -0.000213283               0.000970670               0.999999988              -0.000176484               0.000967982               0.999999988              -0.000132615               0.000961190               0.999999988              -0.000081747               0.000950397               0.999999988              -0.000024336               0.000936554               0.999999988               0.000038418               0.000920744               0.999999988               0.000105049               0.000904260               0.999999988               0.000173692               0.000888173               0.999999988              -0.000407274               0.001136749               0.999999988              -0.000297571               0.001078971               0.999999988              -0.000255406               0.001049615               0.999999988              -0.000238773               0.001040144               0.999999988              -0.000231358               0.001042834               0.999999988              -0.000225747               0.001052547               0.999999988              -0.000218080               0.001065255               0.999999988              -0.000205733               0.001078257               0.999999988              -0.000187591               0.001089962               0.999999988              -0.000163173               0.001099251               0.999999988              -0.000132372               0.001105555               0.999999988              -0.000094932               0.001108652               0.999999988              -0.000050185               0.001108599               0.999999988               0.000001763               0.001105539               0.999999988               0.000060547               0.001099978               0.999999988               0.000125429               0.001093027               0.999999988               0.000195106               0.001085648               0.999999988              -0.000330101               0.001196128               0.999999988              -0.000235037               0.001165863               0.999999988              -0.000195353               0.001147203               0.999999988              -0.000178515               0.001141759               0.999999988              -0.000170633               0.001146435               0.999999988              -0.000165429               0.001157894               0.999999988              -0.000159413               0.001173540               0.999999988              -0.000149998               0.001190821               0.999999988              -0.000135910               0.001208077               0.999999988              -0.000116594               0.001224280               0.999999988              -0.000091821               0.001238805               0.999999988              -0.000061151               0.001251119               0.999999988              -0.000023776               0.001261095               0.999999988               0.000020896               0.001268551               0.999999988               0.000073331               0.001273671               0.999999988               0.000133888               0.001276850               0.999999988               0.000201868               0.001278838               0.999999988              -0.000250123               0.001243525               0.999999988              -0.000174657               0.001238086               0.999999988              -0.000140667               0.001231343               0.999999988              -0.000125200               0.001231851               0.999999988              -0.000117617               0.001239839               0.999999988              -0.000112768               0.001253996               0.999999988              -0.000107910               0.001272515               0.999999988              -0.000101007               0.001293636               0.999999988              -0.000090782               0.001315918               0.999999988              -0.000076425               0.001338272               0.999999988              -0.000057636               0.001360088               0.999999988              -0.000034106               0.001380715               0.999999988              -0.000005125               0.001399720               0.999999988               0.000030607               0.001416936               0.999999988               0.000074083               0.001432360               0.999999988               0.000126166               0.001445794               0.999999988               0.000187633               0.001457447               0.999999988              -0.000168014               0.001278026               0.999999988              -0.000115708               0.001292453               0.999999988              -0.000090773               0.001296552               0.999999988              -0.000078757               0.001303098               0.999999988              -0.000072673               0.001314895               0.999999988              -0.000068717               0.001331846               0.999999988              -0.000065209               0.001353071               0.999999988              -0.000060497               0.001377497               0.999999988              -0.000053721               0.001403964               0.999999988              -0.000044085               0.001431544               0.999999988              -0.000031506               0.001459477               0.999999988              -0.000015706               0.001487103               0.999999988               0.000004297               0.001513949               0.999999988               0.000029559               0.001539721               0.999999988               0.000061058               0.001564061               0.999999988               0.000099950               0.001586598               0.999999988               0.000147986               0.001607119               0.999999988              -0.000084399               0.001299019               0.999999988              -0.000057615               0.001326227               0.999999988              -0.000044468               0.001338041               0.999999988              -0.000037797               0.001349153               0.999999988              -0.000034343               0.001363925               0.999999988              -0.000032124               0.001383073               0.999999988              -0.000030249               0.001406296               0.999999988              -0.000027879               0.001432968               0.999999988              -0.000024392               0.001462212               0.999999988              -0.000019486               0.001493149               0.999999988              -0.000013295               0.001524988               0.999999988              -0.000005415               0.001557252               0.999999988               0.000004889               0.001589553               0.999999988               0.000017931               0.001621486               0.999999988               0.000034462               0.001652454               0.999999988               0.000055538               0.001681894               0.999999988               0.000082383               0.001709088               0.999999988              -0.000000000               0.001306119               0.999999988               0.000000000               0.001337658               0.999999988              -0.000000000               0.001352251               0.999999988              -0.000000000               0.001365146               0.999999988               0.000000000               0.001380979               0.999999988               0.000000000               0.001400964               0.999999988              -0.000000000               0.001425035               0.999999988              -0.000000000               0.001452626               0.999999988              -0.000000000               0.001482860               0.999999988              -0.000000000               0.001514898               0.999999988              -0.000000000               0.001548082               0.999999988              -0.000000000               0.001582058               0.999999988               0.000000000               0.001616297               0.999999988               0.000000000               0.001650348               0.999999988               0.000000000               0.001683828               0.999999988              -0.000000000               0.001715958               0.999999988              -0.000000000               0.001745702               0.999999988              -0.000902200               0.000000000               0.999999987              -0.000949069              -0.000000000               0.999999987              -0.000968186               0.000000000               0.999999987              -0.000978091              -0.000000000               0.999999988              -0.000985643              -0.000000000               0.999999988              -0.000993280               0.000000000               0.999999988              -0.001001784              -0.000000000               0.999999988              -0.001011164              -0.000000000               0.999999988              -0.001021406               0.000000000               0.999999988              -0.001032285               0.000000000               0.999999988              -0.001043446               0.000000000               0.999999988              -0.001054381               0.000000000               0.999999988              -0.001064599               0.000000000               0.999999988              -0.001073608              -0.000000000               0.999999988              -0.001080997               0.000000000               0.999999988              -0.001086173               0.000000000               0.999999988              -0.001088023               0.000000000               0.999999988              -0.000897283              -0.000123466               0.999999987              -0.000940006              -0.000097209               0.999999987              -0.000956418              -0.000084809               0.999999987              -0.000964543              -0.000079344               0.999999988              -0.000970853              -0.000077354               0.999999988              -0.000977567              -0.000076849               0.999999988              -0.000985237              -0.000076791               0.999999988              -0.000993762              -0.000076653               0.999999988              -0.001002941              -0.000075860               0.999999988              -0.001012490              -0.000074031               0.999999988              -0.001022036              -0.000070832               0.999999988              -0.001031147              -0.000065726               0.999999988              -0.001039316              -0.000058559               0.999999988              -0.001046110              -0.000049043               0.999999988              -0.001051024              -0.000036639               0.999999988              -0.001053464              -0.000020248               0.999999988              -0.001052766               0.000001607               0.999999988              -0.000882474              -0.000245904               0.999999987              -0.000913120              -0.000194151               0.999999987              -0.000921995              -0.000170690               0.999999987              -0.000925410              -0.000160801               0.999999988              -0.000928504              -0.000157673               0.999999988              -0.000932639              -0.000157272               0.999999988              -0.000937910              -0.000157491               0.999999988              -0.000943892              -0.000157257               0.999999988              -0.000950109              -0.000155581               0.999999988              -0.000956097              -0.000151876               0.999999988              -0.000961365              -0.000145455               0.999999988              -0.000965575              -0.000135503               0.999999988              -0.000968248              -0.000121807               0.999999988              -0.000968933              -0.000103802               0.999999988              -0.000967273              -0.000080428               0.999999988              -0.000962892              -0.000050489               0.999999988              -0.000955642              -0.000012305               0.999999988              -0.000857950              -0.000366249               0.999999987              -0.000869635              -0.000290706               0.999999987              -0.000867633              -0.000258570               0.999999988              -0.000864710              -0.000246201               0.999999988              -0.000863701              -0.000243062               0.999999988              -0.000864482              -0.000243476               0.999999988              -0.000866400              -0.000244451               0.999999988              -0.000868661              -0.000244352               0.999999988              -0.000870497              -0.000241962               0.999999988              -0.000871296              -0.000236221               0.999999988              -0.000870495              -0.000226711               0.999999988              -0.000867665              -0.000212495               0.999999988              -0.000862485              -0.000193111               0.999999988              -0.000854632              -0.000167926               0.999999988              -0.000843871              -0.000136218               0.999999988              -0.000830314              -0.000097284               0.999999988              -0.000814361              -0.000050227               0.999999988              -0.000824260              -0.000483405               0.999999987              -0.000811794              -0.000386924               0.999999987              -0.000797696              -0.000349117               0.999999988              -0.000788421              -0.000336285               0.999999988              -0.000783428              -0.000334353               0.999999988              -0.000781003              -0.000336206               0.999999988              -0.000779481              -0.000338188               0.999999988              -0.000777519              -0.000338273               0.999999988              -0.000774053              -0.000335009               0.999999988              -0.000768408              -0.000327437               0.999999988              -0.000760059              -0.000314886               0.999999988              -0.000748671              -0.000296827               0.999999988              -0.000733973              -0.000272753               0.999999988              -0.000715896              -0.000242372               0.999999988              -0.000694728              -0.000205452               0.999999988              -0.000671032              -0.000161958               0.999999988              -0.000645627              -0.000112317               0.999999988              -0.000782145              -0.000596277               0.999999987              -0.000742537              -0.000482949               0.999999988              -0.000717164              -0.000442543               0.999999988              -0.000702887              -0.000430915               0.999999988              -0.000695087              -0.000431081               0.999999988              -0.000690034              -0.000434688               0.999999988              -0.000685138              -0.000437608               0.999999988              -0.000678484              -0.000437665               0.999999988              -0.000668940              -0.000433375               0.999999988              -0.000655998              -0.000423823               0.999999988              -0.000639102              -0.000408378               0.999999988              -0.000618039              -0.000386979               0.999999988              -0.000592963              -0.000359335               0.999999988              -0.000564257              -0.000325286               0.999999988              -0.000532608              -0.000285467               0.999999988              -0.000498818              -0.000240722               0.999999988              -0.000463902              -0.000192534               0.999999988              -0.000732378              -0.000703816               0.999999988              -0.000665233              -0.000578847               0.999999988              -0.000631247              -0.000538391               0.999999988              -0.000614407              -0.000529004               0.999999988              -0.000605325              -0.000531398               0.999999988              -0.000598190              -0.000536642               0.999999988              -0.000589758              -0.000540480               0.999999988              -0.000577965              -0.000540136               0.999999988              -0.000561813              -0.000534600               0.999999988              -0.000540642              -0.000522933               0.999999988              -0.000514278              -0.000504608               0.999999988              -0.000482915              -0.000480240               0.999999988              -0.000447066              -0.000449714               0.999999988              -0.000407425              -0.000413512               0.999999988              -0.000365016              -0.000372773               0.999999988              -0.000320968              -0.000329035               0.999999988              -0.000276413              -0.000284173               0.999999988              -0.000675770              -0.000805006               0.999999988              -0.000583450              -0.000674515               0.999999988              -0.000544738              -0.000635735               0.999999988              -0.000528125              -0.000628703               0.999999988              -0.000518881              -0.000633041               0.999999988              -0.000510074              -0.000639697               0.999999988              -0.000497965              -0.000643890               0.999999988              -0.000480397              -0.000642898               0.999999988              -0.000456544              -0.000635875               0.999999988              -0.000425998              -0.000622055               0.999999988              -0.000389198              -0.000601289               0.999999988              -0.000346713              -0.000574430               0.999999988              -0.000299233              -0.000542044               0.999999988              -0.000247912              -0.000505141               0.999999988              -0.000194221              -0.000465587               0.999999988              -0.000139634              -0.000425083               0.999999988              -0.000085277              -0.000385020               0.999999988              -0.000614275              -0.000897842               0.999999988              -0.000500211              -0.000769746               0.999999988              -0.000462110              -0.000732921               0.999999988              -0.000447601              -0.000727813               0.999999988              -0.000439046              -0.000733712               0.999999988              -0.000428557              -0.000741271               0.999999988              -0.000412087              -0.000745358               0.999999988              -0.000387588              -0.000743588               0.999999988              -0.000354805              -0.000734873               0.999999988              -0.000313889              -0.000718863               0.999999988              -0.000265521              -0.000696135               0.999999988              -0.000210503              -0.000667633               0.999999988              -0.000150138              -0.000634786               0.999999988              -0.000086387              -0.000599421               0.999999988              -0.000021081              -0.000563561               0.999999988               0.000044232              -0.000528481               0.999999988               0.000108987              -0.000494705               0.999999988              -0.000550473              -0.000985921               0.999999988              -0.000430197              -0.000877226               0.999999988              -0.000390023              -0.000837294               0.999999988              -0.000375433              -0.000828232               0.999999988              -0.000368024              -0.000831991               0.999999988              -0.000359989              -0.000839994               0.999999988              -0.000347034              -0.000847276               0.999999988              -0.000327078              -0.000851077               0.999999988              -0.000299473              -0.000849847               0.999999988              -0.000264189              -0.000843095               0.999999988              -0.000221564              -0.000830803               0.999999988              -0.000171849              -0.000813374               0.999999988              -0.000115725              -0.000791750               0.999999988              -0.000054284              -0.000767286               0.999999988               0.000010592              -0.000741436               0.999999988               0.000077120              -0.000715687               0.999999988               0.000143972              -0.000691232               0.999999988              -0.000480988              -0.001066259               0.999999988              -0.000362634              -0.000981386               0.999999988              -0.000320542              -0.000944573               0.999999988              -0.000305060              -0.000933689               0.999999988              -0.000297919              -0.000936211               0.999999988              -0.000291580              -0.000944808               0.999999988              -0.000281515              -0.000954804               0.999999988              -0.000265642              -0.000963499               0.999999988              -0.000242954              -0.000969052               0.999999988              -0.000213283              -0.000970670               0.999999988              -0.000176484              -0.000967982               0.999999988              -0.000132615              -0.000961190               0.999999988              -0.000081747              -0.000950397               0.999999988              -0.000024336              -0.000936554               0.999999988               0.000038418              -0.000920744               0.999999988               0.000105049              -0.000904260               0.999999988               0.000173692              -0.000888173               0.999999988              -0.000407274              -0.001136749               0.999999988              -0.000297571              -0.001078971               0.999999988              -0.000255406              -0.001049615               0.999999988              -0.000238773              -0.001040144               0.999999988              -0.000231358              -0.001042834               0.999999988              -0.000225747              -0.001052547               0.999999988              -0.000218080              -0.001065255               0.999999988              -0.000205733              -0.001078257               0.999999988              -0.000187591              -0.001089962               0.999999988              -0.000163173              -0.001099251               0.999999988              -0.000132372              -0.001105555               0.999999988              -0.000094932              -0.001108652               0.999999988              -0.000050185              -0.001108599               0.999999988               0.000001763              -0.001105539               0.999999988               0.000060547              -0.001099978               0.999999988               0.000125429              -0.001093027               0.999999988               0.000195106              -0.001085648               0.999999988              -0.000330101              -0.001196128               0.999999988              -0.000235037              -0.001165863               0.999999988              -0.000195353              -0.001147203               0.999999988              -0.000178515              -0.001141759               0.999999988              -0.000170633              -0.001146435               0.999999988              -0.000165429              -0.001157894               0.999999988              -0.000159413              -0.001173540               0.999999988              -0.000149998              -0.001190821               0.999999988              -0.000135910              -0.001208077               0.999999988              -0.000116594              -0.001224280               0.999999988              -0.000091821              -0.001238805               0.999999988              -0.000061151              -0.001251119               0.999999988              -0.000023776              -0.001261095               0.999999988               0.000020896              -0.001268551               0.999999988               0.000073331              -0.001273671               0.999999988               0.000133888              -0.001276850               0.999999988               0.000201868              -0.001278838               0.999999988              -0.000250123              -0.001243525               0.999999988              -0.000174657              -0.001238086               0.999999988              -0.000140667              -0.001231343               0.999999988              -0.000125200              -0.001231851               0.999999988              -0.000117617              -0.001239839               0.999999988              -0.000112768              -0.001253996               0.999999988              -0.000107910              -0.001272515               0.999999988              -0.000101007              -0.001293636               0.999999988              -0.000090782              -0.001315918               0.999999988              -0.000076425              -0.001338272               0.999999988              -0.000057636              -0.001360088               0.999999988              -0.000034106              -0.001380715               0.999999988              -0.000005125              -0.001399720               0.999999988               0.000030607              -0.001416936               0.999999988               0.000074083              -0.001432360               0.999999988               0.000126166              -0.001445794               0.999999988               0.000187633              -0.001457447               0.999999988              -0.000168014              -0.001278026               0.999999988              -0.000115708              -0.001292453               0.999999988              -0.000090773              -0.001296552               0.999999988              -0.000078757              -0.001303098               0.999999988              -0.000072673              -0.001314895               0.999999988              -0.000068717              -0.001331846               0.999999988              -0.000065209              -0.001353071               0.999999988              -0.000060497              -0.001377497               0.999999988              -0.000053721              -0.001403964               0.999999988              -0.000044085              -0.001431544               0.999999988              -0.000031506              -0.001459477               0.999999988              -0.000015706              -0.001487103               0.999999988               0.000004297              -0.001513949               0.999999988               0.000029559              -0.001539721               0.999999988               0.000061058              -0.001564061               0.999999988               0.000099950              -0.001586598               0.999999988               0.000147986              -0.001607119               0.999999988              -0.000084399              -0.001299019               0.999999988              -0.000057615              -0.001326227               0.999999988              -0.000044468              -0.001338041               0.999999988              -0.000037797              -0.001349153               0.999999988              -0.000034343              -0.001363925               0.999999988              -0.000032124              -0.001383073               0.999999988              -0.000030249              -0.001406296               0.999999988              -0.000027879              -0.001432968               0.999999988              -0.000024392              -0.001462212               0.999999988              -0.000019486              -0.001493149               0.999999988              -0.000013295              -0.001524988               0.999999988              -0.000005415              -0.001557252               0.999999988               0.000004889              -0.001589553               0.999999988               0.000017931              -0.001621486               0.999999988               0.000034462              -0.001652454               0.999999988               0.000055538              -0.001681894               0.999999988               0.000082383              -0.001709088               0.999999988               0.000000000              -0.001306119               0.999999988               0.000000000              -0.001337658               0.999999988               0.000000000              -0.001352251               0.999999988              -0.000000000              -0.001365146               0.999999988              -0.000000000              -0.001380979               0.999999988               0.000000000              -0.001400964               0.999999988               0.000000000              -0.001425035               0.999999988               0.000000000              -0.001452626               0.999999988               0.000000000              -0.001482860               0.999999988               0.000000000              -0.001514898               0.999999988               0.000000000              -0.001548082               0.999999988              -0.000000000              -0.001582058               0.999999988               0.000000000              -0.001616297               0.999999988              -0.000000000              -0.001650348               0.999999988              -0.000000000              -0.001683828               0.999999988               0.000000000              -0.001715958               0.999999988               0.000000000              -0.001745702               0.999999988               0.000902200               0.000000000               0.999999987               0.000949069              -0.000000000               0.999999987               0.000968186               0.000000000               0.999999987               0.000978091               0.000000000               0.999999988               0.000985643               0.000000000               0.999999988               0.000993280               0.000000000               0.999999988               0.001001784               0.000000000               0.999999988               0.001011164               0.000000000               0.999999988               0.001021406              -0.000000000               0.999999988               0.001032285               0.000000000               0.999999988               0.001043446               0.000000000               0.999999988               0.001054381               0.000000000               0.999999988               0.001064599               0.000000000               0.999999988               0.001073608              -0.000000000               0.999999988               0.001080997              -0.000000000               0.999999988               0.001086173               0.000000000               0.999999988               0.001088023              -0.000000000               0.999999988               0.000897283              -0.000123466               0.999999987               0.000940006              -0.000097209               0.999999987               0.000956418              -0.000084809               0.999999987               0.000964543              -0.000079344               0.999999988               0.000970853              -0.000077354               0.999999988               0.000977567              -0.000076849               0.999999988               0.000985237              -0.000076791               0.999999988               0.000993762              -0.000076653               0.999999988               0.001002941              -0.000075860               0.999999988               0.001012490              -0.000074031               0.999999988               0.001022036              -0.000070832               0.999999988               0.001031147              -0.000065726               0.999999988               0.001039316              -0.000058559               0.999999988               0.001046110              -0.000049043               0.999999988               0.001051024              -0.000036639               0.999999988               0.001053464              -0.000020248               0.999999988               0.001052766               0.000001607               0.999999988               0.000882474              -0.000245904               0.999999987               0.000913120              -0.000194151               0.999999987               0.000921995              -0.000170690               0.999999987               0.000925410              -0.000160801               0.999999988               0.000928504              -0.000157673               0.999999988               0.000932639              -0.000157272               0.999999988               0.000937910              -0.000157491               0.999999988               0.000943892              -0.000157257               0.999999988               0.000950109              -0.000155581               0.999999988               0.000956097              -0.000151876               0.999999988               0.000961365              -0.000145455               0.999999988               0.000965575              -0.000135503               0.999999988               0.000968248              -0.000121807               0.999999988               0.000968933              -0.000103802               0.999999988               0.000967273              -0.000080428               0.999999988               0.000962892              -0.000050489               0.999999988               0.000955642              -0.000012305               0.999999988               0.000857950              -0.000366249               0.999999987               0.000869635              -0.000290706               0.999999987               0.000867633              -0.000258570               0.999999988               0.000864710              -0.000246201               0.999999988               0.000863701              -0.000243062               0.999999988               0.000864482              -0.000243476               0.999999988               0.000866400              -0.000244451               0.999999988               0.000868661              -0.000244352               0.999999988               0.000870497              -0.000241962               0.999999988               0.000871296              -0.000236221               0.999999988               0.000870495              -0.000226711               0.999999988               0.000867665              -0.000212495               0.999999988               0.000862485              -0.000193111               0.999999988               0.000854632              -0.000167926               0.999999988               0.000843871              -0.000136218               0.999999988               0.000830314              -0.000097284               0.999999988               0.000814361              -0.000050227               0.999999988               0.000824260              -0.000483405               0.999999987               0.000811794              -0.000386924               0.999999987               0.000797696              -0.000349117               0.999999988               0.000788421              -0.000336285               0.999999988               0.000783428              -0.000334353               0.999999988               0.000781003              -0.000336206               0.999999988               0.000779481              -0.000338188               0.999999988               0.000777519              -0.000338273               0.999999988               0.000774053              -0.000335009               0.999999988               0.000768408              -0.000327437               0.999999988               0.000760059              -0.000314886               0.999999988               0.000748671              -0.000296827               0.999999988               0.000733973              -0.000272753               0.999999988               0.000715896              -0.000242372               0.999999988               0.000694728              -0.000205452               0.999999988               0.000671032              -0.000161958               0.999999988               0.000645627              -0.000112317               0.999999988               0.000782145              -0.000596277               0.999999987               0.000742537              -0.000482949               0.999999988               0.000717164              -0.000442543               0.999999988               0.000702887              -0.000430915               0.999999988               0.000695087              -0.000431081               0.999999988               0.000690034              -0.000434688               0.999999988               0.000685138              -0.000437608               0.999999988               0.000678484              -0.000437665               0.999999988               0.000668940              -0.000433375               0.999999988               0.000655998              -0.000423823               0.999999988               0.000639102              -0.000408378               0.999999988               0.000618039              -0.000386979               0.999999988               0.000592963              -0.000359335               0.999999988               0.000564257              -0.000325286               0.999999988               0.000532608              -0.000285467               0.999999988               0.000498818              -0.000240722               0.999999988               0.000463902              -0.000192534               0.999999988               0.000732378              -0.000703816               0.999999988               0.000665233              -0.000578847               0.999999988               0.000631247              -0.000538391               0.999999988               0.000614407              -0.000529004               0.999999988               0.000605325              -0.000531398               0.999999988               0.000598190              -0.000536642               0.999999988               0.000589758              -0.000540480               0.999999988               0.000577965              -0.000540136               0.999999988               0.000561813              -0.000534600               0.999999988               0.000540642              -0.000522933               0.999999988               0.000514278              -0.000504608               0.999999988               0.000482915              -0.000480240               0.999999988               0.000447066              -0.000449714               0.999999988               0.000407425              -0.000413512               0.999999988               0.000365016              -0.000372773               0.999999988               0.000320968              -0.000329035               0.999999988               0.000276413              -0.000284173               0.999999988               0.000675770              -0.000805006               0.999999988               0.000583450              -0.000674515               0.999999988               0.000544738              -0.000635735               0.999999988               0.000528125              -0.000628703               0.999999988               0.000518881              -0.000633041               0.999999988               0.000510074              -0.000639697               0.999999988               0.000497965              -0.000643890               0.999999988               0.000480397              -0.000642898               0.999999988               0.000456544              -0.000635875               0.999999988               0.000425998              -0.000622055               0.999999988               0.000389198              -0.000601289               0.999999988               0.000346713              -0.000574430               0.999999988               0.000299233              -0.000542044               0.999999988               0.000247912              -0.000505141               0.999999988               0.000194221              -0.000465587               0.999999988               0.000139634              -0.000425083               0.999999988               0.000085277              -0.000385020               0.999999988               0.000614275              -0.000897842               0.999999988               0.000500211              -0.000769746               0.999999988               0.000462110              -0.000732921               0.999999988               0.000447601              -0.000727813               0.999999988               0.000439046              -0.000733712               0.999999988               0.000428557              -0.000741271               0.999999988               0.000412087              -0.000745358               0.999999988               0.000387588              -0.000743588               0.999999988               0.000354805              -0.000734873               0.999999988               0.000313889              -0.000718863               0.999999988               0.000265521              -0.000696135               0.999999988               0.000210503              -0.000667633               0.999999988               0.000150138              -0.000634786               0.999999988               0.000086387              -0.000599421               0.999999988               0.000021081              -0.000563561               0.999999988              -0.000044232              -0.000528481               0.999999988              -0.000108987              -0.000494705               0.999999988               0.000550473              -0.000985921               0.999999988               0.000430197              -0.000877226               0.999999988               0.000390023              -0.000837294               0.999999988               0.000375433              -0.000828232               0.999999988               0.000368024              -0.000831991               0.999999988               0.000359989              -0.000839994               0.999999988               0.000347034              -0.000847276               0.999999988               0.000327078              -0.000851077               0.999999988               0.000299473              -0.000849847               0.999999988               0.000264189              -0.000843095               0.999999988               0.000221564              -0.000830803               0.999999988               0.000171849              -0.000813374               0.999999988               0.000115725              -0.000791750               0.999999988               0.000054284              -0.000767286               0.999999988              -0.000010592              -0.000741436               0.999999988              -0.000077120              -0.000715687               0.999999988              -0.000143972              -0.000691232               0.999999988               0.000480988              -0.001066259               0.999999988               0.000362634              -0.000981386               0.999999988               0.000320542              -0.000944573               0.999999988               0.000305060              -0.000933689               0.999999988               0.000297919              -0.000936211               0.999999988               0.000291580              -0.000944808               0.999999988               0.000281515              -0.000954804               0.999999988               0.000265642              -0.000963499               0.999999988               0.000242954              -0.000969052               0.999999988               0.000213283              -0.000970670               0.999999988               0.000176484              -0.000967982               0.999999988               0.000132615              -0.000961190               0.999999988               0.000081747              -0.000950397               0.999999988               0.000024336              -0.000936554               0.999999988              -0.000038418              -0.000920744               0.999999988              -0.000105049              -0.000904260               0.999999988              -0.000173692              -0.000888173               0.999999988               0.000407274              -0.001136749               0.999999988               0.000297571              -0.001078971               0.999999988               0.000255406              -0.001049615               0.999999988               0.000238773              -0.001040144               0.999999988               0.000231358              -0.001042834               0.999999988               0.000225747              -0.001052547               0.999999988               0.000218080              -0.001065255               0.999999988               0.000205733              -0.001078257               0.999999988               0.000187591              -0.001089962               0.999999988               0.000163173              -0.001099251               0.999999988               0.000132372              -0.001105555               0.999999988               0.000094932              -0.001108652               0.999999988               0.000050185              -0.001108599               0.999999988              -0.000001763              -0.001105539               0.999999988              -0.000060547              -0.001099978               0.999999988              -0.000125429              -0.001093027               0.999999988              -0.000195106              -0.001085648               0.999999988               0.000330101              -0.001196128               0.999999988               0.000235037              -0.001165863               0.999999988               0.000195353              -0.001147203               0.999999988               0.000178515              -0.001141759               0.999999988               0.000170633              -0.001146435               0.999999988               0.000165429              -0.001157894               0.999999988               0.000159413              -0.001173540               0.999999988               0.000149998              -0.001190821               0.999999988               0.000135910              -0.001208077               0.999999988               0.000116594              -0.001224280               0.999999988               0.000091821              -0.001238805               0.999999988               0.000061151              -0.001251119               0.999999988               0.000023776              -0.001261095               0.999999988              -0.000020896              -0.001268551               0.999999988              -0.000073331              -0.001273671               0.999999988              -0.000133888              -0.001276850               0.999999988              -0.000201868              -0.001278838               0.999999988               0.000250123              -0.001243525               0.999999988               0.000174657              -0.001238086               0.999999988               0.000140667              -0.001231343               0.999999988               0.000125200              -0.001231851               0.999999988               0.000117617              -0.001239839               0.999999988               0.000112768              -0.001253996               0.999999988               0.000107910              -0.001272515               0.999999988               0.000101007              -0.001293636               0.999999988               0.000090782              -0.001315918               0.999999988               0.000076425              -0.001338272               0.999999988               0.000057636              -0.001360088               0.999999988               0.000034106              -0.001380715               0.999999988               0.000005125              -0.001399720               0.999999988              -0.000030607              -0.001416936               0.999999988              -0.000074083              -0.001432360               0.999999988              -0.000126166              -0.001445794               0.999999988              -0.000187633              -0.001457447               0.999999988               0.000168014              -0.001278026               0.999999988               0.000115708              -0.001292453               0.999999988               0.000090773              -0.001296552               0.999999988               0.000078757              -0.001303098               0.999999988               0.000072673              -0.001314895               0.999999988               0.000068717              -0.001331846               0.999999988               0.000065209              -0.001353071               0.999999988               0.000060497              -0.001377497               0.999999988               0.000053721              -0.001403964               0.999999988               0.000044085              -0.001431544               0.999999988               0.000031506              -0.001459477               0.999999988               0.000015706              -0.001487103               0.999999988              -0.000004297              -0.001513949               0.999999988              -0.000029559              -0.001539721               0.999999988              -0.000061058              -0.001564061               0.999999988              -0.000099950              -0.001586598               0.999999988              -0.000147986              -0.001607119               0.999999988               0.000084399              -0.001299019               0.999999988               0.000057615              -0.001326227               0.999999988               0.000044468              -0.001338041               0.999999988               0.000037797              -0.001349153               0.999999988               0.000034343              -0.001363925               0.999999988               0.000032124              -0.001383073               0.999999988               0.000030249              -0.001406296               0.999999988               0.000027879              -0.001432968               0.999999988               0.000024392              -0.001462212               0.999999988               0.000019486              -0.001493149               0.999999988               0.000013295              -0.001524988               0.999999988               0.000005415              -0.001557252               0.999999988              -0.000004889              -0.001589553               0.999999988              -0.000017931              -0.001621486               0.999999988              -0.000034462              -0.001652454               0.999999988              -0.000055538              -0.001681894               0.999999988              -0.000082383              -0.001709088               0.999999988               0.000000000              -0.001306119               0.999999988               0.000000000              -0.001337658               0.999999988               0.000000000              -0.001352251               0.999999988              -0.000000000              -0.001365146               0.999999988              -0.000000000              -0.001380979               0.999999988               0.000000000              -0.001400964               0.999999988               0.000000000              -0.001425035               0.999999988               0.000000000              -0.001452626               0.999999988               0.000000000              -0.001482860               0.999999988               0.000000000              -0.001514898               0.999999988               0.000000000              -0.001548082               0.999999988              -0.000000000              -0.001582058               0.999999988               0.000000000              -0.001616297               0.999999988              -0.000000000              -0.001650348               0.999999988              -0.000000000              -0.001683828               0.999999988               0.000000000              -0.001715958               0.999999988               0.000000000              -0.001745702               0.999999988               0.000902200               0.000000000               0.999999987               0.000949069              -0.000000000               0.999999987               0.000968186               0.000000000               0.999999987               0.000978091               0.000000000               0.999999988               0.000985643               0.000000000               0.999999988               0.000993280               0.000000000               0.999999988               0.001001784               0.000000000               0.999999988               0.001011164               0.000000000               0.999999988               0.001021406              -0.000000000               0.999999988               0.001032285               0.000000000               0.999999988               0.001043446               0.000000000               0.999999988               0.001054381               0.000000000               0.999999988               0.001064599               0.000000000               0.999999988               0.001073608              -0.000000000               0.999999988               0.001080997              -0.000000000               0.999999988               0.001086173               0.000000000               0.999999988               0.001088023              -0.000000000               0.999999988               0.000897283               0.000123466               0.999999987               0.000940006               0.000097209               0.999999987               0.000956418               0.000084809               0.999999987               0.000964543               0.000079344               0.999999988               0.000970853               0.000077354               0.999999988               0.000977567               0.000076849               0.999999988               0.000985237               0.000076791               0.999999988               0.000993762               0.000076653               0.999999988               0.001002941               0.000075860               0.999999988               0.001012490               0.000074031               0.999999988               0.001022036               0.000070832               0.999999988               0.001031147               0.000065726               0.999999988               0.001039316               0.000058559               0.999999988               0.001046110               0.000049043               0.999999988               0.001051024               0.000036639               0.999999988               0.001053464               0.000020248               0.999999988               0.001052766              -0.000001607               0.999999988               0.000882474               0.000245904               0.999999987               0.000913120               0.000194151               0.999999987               0.000921995               0.000170690               0.999999987               0.000925410               0.000160801               0.999999988               0.000928504               0.000157673               0.999999988               0.000932639               0.000157272               0.999999988               0.000937910               0.000157491               0.999999988               0.000943892               0.000157257               0.999999988               0.000950109               0.000155581               0.999999988               0.000956097               0.000151876               0.999999988               0.000961365               0.000145455               0.999999988               0.000965575               0.000135503               0.999999988               0.000968248               0.000121807               0.999999988               0.000968933               0.000103802               0.999999988               0.000967273               0.000080428               0.999999988               0.000962892               0.000050489               0.999999988               0.000955642               0.000012305               0.999999988               0.000857950               0.000366249               0.999999987               0.000869635               0.000290706               0.999999987               0.000867633               0.000258570               0.999999988               0.000864710               0.000246201               0.999999988               0.000863701               0.000243062               0.999999988               0.000864482               0.000243476               0.999999988               0.000866400               0.000244451               0.999999988               0.000868661               0.000244352               0.999999988               0.000870497               0.000241962               0.999999988               0.000871296               0.000236221               0.999999988               0.000870495               0.000226711               0.999999988               0.000867665               0.000212495               0.999999988               0.000862485               0.000193111               0.999999988               0.000854632               0.000167926               0.999999988               0.000843871               0.000136218               0.999999988               0.000830314               0.000097284               0.999999988               0.000814361               0.000050227               0.999999988               0.000824260               0.000483405               0.999999987               0.000811794               0.000386924               0.999999987               0.000797696               0.000349117               0.999999988               0.000788421               0.000336285               0.999999988               0.000783428               0.000334353               0.999999988               0.000781003               0.000336206               0.999999988               0.000779481               0.000338188               0.999999988               0.000777519               0.000338273               0.999999988               0.000774053               0.000335009               0.999999988               0.000768408               0.000327437               0.999999988               0.000760059               0.000314886               0.999999988               0.000748671               0.000296827               0.999999988               0.000733973               0.000272753               0.999999988               0.000715896               0.000242372               0.999999988               0.000694728               0.000205452               0.999999988               0.000671032               0.000161958               0.999999988               0.000645627               0.000112317               0.999999988               0.000782145               0.000596277               0.999999987               0.000742537               0.000482949               0.999999988               0.000717164               0.000442543               0.999999988               0.000702887               0.000430915               0.999999988               0.000695087               0.000431081               0.999999988               0.000690034               0.000434688               0.999999988               0.000685138               0.000437608               0.999999988               0.000678484               0.000437665               0.999999988               0.000668940               0.000433375               0.999999988               0.000655998               0.000423823               0.999999988               0.000639102               0.000408378               0.999999988               0.000618039               0.000386979               0.999999988               0.000592963               0.000359335               0.999999988               0.000564257               0.000325286               0.999999988               0.000532608               0.000285467               0.999999988               0.000498818               0.000240722               0.999999988               0.000463902               0.000192534               0.999999988               0.000732378               0.000703816               0.999999988               0.000665233               0.000578847               0.999999988               0.000631247               0.000538391               0.999999988               0.000614407               0.000529004               0.999999988               0.000605325               0.000531398               0.999999988               0.000598190               0.000536642               0.999999988               0.000589758               0.000540480               0.999999988               0.000577965               0.000540136               0.999999988               0.000561813               0.000534600               0.999999988               0.000540642               0.000522933               0.999999988               0.000514278               0.000504608               0.999999988               0.000482915               0.000480240               0.999999988               0.000447066               0.000449714               0.999999988               0.000407425               0.000413512               0.999999988               0.000365016               0.000372773               0.999999988               0.000320968               0.000329035               0.999999988               0.000276413               0.000284173               0.999999988               0.000675770               0.000805006               0.999999988               0.000583450               0.000674515               0.999999988               0.000544738               0.000635735               0.999999988               0.000528125               0.000628703               0.999999988               0.000518881               0.000633041               0.999999988               0.000510074               0.000639697               0.999999988               0.000497965               0.000643890               0.999999988               0.000480397               0.000642898               0.999999988               0.000456544               0.000635875               0.999999988               0.000425998               0.000622055               0.999999988               0.000389198               0.000601289               0.999999988               0.000346713               0.000574430               0.999999988               0.000299233               0.000542044               0.999999988               0.000247912               0.000505141               0.999999988               0.000194221               0.000465587               0.999999988               0.000139634               0.000425083               0.999999988               0.000085277               0.000385020               0.999999988               0.000614275               0.000897842               0.999999988               0.000500211               0.000769746               0.999999988               0.000462110               0.000732921               0.999999988               0.000447601               0.000727813               0.999999988               0.000439046               0.000733712               0.999999988               0.000428557               0.000741271               0.999999988               0.000412087               0.000745358               0.999999988               0.000387588               0.000743588               0.999999988               0.000354805               0.000734873               0.999999988               0.000313889               0.000718863               0.999999988               0.000265521               0.000696135               0.999999988               0.000210503               0.000667633               0.999999988               0.000150138               0.000634786               0.999999988               0.000086387               0.000599421               0.999999988               0.000021081               0.000563561               0.999999988              -0.000044232               0.000528481               0.999999988              -0.000108987               0.000494705               0.999999988               0.000550473               0.000985921               0.999999988               0.000430197               0.000877226               0.999999988               0.000390023               0.000837294               0.999999988               0.000375433               0.000828232               0.999999988               0.000368024               0.000831991               0.999999988               0.000359989               0.000839994               0.999999988               0.000347034               0.000847276               0.999999988               0.000327078               0.000851077               0.999999988               0.000299473               0.000849847               0.999999988               0.000264189               0.000843095               0.999999988               0.000221564               0.000830803               0.999999988               0.000171849               0.000813374               0.999999988               0.000115725               0.000791750               0.999999988               0.000054284               0.000767286               0.999999988              -0.000010592               0.000741436               0.999999988              -0.000077120               0.000715687               0.999999988              -0.000143972               0.000691232               0.999999988               0.000480988               0.001066259               0.999999988               0.000362634               0.000981386               0.999999988               0.000320542               0.000944573               0.999999988               0.000305060               0.000933689               0.999999988               0.000297919               0.000936211               0.999999988               0.000291580               0.000944808               0.999999988               0.000281515               0.000954804               0.999999988               0.000265642               0.000963499               0.999999988               0.000242954               0.000969052               0.999999988               0.000213283               0.000970670               0.999999988               0.000176484               0.000967982               0.999999988               0.000132615               0.000961190               0.999999988               0.000081747               0.000950397               0.999999988               0.000024336               0.000936554               0.999999988              -0.000038418               0.000920744               0.999999988              -0.000105049               0.000904260               0.999999988              -0.000173692               0.000888173               0.999999988               0.000407274               0.001136749               0.999999988               0.000297571               0.001078971               0.999999988               0.000255406               0.001049615               0.999999988               0.000238773               0.001040144               0.999999988               0.000231358               0.001042834               0.999999988               0.000225747               0.001052547               0.999999988               0.000218080               0.001065255               0.999999988               0.000205733               0.001078257               0.999999988               0.000187591               0.001089962               0.999999988               0.000163173               0.001099251               0.999999988               0.000132372               0.001105555               0.999999988               0.000094932               0.001108652               0.999999988               0.000050185               0.001108599               0.999999988              -0.000001763               0.001105539               0.999999988              -0.000060547               0.001099978               0.999999988              -0.000125429               0.001093027               0.999999988              -0.000195106               0.001085648               0.999999988               0.000330101               0.001196128               0.999999988               0.000235037               0.001165863               0.999999988               0.000195353               0.001147203               0.999999988               0.000178515               0.001141759               0.999999988               0.000170633               0.001146435               0.999999988               0.000165429               0.001157894               0.999999988               0.000159413               0.001173540               0.999999988               0.000149998               0.001190821               0.999999988               0.000135910               0.001208077               0.999999988               0.000116594               0.001224280               0.999999988               0.000091821               0.001238805               0.999999988               0.000061151               0.001251119               0.999999988               0.000023776               0.001261095               0.999999988              -0.000020896               0.001268551               0.999999988              -0.000073331               0.001273671               0.999999988              -0.000133888               0.001276850               0.999999988              -0.000201868               0.001278838               0.999999988               0.000250123               0.001243525               0.999999988               0.000174657               0.001238086               0.999999988               0.000140667               0.001231343               0.999999988               0.000125200               0.001231851               0.999999988               0.000117617               0.001239839               0.999999988               0.000112768               0.001253996               0.999999988               0.000107910               0.001272515               0.999999988               0.000101007               0.001293636               0.999999988               0.000090782               0.001315918               0.999999988               0.000076425               0.001338272               0.999999988               0.000057636               0.001360088               0.999999988               0.000034106               0.001380715               0.999999988               0.000005125               0.001399720               0.999999988              -0.000030607               0.001416936               0.999999988              -0.000074083               0.001432360               0.999999988              -0.000126166               0.001445794               0.999999988              -0.000187633               0.001457447               0.999999988               0.000168014               0.001278026               0.999999988               0.000115708               0.001292453               0.999999988               0.000090773               0.001296552               0.999999988               0.000078757               0.001303098               0.999999988               0.000072673               0.001314895               0.999999988               0.000068717               0.001331846               0.999999988               0.000065209               0.001353071               0.999999988               0.000060497               0.001377497               0.999999988               0.000053721               0.001403964               0.999999988               0.000044085               0.001431544               0.999999988               0.000031506               0.001459477               0.999999988               0.000015706               0.001487103               0.999999988              -0.000004297               0.001513949               0.999999988              -0.000029559               0.001539721               0.999999988              -0.000061058               0.001564061               0.999999988              -0.000099950               0.001586598               0.999999988              -0.000147986               0.001607119               0.999999988               0.000084399               0.001299019               0.999999988               0.000057615               0.001326227               0.999999988               0.000044468               0.001338041               0.999999988               0.000037797               0.001349153               0.999999988               0.000034343               0.001363925               0.999999988               0.000032124               0.001383073               0.999999988               0.000030249               0.001406296               0.999999988               0.000027879               0.001432968               0.999999988               0.000024392               0.001462212               0.999999988               0.000019486               0.001493149               0.999999988               0.000013295               0.001524988               0.999999988               0.000005415               0.001557252               0.999999988              -0.000004889               0.001589553               0.999999988              -0.000017931               0.001621486               0.999999988              -0.000034462               0.001652454               0.999999988              -0.000055538               0.001681894               0.999999988              -0.000082383               0.001709088               0.999999988              -0.000000000               0.001306119               0.999999988               0.000000000               0.001337658               0.999999988              -0.000000000               0.001352251               0.999999988              -0.000000000               0.001365146               0.999999988               0.000000000               0.001380979               0.999999988               0.000000000               0.001400964               0.999999988              -0.000000000               0.001425035               0.999999988              -0.000000000               0.001452626               0.999999988              -0.000000000               0.001482860               0.999999988              -0.000000000               0.001514898               0.999999988              -0.000000000               0.001548082               0.999999988              -0.000000000               0.001582058               0.999999988               0.000000000               0.001616297               0.999999988               0.000000000               0.001650348               0.999999988               0.000000000               0.001683828               0.999999988              -0.000000000               0.001715958               0.999999988              -0.000000000               0.001745702               0.999999988 </DataArray>
<DataArray type="Float64"                                    Name="defo"                                                      NumberOfComponents=" 3" format="ascii">
             -0.000902200               0.000000000               0.999999987              -0.000949069              -0.000000000               0.999999987              -0.000968186               0.000000000               0.999999987              -0.000978091              -0.000000000               0.999999988              -0.000985643              -0.000000000               0.999999988              -0.000993280               0.000000000               0.999999988              -0.001001784              -0.000000000               0.999999988              -0.001011164              -0.000000000               0.999999988              -0.001021406               0.000000000               0.999999988              -0.001032285               0.000000000               0.999999988              -0.001043446               0.000000000               0.999999988              -0.001054381               0.000000000               0.999999988              -0.001064599               0.000000000               0.999999988              -0.001073608              -0.000000000               0.999999988              -0.001080997               0.000000000               0.999999988              -0.001086173               0.000000000               0.999999988              -0.001088023               0.000000000               0.999999988              -0.000897283               0.000123466               0.999999987              -0.000940006               0.000097209               0.999999987              -0.000956418               0.000084809               0.999999987              -0.000964543               0.000079344               0.999999988              -0.000970853               0.000077354               0.999999988              -0.000977567               0.000076849               0.999999988              -0.000985237               0.000076791               0.999999988              -0.000993762               0.000076653               0.999999988              -0.001002941               0.000075860               0.999999988              -0.001012490               0.000074031               0.999999988              -0.001022036               0.000070832               0.999999988              -0.001031147               0.000065726               0.999999988              -0.001039316               0.000058559               0.999999988              -0.001046110               0.000049043               0.999999988              -0.001051024               0.000036639               0.999999988              -0.001053464               0.000020248               0.999999988              -0.001052766              -0.000001607               0.999999988              -0.000882474               0.000245904               0.999999987              -0.000913120               0.000194151               0.999999987              -0.000921995               0.000170690               0.999999987              -0.000925410               0.000160801               0.999999988              -0.000928504               0.000157673               0.999999988              -0.000932639               0.000157272               0.999999988              -0.000937910               0.000157491               0.999999988              -0.000943892               0.000157257               0.999999988              -0.000950109               0.000155581               0.999999988              -0.000956097               0.000151876               0.999999988              -0.000961365               0.000145455               0.999999988              -0.000965575               0.000135503               0.999999988              -0.000968248               0.000121807               0.999999988              -0.000968933               0.000103802               0.999999988              -0.000967273               0.000080428               0.999999988              -0.000962892               0.000050489               0.999999988              -0.000955642               0.000012305               0.999999988              -0.000857950               0.000366249               0.999999987              -0.000869635               0.000290706               0.999999987              -0.000867633               0.000258570               0.999999988              -0.000864710               0.000246201               0.999999988              -0.000863701               0.000243062               0.999999988              -0.000864482               0.000243476               0.999999988              -0.000866400               0.000244451               0.999999988              -0.000868661               0.000244352               0.999999988              -0.000870497               0.000241962               0.999999988              -0.000871296               0.000236221               0.999999988              -0.000870495               0.000226711               0.999999988              -0.000867665               0.000212495               0.999999988              -0.000862485               0.000193111               0.999999988              -0.000854632               0.000167926               0.999999988              -0.000843871               0.000136218               0.999999988              -0.000830314               0.000097284               0.999999988              -0.000814361               0.000050227               0.999999988              -0.000824260               0.000483405               0.999999987              -0.000811794               0.000386924               0.999999987              -0.000797696               0.000349117               0.999999988              -0.000788421               0.000336285               0.999999988              -0.000783428               0.000334353               0.999999988              -0.000781003               0.000336206               0.999999988              -0.000779481               0.000338188               0.999999988              -0.000777519               0.000338273               0.999999988              -0.000774053               0.000335009               0.999999988              -0.000768408               0.000327437               0.999999988              -0.000760059               0.000314886               0.999999988              -0.000748671               0.000296827               0.999999988              -0.000733973               0.000272753               0.999999988              -0.000715896               0.000242372               0.999999988              -0.000694728               0.000205452               0.999999988              -0.000671032               0.000161958               0.999999988              -0.000645627               0.000112317               0.999999988              -0.000782145               0.000596277               0.999999987              -0.000742537               0.000482949               0.999999988              -0.000717164               0.000442543               0.999999988              -0.000702887               0.000430915               0.999999988              -0.000695087               0.000431081               0.999999988              -0.000690034               0.000434688               0.999999988              -0.000685138               0.000437608               0.999999988              -0.000678484               0.000437665               0.999999988              -0.000668940               0.000433375               0.999999988              -0.000655998               0.000423823               0.999999988              -0.000639102               0.000408378               0.999999988              -0.000618039               0.000386979               0.999999988              -0.000592963               0.000359335               0.999999988              -0.000564257               0.000325286               0.999999988              -0.000532608               0.000285467               0.999999988              -0.000498818               0.000240722               0.999999988              -0.000463902               0.000192534               0.999999988              -0.000732378               0.000703816               0.999999988              -0.000665233               0.000578847               0.999999988              -0.000631247               0.000538391               0.999999988              -0.000614407               0.000529004               0.999999988              -0.000605325               0.000531398               0.999999988              -0.000598190               0.000536642               0.999999988              -0.000589758               0.000540480               0.999999988              -0.000577965               0.000540136               0.999999988              -0.000561813               0.000534600               0.999999988              -0.000540642               0.000522933               0.999999988              -0.000514278               0.000504608               0.999999988              -0.000482915               0.000480240               0.999999988              -0.000447066               0.000449714               0.999999988              -0.000407425               0.000413512               0.999999988              -0.000365016               0.000372773               0.999999988              -0.000320968               0.000329035               0.999999988              -0.000276413               0.000284173               0.999999988              -0.000675770               0.000805006               0.999999988              -0.000583450               0.000674515               0.999999988              -0.000544738               0.000635735               0.999999988              -0.000528125               0.000628703               0.999999988              -0.000518881               0.000633041               0.999999988              -0.000510074               0.000639697               0.999999988              -0.000497965               0.000643890               0.999999988              -0.000480397               0.000642898               0.999999988              -0.000456544               0.000635875               0.999999988              -0.000425998               0.000622055               0.999999988              -0.000389198               0.000601289               0.999999988              -0.000346713               0.000574430               0.999999988              -0.000299233               0.000542044               0.999999988              -0.000247912               0.000505141               0.999999988              -0.000194221               0.000465587               0.999999988              -0.000139634               0.000425083               0.999999988              -0.000085277               0.000385020               0.999999988              -0.000614275               0.000897842               0.999999988              -0.000500211               0.000769746               0.999999988              -0.000462110               0.000732921               0.999999988              -0.000447601               0.000727813               0.999999988              -0.000439046               0.000733712               0.999999988              -0.000428557               0.000741271               0.999999988              -0.000412087               0.000745358               0.999999988              -0.000387588               0.000743588               0.999999988              -0.000354805               0.000734873               0.999999988              -0.000313889               0.000718863               0.999999988              -0.000265521               0.000696135               0.999999988              -0.000210503               0.000667633               0.999999988              -0.000150138               0.000634786               0.999999988              -0.000086387               0.000599421               0.999999988              -0.000021081               0.000563561               0.999999988               0.000044232               0.000528481               0.999999988               0.000108987               0.000494705               0.999999988              -0.000550473               0.000985921               0.999999988              -0.000430197               0.000877226               0.999999988              -0.000390023               0.000837294               0.999999988              -0.000375433               0.000828232               0.999999988              -0.000368024               0.000831991               0.999999988              -0.000359989               0.000839994               0.999999988              -0.000347034               0.000847276               0.999999988              -0.000327078               0.000851077               0.999999988              -0.000299473               0.000849847               0.999999988              -0.000264189               0.000843095               0.999999988              -0.000221564               0.000830803               0.999999988              -0.000171849               0.000813374               0.999999988              -0.000115725               0.000791750               0.999999988              -0.000054284               0.000767286               0.999999988               0.000010592               0.000741436               0.999999988               0.000077120               0.000715687               0.999999988               0.000143972               0.000691232               0.999999988              -0.000480988               0.001066259               0.999999988              -0.000362634               0.000981386               0.999999988              -0.000320542               0.000944573               0.999999988              -0.000305060               0.000933689               0.999999988              -0.000297919               0.000936211               0.999999988              -0.000291580               0.000944808               0.999999988              -0.000281515               0.000954804               0.999999988              -0.000265642               0.000963499               0.999999988              -0.000242954               0.000969052               0.999999988              -0.000213283               0.000970670               0.999999988              -0.000176484               0.000967982               0.999999988              -0.000132615               0.000961190               0.999999988              -0.000081747               0.000950397               0.999999988              -0.000024336               0.000936554               0.999999988               0.000038418               0.000920744               0.999999988               0.000105049               0.000904260               0.999999988               0.000173692               0.000888173               0.999999988              -0.000407274               0.001136749               0.999999988              -0.000297571               0.001078971               0.999999988              -0.000255406               0.001049615               0.999999988              -0.000238773               0.001040144               0.999999988              -0.000231358               0.001042834               0.999999988              -0.000225747               0.001052547               0.999999988              -0.000218080               0.001065255               0.999999988              -0.000205733               0.001078257               0.999999988              -0.000187591               0.001089962               0.999999988              -0.000163173               0.001099251               0.999999988              -0.000132372               0.001105555               0.999999988              -0.000094932               0.001108652               0.999999988              -0.000050185               0.001108599               0.999999988               0.000001763               0.001105539               0.999999988               0.000060547               0.001099978               0.999999988               0.000125429               0.001093027               0.999999988               0.000195106               0.001085648               0.999999988              -0.000330101               0.001196128               0.999999988              -0.000235037               0.001165863               0.999999988              -0.000195353               0.001147203               0.999999988              -0.000178515               0.001141759               0.999999988              -0.000170633               0.001146435               0.999999988              -0.000165429               0.001157894               0.999999988              -0.000159413               0.001173540               0.999999988              -0.000149998               0.001190821               0.999999988              -0.000135910               0.001208077               0.999999988              -0.000116594               0.001224280               0.999999988              -0.000091821               0.001238805               0.999999988              -0.000061151               0.001251119               0.999999988              -0.000023776               0.001261095               0.999999988               0.000020896               0.001268551               0.999999988               0.000073331               0.001273671               0.999999988               0.000133888               0.001276850               0.999999988               0.000201868               0.001278838               0.999999988              -0.000250123               0.001243525               0.999999988              -0.000174657               0.001238086               0.999999988              -0.000140667               0.001231343               0.999999988              -0.000125200               0.001231851               0.999999988              -0.000117617               0.001239839               0.999999988              -0.000112768               0.001253996               0.999999988              -0.000107910               0.001272515               0.999999988              -0.000101007               0.001293636               0.999999988              -0.000090782               0.001315918               0.999999988              -0.000076425               0.001338272               0.999999988              -0.000057636               0.001360088               0.999999988              -0.000034106               0.001380715               0.999999988              -0.000005125               0.001399720               0.999999988               0.000030607               0.001416936               0.999999988               0.000074083               0.001432360               0.999999988               0.000126166               0.001445794               0.999999988               0.000187633               0.001457447               0.999999988              -0.000168014               0.001278026               0.999999988              -0.000115708               0.001292453               0.999999988              -0.000090773               0.001296552               0.999999988              -0.000078757               0.001303098               0.999999988              -0.000072673               0.001314895               0.999999988              -0.000068717               0.001331846               0.999999988              -0.000065209               0.001353071               0.999999988              -0.000060497               0.001377497               0.999999988              -0.000053721               0.001403964               0.999999988              -0.000044085               0.001431544               0.999999988              -0.000031506               0.001459477               0.999999988              -0.000015706               0.001487103               0.999999988               0.000004297               0.001513949               0.999999988               0.000029559               0.001539721               0.999999988               0.000061058               0.001564061               0.999999988               0.000099950               0.001586598               0.999999988               0.000147986               0.001607119               0.999999988              -0.000084399               0.001299019               0.999999988              -0.000057615               0.001326227               0.999999988              -0.000044468               0.001338041               0.999999988              -0.000037797               0.001349153               0.999999988              -0.000034343               0.001363925               0.999999988              -0.000032124               0.001383073               0.999999988              -0.000030249               0.001406296               0.999999988              -0.000027879               0.001432968               0.999999988              -0.000024392               0.001462212               0.999999988              -0.000019486               0.001493149               0.999999988              -0.000013295               0.001524988               0.999999988              -0.000005415               0.001557252               0.999999988               0.000004889               0.001589553               0.999999988               0.000017931               0.001621486               0.999999988               0.000034462               0.001652454               0.999999988               0.000055538               0.001681894               0.999999988               0.000082383               0.001709088               0.999999988              -0.000000000               0.001306119               0.999999988               0.000000000               0.001337658               0.999999988              -0.000000000               0.001352251               0.999999988              -0.000000000               0.001365146               0.999999988               0.000000000               0.001380979               0.999999988               0.000000000               0.001400964               0.999999988              -0.000000000               0.001425035               0.999999988              -0.000000000               0.001452626               0.999999988              -0.000000000               0.001482860               0.999999988              -0.000000000               0.001514898               0.999999988              -0.000000000               0.001548082               0.999999988              -0.000000000               0.001582058               0.999999988               0.000000000               0.001616297               0.999999988               0.000000000               0.001650348               0.999999988               0.000000000               0.001683828               0.999999988              -0.000000000               0.001715958               0.999999988              -0.000000000               0.001745702               0.999999988              -0.000902200               0.000000000               0.999999987              -0.000949069              -0.000000000               0.999999987              -0.000968186               0.000000000               0.999999987              -0.000978091              -0.000000000               0.999999988              -0.000985643              -0.000000000               0.999999988              -0.000993280               0.000000000               0.999999988              -0.001001784              -0.000000000               0.999999988              -0.001011164              -0.000000000               0.999999988              -0.001021406               0.000000000               0.999999988              -0.001032285               0.000000000               0.999999988              -0.001043446               0.000000000               0.999999988              -0.001054381               0.000000000               0.999999988              -0.001064599               0.000000000               0.999999988              -0.001073608              -0.000000000               0.999999988              -0.001080997               0.000000000               0.999999988              -0.001086173               0.000000000               0.999999988              -0.001088023               0.000000000               0.999999988              -0.000897283              -0.000123466               0.999999987              -0.000940006              -0.000097209               0.999999987              -0.000956418              -0.000084809               0.999999987              -0.000964543              -0.000079344               0.999999988              -0.000970853              -0.000077354               0.999999988              -0.000977567              -0.000076849               0.999999988              -0.000985237              -0.000076791               0.999999988              -0.000993762              -0.000076653               0.999999988              -0.001002941              -0.000075860               0.999999988              -0.001012490              -0.000074031               0.999999988              -0.001022036              -0.000070832               0.999999988              -0.001031147              -0.000065726               0.999999988              -0.001039316              -0.000058559               0.999999988              -0.001046110              -0.000049043               0.999999988              -0.001051024              -0.000036639               0.999999988              -0.001053464              -0.000020248               0.999999988              -0.001052766               0.000001607               0.999999988              -0.000882474              -0.000245904               0.999999987              -0.000913120              -0.000194151               0.999999987              -0.000921995              -0.000170690               0.999999987              -0.000925410              -0.000160801               0.999999988              -0.000928504              -0.000157673               0.999999988              -0.000932639              -0.000157272               0.999999988              -0.000937910              -0.000157491               0.999999988              -0.000943892              -0.000157257               0.999999988              -0.000950109              -0.000155581               0.999999988              -0.000956097              -0.000151876               0.999999988              -0.000961365              -0.000145455               0.999999988              -0.000965575              -0.000135503               0.999999988              -0.000968248              -0.000121807               0.999999988              -0.000968933              -0.000103802               0.999999988              -0.000967273              -0.000080428               0.999999988              -0.000962892              -0.000050489               0.999999988              -0.000955642              -0.000012305               0.999999988              -0.000857950              -0.000366249               0.999999987              -0.000869635              -0.000290706               0.999999987              -0.000867633              -0.000258570               0.999999988              -0.000864710              -0.000246201               0.999999988              -0.000863701              -0.000243062               0.999999988              -0.000864482              -0.000243476               0.999999988              -0.000866400              -0.000244451               0.999999988              -0.000868661              -0.000244352               0.999999988              -0.000870497              -0.000241962               0.999999988              -0.000871296              -0.000236221               0.999999988              -0.000870495              -0.000226711               0.999999988              -0.000867665              -0.000212495               0.999999988              -0.000862485              -0.000193111               0.999999988              -0.000854632              -0.000167926               0.999999988              -0.000843871              -0.000136218               0.999999988              -0.000830314              -0.000097284               0.999999988              -0.000814361              -0.000050227               0.999999988              -0.000824260              -0.000483405               0.999999987              -0.000811794              -0.000386924               0.999999987              -0.000797696              -0.000349117               0.999999988              -0.000788421              -0.000336285               0.999999988              -0.000783428              -0.000334353               0.999999988              -0.000781003              -0.000336206               0.999999988              -0.000779481              -0.000338188               0.999999988              -0.000777519              -0.000338273               0.999999988              -0.000774053              -0.000335009               0.999999988              -0.000768408              -0.000327437               0.999999988              -0.000760059              -0.000314886               0.999999988              -0.000748671              -0.000296827               0.999999988              -0.000733973              -0.000272753               0.999999988              -0.000715896              -0.000242372               0.999999988              -0.000694728              -0.000205452               0.999999988              -0.000671032              -0.000161958               0.999999988              -0.000645627              -0.000112317               0.999999988              -0.000782145              -0.000596277               0.999999987              -0.000742537              -0.000482949               0.999999988              -0.000717164              -0.000442543               0.999999988              -0.000702887              -0.000430915               0.999999988              -0.000695087              -0.000431081               0.999999988              -0.000690034              -0.000434688               0.999999988              -0.000685138              -0.000437608               0.999999988              -0.000678484              -0.000437665               0.999999988              -0.000668940              -0.000433375               0.999999988              -0.000655998              -0.000423823               0.999999988              -0.000639102              -0.000408378               0.999999988              -0.000618039              -0.000386979               0.999999988              -0.000592963              -0.000359335               0.999999988              -0.000564257              -0.000325286               0.999999988              -0.000532608              -0.000285467               0.999999988              -0.000498818              -0.000240722               0.999999988              -0.000463902              -0.000192534               0.999999988              -0.000732378              -0.000703816               0.999999988              -0.000665233              -0.000578847               0.999999988              -0.000631247              -0.000538391               0.999999988              -0.000614407              -0.000529004               0.999999988              -0.000605325              -0.000531398               0.999999988              -0.000598190              -0.000536642               0.999999988              -0.000589758              -0.000540480               0.999999988              -0.000577965              -0.000540136               0.999999988              -0.000561813              -0.000534600               0.999999988              -0.000540642              -0.000522933               0.999999988              -0.000514278              -0.000504608               0.999999988              -0.000482915              -0.000480240               0.999999988              -0.000447066              -0.000449714               0.999999988              -0.000407425              -0.000413512               0.999999988              -0.000365016              -0.000372773               0.999999988              -0.000320968              -0.000329035               0.999999988              -0.000276413              -0.000284173               0.999999988              -0.000675770              -0.000805006               0.999999988              -0.000583450              -0.000674515               0.999999988              -0.000544738              -0.000635735               0.999999988              -0.000528125              -0.000628703               0.999999988              -0.000518881              -0.000633041               0.999999988              -0.000510074              -0.000639697               0.999999988              -0.000497965              -0.000643890               0.999999988              -0.000480397              -0.000642898               0.999999988              -0.000456544              -0.000635875               0.999999988              -0.000425998              -0.000622055               0.999999988              -0.000389198              -0.000601289               0.999999988              -0.000346713              -0.000574430               0.999999988              -0.000299233              -0.000542044               0.999999988              -0.000247912              -0.000505141               0.999999988              -0.000194221              -0.000465587               0.999999988              -0.000139634              -0.000425083               0.999999988              -0.000085277              -0.000385020               0.999999988              -0.000614275              -0.000897842               0.999999988              -0.000500211              -0.000769746               0.999999988              -0.000462110              -0.000732921               0.999999988              -0.000447601              -0.000727813               0.999999988              -0.000439046              -0.000733712               0.999999988              -0.000428557              -0.000741271               0.999999988              -0.000412087              -0.000745358               0.999999988              -0.000387588              -0.000743588               0.999999988              -0.000354805              -0.000734873               0.999999988              -0.000313889              -0.000718863               0.999999988              -0.000265521              -0.000696135               0.999999988              -0.000210503              -0.000667633               0.999999988              -0.000150138              -0.000634786               0.999999988              -0.000086387              -0.000599421               0.999999988              -0.000021081              -0.000563561               0.999999988               0.000044232              -0.000528481               0.999999988               0.000108987              -0.000494705               0.999999988              -0.000550473              -0.000985921               0.999999988              -0.000430197              -0.000877226               0.999999988              -0.000390023              -0.000837294               0.999999988              -0.000375433              -0.000828232               0.999999988              -0.000368024              -0.000831991               0.999999988              -0.000359989              -0.000839994               0.999999988              -0.000347034              -0.000847276               0.999999988              -0.000327078              -0.000851077               0.999999988              -0.000299473              -0.000849847               0.999999988              -0.000264189              -0.000843095               0.999999988              -0.000221564              -0.000830803               0.999999988              -0.000171849              -0.000813374               0.999999988              -0.000115725              -0.000791750               0.999999988              -0.000054284              -0.000767286               0.999999988               0.000010592              -0.000741436               0.999999988               0.000077120              -0.000715687               0.999999988               0.000143972              -0.000691232               0.999999988              -0.000480988              -0.001066259               0.999999988              -0.000362634              -0.000981386               0.999999988              -0.000320542              -0.000944573               0.999999988              -0.000305060              -0.000933689               0.999999988              -0.000297919              -0.000936211               0.999999988              -0.000291580              -0.000944808               0.999999988              -0.000281515              -0.000954804               0.999999988              -0.000265642              -0.000963499               0.999999988              -0.000242954              -0.000969052               0.999999988              -0.000213283              -0.000970670               0.999999988              -0.000176484              -0.000967982               0.999999988              -0.000132615              -0.000961190               0.999999988              -0.000081747              -0.000950397               0.999999988              -0.000024336              -0.000936554               0.999999988               0.000038418              -0.000920744               0.999999988               0.000105049              -0.000904260               0.999999988               0.000173692              -0.000888173               0.999999988              -0.000407274              -0.001136749               0.999999988              -0.000297571              -0.001078971               0.999999988              -0.000255406              -0.001049615               0.999999988              -0.000238773              -0.001040144               0.999999988              -0.000231358              -0.001042834               0.999999988              -0.000225747              -0.001052547               0.999999988              -0.000218080              -0.001065255               0.999999988              -0.000205733              -0.001078257               0.999999988              -0.000187591              -0.001089962               0.999999988              -0.000163173              -0.001099251               0.999999988              -0.000132372              -0.001105555               0.999999988              -0.000094932              -0.001108652               0.999999988              -0.000050185              -0.001108599               0.999999988               0.000001763              -0.001105539               0.999999988               0.000060547              -0.001099978               0.999999988               0.000125429              -0.001093027               0.999999988               0.000195106              -0.001085648               0.999999988              -0.000330101              -0.001196128               0.999999988              -0.000235037              -0.001165863               0.999999988              -0.000195353              -0.001147203               0.999999988              -0.000178515              -0.001141759               0.999999988              -0.000170633              -0.001146435               0.999999988              -0.000165429              -0.001157894               0.999999988              -0.000159413              -0.001173540               0.999999988              -0.000149998              -0.001190821               0.999999988              -0.000135910              -0.001208077               0.999999988              -0.000116594              -0.001224280               0.999999988              -0.000091821              -0.001238805               0.999999988              -0.000061151              -0.001251119               0.999999988              -0.000023776              -0.001261095               0.999999988               0.000020896              -0.001268551               0.999999988               0.000073331              -0.001273671               0.999999988               0.000133888              -0.001276850               0.999999988               0.000201868              -0.001278838               0.999999988              -0.000250123              -0.001243525               0.999999988              -0.000174657              -0.001238086               0.999999988              -0.000140667              -0.001231343               0.999999988              -0.000125200              -0.001231851               0.999999988              -0.000117617              -0.001239839               0.999999988              -0.000112768              -0.001253996               0.999999988              -0.000107910              -0.001272515               0.999999988              -0.000101007              -0.001293636               0.999999988              -0.000090782              -0.001315918               0.999999988              -0.000076425              -0.001338272               0.999999988              -0.000057636              -0.001360088               0.999999988              -0.000034106              -0.001380715               0.999999988              -0.000005125              -0.001399720               0.999999988               0.000030607              -0.001416936               0.999999988               0.000074083              -0.001432360               0.999999988               0.000126166              -0.001445794               0.999999988               0.000187633              -0.001457447               0.999999988              -0.000168014              -0.001278026               0.999999988              -0.000115708              -0.001292453               0.999999988              -0.000090773              -0.001296552               0.999999988              -0.000078757              -0.001303098               0.999999988              -0.000072673              -0.001314895               0.999999988              -0.000068717              -0.001331846               0.999999988              -0.000065209              -0.001353071               0.999999988              -0.000060497              -0.001377497               0.999999988              -0.000053721              -0.001403964               0.999999988              -0.000044085              -0.001431544               0.999999988              -0.000031506              -0.001459477               0.999999988              -0.000015706              -0.001487103               0.999999988               0.000004297              -0.001513949               0.999999988               0.000029559              -0.001539721               0.999999988               0.000061058              -0.001564061               0.999999988               0.000099950              -0.001586598               0.999999988               0.000147986              -0.001607119               0.999999988              -0.000084399              -0.001299019               0.999999988              -0.000057615              -0.001326227               0.999999988              -0.000044468              -0.001338041               0.999999988              -0.000037797              -0.001349153               0.999999988              -0.000034343              -0.001363925               0.999999988              -0.000032124              -0.001383073               0.999999988              -0.000030249              -0.001406296               0.999999988              -0.000027879              -0.001432968               0.999999988              -0.000024392              -0.001462212               0.999999988              -0.000019486              -0.001493149               0.999999988              -0.000013295              -0.001524988               0.999999988              -0.000005415              -0.001557252               0.999999988               0.000004889              -0.001589553               0.999999988               0.000017931              -0.001621486               0.999999988               0.000034462              -0.001652454               0.999999988               0.000055538              -0.001681894               0.999999988               0.000082383              -0.001709088               0.999999988               0.000000000              -0.001306119               0.999999988               0.000000000              -0.001337658               0.999999988               0.000000000              -0.001352251               0.999999988              -0.000000000              -0.001365146               0.999999988              -0.000000000              -0.001380979               0.999999988               0.000000000              -0.001400964               0.999999988               0.000000000              -0.001425035               0.999999988               0.000000000              -0.001452626               0.999999988               0.000000000              -0.001482860               0.999999988               0.000000000              -0.001514898               0.999999988               0.000000000              -0.001548082               0.999999988              -0.000000000              -0.001582058               0.999999988               0.000000000              -0.001616297               0.999999988              -0.000000000              -0.001650348               0.999999988              -0.000000000              -0.001683828               0.999999988               0.000000000              -0.001715958               0.999999988               0.000000000              -0.001745702               0.999999988               0.000902200               0.000000000               0.999999987               0.000949069              -0.000000000               0.999999987               0.000968186               0.000000000               0.999999987               0.000978091               0.000000000               0.999999988               0.000985643               0.000000000               0.999999988               0.000993280               0.000000000               0.999999988               0.001001784               0.000000000               0.999999988               0.001011164               0.000000000               0.999999988               0.001021406              -0.000000000               0.999999988               0.001032285               0.000000000               0.999999988               0.001043446               0.000000000               0.999999988               0.001054381               0.000000000               0.999999988               0.001064599               0.000000000               0.999999988               0.001073608              -0.000000000               0.999999988               0.001080997              -0.000000000               0.999999988               0.001086173               0.000000000               0.999999988               0.001088023              -0.000000000               0.999999988               0.000897283              -0.000123466               0.999999987               0.000940006              -0.000097209               0.999999987               0.000956418              -0.000084809               0.999999987               0.000964543              -0.000079344               0.999999988               0.000970853              -0.000077354               0.999999988               0.000977567              -0.000076849               0.999999988               0.000985237              -0.000076791               0.999999988               0.000993762              -0.000076653               0.999999988               0.001002941              -0.000075860               0.999999988               0.001012490              -0.000074031               0.999999988               0.001022036              -0.000070832               0.999999988               0.001031147              -0.000065726               0.999999988               0.001039316              -0.000058559               0.999999988               0.001046110              -0.000049043               0.999999988               0.001051024              -0.000036639               0.999999988               0.001053464              -0.000020248               0.999999988               0.001052766               0.000001607               0.999999988               0.000882474              -0.000245904               0.999999987               0.000913120              -0.000194151               0.999999987               0.000921995              -0.000170690               0.999999987               0.000925410              -0.000160801               0.999999988               0.000928504              -0.000157673               0.999999988               0.000932639              -0.000157272               0.999999988               0.000937910              -0.000157491               0.999999988               0.000943892              -0.000157257               0.999999988               0.000950109              -0.000155581               0.999999988               0.000956097              -0.000151876               0.999999988               0.000961365              -0.000145455               0.999999988               0.000965575              -0.000135503               0.999999988               0.000968248              -0.000121807               0.999999988               0.000968933              -0.000103802               0.999999988               0.000967273              -0.000080428               0.999999988               0.000962892              -0.000050489               0.999999988               0.000955642              -0.000012305               0.999999988               0.000857950              -0.000366249               0.999999987               0.000869635              -0.000290706               0.999999987               0.000867633              -0.000258570               0.999999988               0.000864710              -0.000246201               0.999999988               0.000863701              -0.000243062               0.999999988               0.000864482              -0.000243476               0.999999988               0.000866400              -0.000244451               0.999999988               0.000868661              -0.000244352               0.999999988               0.000870497              -0.000241962               0.999999988               0.000871296              -0.000236221               0.999999988               0.000870495              -0.000226711               0.999999988               0.000867665              -0.000212495               0.999999988               0.000862485              -0.000193111               0.999999988               0.000854632              -0.000167926               0.999999988               0.000843871              -0.000136218               0.999999988               0.000830314              -0.000097284               0.999999988               0.000814361              -0.000050227               0.999999988               0.000824260              -0.000483405               0.999999987               0.000811794              -0.000386924               0.999999987               0.000797696              -0.000349117               0.999999988               0.000788421              -0.000336285               0.999999988               0.000783428              -0.000334353               0.999999988               0.000781003              -0.000336206               0.999999988               0.000779481              -0.000338188               0.999999988               0.000777519              -0.000338273               0.999999988               0.000774053              -0.000335009               0.999999988               0.000768408              -0.000327437               0.999999988               0.000760059              -0.000314886               0.999999988               0.000748671              -0.000296827               0.999999988               0.000733973              -0.000272753               0.999999988               0.000715896              -0.000242372               0.999999988               0.000694728              -0.000205452               0.999999988               0.000671032              -0.000161958               0.999999988               0.000645627              -0.000112317               0.999999988               0.000782145              -0.000596277               0.999999987               0.000742537              -0.000482949               0.999999988               0.000717164              -0.000442543               0.999999988               0.000702887              -0.000430915               0.999999988               0.000695087              -0.000431081               0.999999988               0.000690034              -0.000434688               0.999999988               0.000685138              -0.000437608               0.999999988               0.000678484              -0.000437665               0.999999988               0.000668940              -0.000433375               0.999999988               0.000655998              -0.000423823               0.999999988               0.000639102              -0.000408378               0.999999988               0.000618039              -0.000386979               0.999999988               0.000592963              -0.000359335               0.999999988               0.000564257              -0.000325286               0.999999988               0.000532608              -0.000285467               0.999999988               0.000498818              -0.000240722               0.999999988               0.000463902              -0.000192534               0.999999988               0.000732378              -0.000703816               0.999999988               0.000665233              -0.000578847               0.999999988               0.000631247              -0.000538391               0.999999988               0.000614407              -0.000529004               0.999999988               0.000605325              -0.000531398               0.999999988               0.000598190              -0.000536642               0.999999988               0.000589758              -0.000540480               0.999999988               0.000577965              -0.000540136               0.999999988               0.000561813              -0.000534600               0.999999988               0.000540642              -0.000522933               0.999999988               0.000514278              -0.000504608               0.999999988               0.000482915              -0.000480240               0.999999988               0.000447066              -0.000449714               0.999999988               0.000407425              -0.000413512               0.999999988               0.000365016              -0.000372773               0.999999988               0.000320968              -0.000329035               0.999999988               0.000276413              -0.000284173               0.999999988               0.000675770              -0.000805006               0.999999988               0.000583450              -0.000674515               0.999999988               0.000544738              -0.000635735               0.999999988               0.000528125              -0.000628703               0.999999988               0.000518881              -0.000633041               0.999999988               0.000510074              -0.000639697               0.999999988               0.000497965              -0.000643890               0.999999988               0.000480397              -0.000642898               0.999999988               0.000456544              -0.000635875               0.999999988               0.000425998              -0.000622055               0.999999988               0.000389198              -0.000601289               0.999999988               0.000346713              -0.000574430               0.999999988               0.000299233              -0.000542044               0.999999988               0.000247912              -0.000505141               0.999999988               0.000194221              -0.000465587               0.999999988               0.000139634              -0.000425083               0.999999988               0.000085277              -0.000385020               0.999999988               0.000614275              -0.000897842               0.999999988               0.000500211              -0.000769746               0.999999988               0.000462110              -0.000732921               0.999999988               0.000447601              -0.000727813               0.999999988               0.000439046              -0.000733712               0.999999988               0.000428557              -0.000741271               0.999999988               0.000412087              -0.000745358               0.999999988               0.000387588              -0.000743588               0.999999988               0.000354805              -0.000734873               0.999999988               0.000313889              -0.000718863               0.999999988               0.000265521              -0.000696135               0.999999988               0.000210503              -0.000667633               0.999999988               0.000150138              -0.000634786               0.999999988               0.000086387              -0.000599421               0.999999988               0.000021081              -0.000563561               0.999999988              -0.000044232              -0.000528481               0.999999988              -0.000108987              -0.000494705               0.999999988               0.000550473              -0.000985921               0.999999988               0.000430197              -0.000877226               0.999999988               0.000390023              -0.000837294               0.999999988               0.000375433              -0.000828232               0.999999988               0.000368024              -0.000831991               0.999999988               0.000359989              -0.000839994               0.999999988               0.000347034              -0.000847276               0.999999988               0.000327078              -0.000851077               0.999999988               0.000299473              -0.000849847               0.999999988               0.000264189              -0.000843095               0.999999988               0.000221564              -0.000830803               0.999999988               0.000171849              -0.000813374               0.999999988               0.000115725              -0.000791750               0.999999988               0.000054284              -0.000767286               0.999999988              -0.000010592              -0.000741436               0.999999988              -0.000077120              -0.000715687               0.999999988              -0.000143972              -0.000691232               0.999999988               0.000480988              -0.001066259               0.999999988               0.000362634              -0.000981386               0.999999988               0.000320542              -0.000944573               0.999999988               0.000305060              -0.000933689               0.999999988               0.000297919              -0.000936211               0.999999988               0.000291580              -0.000944808               0.999999988               0.000281515              -0.000954804               0.999999988               0.000265642              -0.000963499               0.999999988               0.000242954              -0.000969052               0.999999988               0.000213283              -0.000970670               0.999999988               0.000176484              -0.000967982               0.999999988               0.000132615              -0.000961190               0.999999988               0.000081747              -0.000950397               0.999999988               0.000024336              -0.000936554               0.999999988              -0.000038418              -0.000920744               0.999999988              -0.000105049              -0.000904260               0.999999988              -0.000173692              -0.000888173               0.999999988               0.000407274              -0.001136749               0.999999988               0.000297571              -0.001078971               0.999999988               0.000255406              -0.001049615               0.999999988               0.000238773              -0.001040144               0.999999988               0.000231358              -0.001042834               0.999999988               0.000225747              -0.001052547               0.999999988               0.000218080              -0.001065255               0.999999988               0.000205733              -0.001078257               0.999999988               0.000187591              -0.001089962               0.999999988               0.000163173              -0.001099251               0.999999988               0.000132372              -0.001105555               0.999999988               0.000094932              -0.001108652               0.999999988               0.000050185              -0.001108599               0.999999988              -0.000001763              -0.001105539               0.999999988              -0.000060547              -0.001099978               0.999999988              -0.000125429              -0.001093027               0.999999988              -0.000195106              -0.001085648               0.999999988               0.000330101              -0.001196128               0.999999988               0.000235037              -0.001165863               0.999999988               0.000195353              -0.001147203               0.999999988               0.000178515              -0.001141759               0.999999988               0.000170633              -0.001146435               0.999999988               0.000165429              -0.001157894               0.999999988               0.000159413              -0.001173540               0.999999988               0.000149998              -0.001190821               0.999999988               0.000135910              -0.001208077               0.999999988               0.000116594              -0.001224280               0.999999988               0.000091821              -0.001238805               0.999999988               0.000061151              -0.001251119               0.999999988               0.000023776              -0.001261095               0.999999988              -0.000020896              -0.001268551               0.999999988              -0.000073331              -0.001273671               0.999999988              -0.000133888              -0.001276850               0.999999988              -0.000201868              -0.001278838               0.999999988               0.000250123              -0.001243525               0.999999988               0.000174657              -0.001238086               0.999999988               0.000140667              -0.001231343               0.999999988               0.000125200              -0.001231851               0.999999988               0.000117617              -0.001239839               0.999999988               0.000112768              -0.001253996               0.999999988               0.000107910              -0.001272515               0.999999988               0.000101007              -0.001293636               0.999999988               0.000090782              -0.001315918               0.999999988               0.000076425              -0.001338272               0.999999988               0.000057636              -0.001360088               0.999999988               0.000034106              -0.001380715               0.999999988               0.000005125              -0.001399720               0.999999988              -0.000030607              -0.001416936               0.999999988              -0.000074083              -0.001432360               0.999999988              -0.000126166              -0.001445794               0.999999988              -0.000187633              -0.001457447               0.999999988               0.000168014              -0.001278026               0.999999988               0.000115708              -0.001292453               0.999999988               0.000090773              -0.001296552               0.999999988               0.000078757              -0.001303098               0.999999988               0.000072673              -0.001314895               0.999999988               0.000068717              -0.001331846               0.999999988               0.000065209              -0.001353071               0.999999988               0.000060497              -0.001377497               0.999999988               0.000053721              -0.001403964               0.999999988               0.000044085              -0.001431544               0.999999988               0.000031506              -0.001459477               0.999999988               0.000015706              -0.001487103               0.999999988              -0.000004297              -0.001513949               0.999999988              -0.000029559              -0.001539721               0.999999988              -0.000061058              -0.001564061               0.999999988              -0.000099950              -0.001586598               0.999999988              -0.000147986              -0.001607119               0.999999988               0.000084399              -0.001299019               0.999999988               0.000057615              -0.001326227               0.999999988               0.000044468              -0.001338041               0.999999988               0.000037797              -0.001349153               0.999999988               0.000034343              -0.001363925               0.999999988               0.000032124              -0.001383073               0.999999988               0.000030249              -0.001406296               0.999999988               0.000027879              -0.001432968               0.999999988               0.000024392              -0.001462212               0.999999988               0.000019486              -0.001493149               0.999999988               0.000013295              -0.001524988               0.999999988               0.000005415              -0.001557252               0.999999988              -0.000004889              -0.001589553               0.999999988              -0.000017931              -0.001621486               0.999999988              -0.000034462              -0.001652454               0.999999988              -0.000055538              -0.001681894               0.999999988              -0.000082383              -0.001709088               0.999999988               0.000000000              -0.001306119               0.999999988               0.000000000              -0.001337658               0.999999988               0.000000000              -0.001352251               0.999999988              -0.000000000              -0.001365146               0.999999988              -0.000000000              -0.001380979               0.999999988               0.000000000              -0.001400964               0.999999988               0.000000000              -0.001425035               0.999999988               0.000000000              -0.001452626               0.999999988               0.000000000              -0.001482860               0.999999988               0.000000000              -0.001514898               0.999999988               0.000000000              -0.001548082               0.999999988              -0.000000000              -0.001582058               0.999999988               0.000000000              -0.001616297               0.999999988              -0.000000000              -0.001650348               0.999999988              -0.000000000              -0.001683828               0.999999988               0.000000000              -0.001715958               0.999999988               0.000000000              -0.001745702               0.999999988               0.000902200               0.000000000               0.999999987               0.000949069              -0.000000000               0.999999987               0.000968186               0.000000000               0.999999987               0.000978091               0.000000000               0.999999988               0.000985643               0.000000000               0.999999988               0.000993280               0.000000000               0.999999988               0.001001784               0.000000000               0.999999988               0.001011164               0.000000000               0.999999988               0.001021406              -0.000000000               0.999999988               0.001032285               0.000000000               0.999999988               0.001043446               0.000000000               0.999999988               0.001054381               0.000000000               0.999999988               0.001064599               0.000000000               0.999999988               0.001073608              -0.000000000               0.999999988               0.001080997              -0.000000000               0.999999988               0.001086173               0.000000000               0.999999988               0.001088023              -0.000000000               0.999999988               0.000897283               0.000123466               0.999999987               0.000940006               0.000097209               0.999999987               0.000956418               0.000084809               0.999999987               0.000964543               0.000079344               0.999999988               0.000970853               0.000077354               0.999999988               0.000977567               0.000076849               0.999999988               0.000985237               0.000076791               0.999999988               0.000993762               0.000076653               0.999999988               0.001002941               0.000075860               0.999999988               0.001012490               0.000074031               0.999999988               0.001022036               0.000070832               0.999999988               0.001031147               0.000065726               0.999999988               0.001039316               0.000058559               0.999999988               0.001046110               0.000049043               0.999999988               0.001051024               0.000036639               0.999999988               0.001053464               0.000020248               0.999999988               0.001052766              -0.000001607               0.999999988               0.000882474               0.000245904               0.999999987               0.000913120               0.000194151               0.999999987               0.000921995               0.000170690               0.999999987               0.000925410               0.000160801               0.999999988               0.000928504               0.000157673               0.999999988               0.000932639               0.000157272               0.999999988               0.000937910               0.000157491               0.999999988               0.000943892               0.000157257               0.999999988               0.000950109               0.000155581               0.999999988               0.000956097               0.000151876               0.999999988               0.000961365               0.000145455               0.999999988               0.000965575               0.000135503               0.999999988               0.000968248               0.000121807               0.999999988               0.000968933               0.000103802               0.999999988               0.000967273               0.000080428               0.999999988               0.000962892               0.000050489               0.999999988               0.000955642               0.000012305               0.999999988               0.000857950               0.000366249               0.999999987               0.000869635               0.000290706               0.999999987               0.000867633               0.000258570               0.999999988               0.000864710               0.000246201               0.999999988               0.000863701               0.000243062               0.999999988               0.000864482               0.000243476               0.999999988               0.000866400               0.000244451               0.999999988               0.000868661               0.000244352               0.999999988               0.000870497               0.000241962               0.999999988               0.000871296               0.000236221               0.999999988               0.000870495               0.000226711               0.999999988               0.000867665               0.000212495               0.999999988               0.000862485               0.000193111               0.999999988               0.000854632               0.000167926               0.999999988               0.000843871               0.000136218               0.999999988               0.000830314               0.000097284               0.999999988               0.000814361               0.000050227               0.999999988               0.000824260               0.000483405               0.999999987               0.000811794               0.000386924               0.999999987               0.000797696               0.000349117               0.999999988               0.000788421               0.000336285               0.999999988               0.000783428               0.000334353               0.999999988               0.000781003               0.000336206               0.999999988               0.000779481               0.000338188               0.999999988               0.000777519               0.000338273               0.999999988               0.000774053               0.000335009               0.999999988               0.000768408               0.000327437               0.999999988               0.000760059               0.000314886               0.999999988               0.000748671               0.000296827               0.999999988               0.000733973               0.000272753               0.999999988               0.000715896               0.000242372               0.999999988               0.000694728               0.000205452               0.999999988               0.000671032               0.000161958               0.999999988               0.000645627               0.000112317               0.999999988               0.000782145               0.000596277               0.999999987               0.000742537               0.000482949               0.999999988               0.000717164               0.000442543               0.999999988               0.000702887               0.000430915               0.999999988               0.000695087               0.000431081               0.999999988               0.000690034               0.000434688               0.999999988               0.000685138               0.000437608               0.999999988               0.000678484               0.000437665               0.999999988               0.000668940               0.000433375               0.999999988               0.000655998               0.000423823               0.999999988               0.000639102               0.000408378               0.999999988               0.000618039               0.000386979               0.999999988               0.000592963               0.000359335               0.999999988               0.000564257               0.000325286               0.999999988               0.000532608               0.000285467               0.999999988               0.000498818               0.000240722               0.999999988               0.000463902               0.000192534               0.999999988               0.000732378               0.000703816               0.999999988               0.000665233               0.000578847               0.999999988               0.000631247               0.000538391               0.999999988               0.000614407               0.000529004               0.999999988               0.000605325               0.000531398               0.999999988               0.000598190               0.000536642               0.999999988               0.000589758               0.000540480               0.999999988               0.000577965               0.000540136               0.999999988               0.000561813               0.000534600               0.999999988               0.000540642               0.000522933               0.999999988               0.000514278               0.000504608               0.999999988               0.000482915               0.000480240               0.999999988               0.000447066               0.000449714               0.999999988               0.000407425               0.000413512               0.999999988               0.000365016               0.000372773               0.999999988               0.000320968               0.000329035               0.999999988               0.000276413               0.000284173               0.999999988               0.000675770               0.000805006               0.999999988               0.000583450               0.000674515               0.999999988               0.000544738               0.000635735               0.999999988               0.000528125               0.000628703               0.999999988               0.000518881               0.000633041               0.999999988               0.000510074               0.000639697               0.999999988               0.000497965               0.000643890               0.999999988               0.000480397               0.000642898               0.999999988               0.000456544               0.000635875               0.999999988               0.000425998               0.000622055               0.999999988               0.000389198               0.000601289               0.999999988               0.000346713               0.000574430               0.999999988               0.000299233               0.000542044               0.999999988               0.000247912               0.000505141               0.999999988               0.000194221               0.000465587               0.999999988               0.000139634               0.000425083               0.999999988               0.000085277               0.000385020               0.999999988               0.000614275               0.000897842               0.999999988               0.000500211               0.000769746               0.999999988               0.000462110               0.000732921               0.999999988               0.000447601               0.000727813               0.999999988               0.000439046               0.000733712               0.999999988               0.000428557               0.000741271               0.999999988               0.000412087               0.000745358               0.999999988               0.000387588               0.000743588               0.999999988               0.000354805               0.000734873               0.999999988               0.000313889               0.000718863               0.999999988               0.000265521               0.000696135               0.999999988               0.000210503               0.000667633               0.999999988               0.000150138               0.000634786               0.999999988               0.000086387               0.000599421               0.999999988               0.000021081               0.000563561               0.999999988              -0.000044232               0.000528481               0.999999988              -0.000108987               0.000494705               0.999999988               0.000550473               0.000985921               0.999999988               0.000430197               0.000877226               0.999999988               0.000390023               0.000837294               0.999999988               0.000375433               0.000828232               0.999999988               0.000368024               0.000831991               0.999999988               0.000359989               0.000839994               0.999999988               0.000347034               0.000847276               0.999999988               0.000327078               0.000851077               0.999999988               0.000299473               0.000849847               0.999999988               0.000264189               0.000843095               0.999999988               0.000221564               0.000830803               0.999999988               0.000171849               0.000813374               0.999999988               0.000115725               0.000791750               0.999999988               0.000054284               0.000767286               0.999999988              -0.000010592               0.000741436               0.999999988              -0.000077120               0.000715687               0.999999988              -0.000143972               0.000691232               0.999999988               0.000480988               0.001066259               0.999999988               0.000362634               0.000981386               0.999999988               0.000320542               0.000944573               0.999999988               0.000305060               0.000933689               0.999999988               0.000297919               0.000936211               0.999999988               0.000291580               0.000944808               0.999999988               0.000281515               0.000954804               0.999999988               0.000265642               0.000963499               0.999999988               0.000242954               0.000969052               0.999999988               0.000213283               0.000970670               0.999999988               0.000176484               0.000967982               0.999999988               0.000132615               0.000961190               0.999999988               0.000081747               0.000950397               0.999999988               0.000024336               0.000936554               0.999999988              -0.000038418               0.000920744               0.999999988              -0.000105049               0.000904260               0.999999988              -0.000173692               0.000888173               0.999999988               0.000407274               0.001136749               0.999999988               0.000297571               0.001078971               0.999999988               0.000255406               0.001049615               0.999999988               0.000238773               0.001040144               0.999999988               0.000231358               0.001042834               0.999999988               0.000225747               0.001052547               0.999999988               0.000218080               0.001065255               0.999999988               0.000205733               0.001078257               0.999999988               0.000187591               0.001089962               0.999999988               0.000163173               0.001099251               0.999999988               0.000132372               0.001105555               0.999999988               0.000094932               0.001108652               0.999999988               0.000050185               0.001108599               0.999999988              -0.000001763               0.001105539               0.999999988              -0.000060547               0.001099978               0.999999988              -0.000125429               0.001093027               0.999999988              -0.000195106               0.001085648               0.999999988               0.000330101               0.001196128               0.999999988               0.000235037               0.001165863               0.999999988               0.000195353               0.001147203               0.999999988               0.000178515               0.001141759               0.999999988               0.000170633               0.001146435               0.999999988               0.000165429               0.001157894               0.999999988               0.000159413               0.001173540               0.999999988               0.000149998               0.001190821               0.999999988               0.000135910               0.001208077               0.999999988               0.000116594               0.001224280               0.999999988               0.000091821               0.001238805               0.999999988               0.000061151               0.001251119               0.999999988               0.000023776               0.001261095               0.999999988              -0.000020896               0.001268551               0.999999988              -0.000073331               0.001273671               0.999999988              -0.000133888               0.001276850               0.999999988              -0.000201868               0.001278838               0.999999988               0.000250123               0.001243525               0.999999988               0.000174657               0.001238086               0.999999988               0.000140667               0.001231343               0.999999988               0.000125200               0.001231851               0.999999988               0.000117617               0.001239839               0.999999988               0.000112768               0.001253996               0.999999988               0.000107910               0.001272515               0.999999988               0.000101007               0.001293636               0.999999988               0.000090782               0.001315918               0.999999988               0.000076425               0.001338272               0.999999988               0.000057636               0.001360088               0.999999988               0.000034106               0.001380715               0.999999988               0.000005125               0.001399720               0.999999988              -0.000030607               0.001416936               0.999999988              -0.000074083               0.001432360               0.999999988              -0.000126166               0.001445794               0.999999988              -0.000187633               0.001457447               0.999999988               0.000168014               0.001278026               0.999999988               0.000115708               0.001292453               0.999999988               0.000090773               0.001296552               0.999999988               0.000078757               0.001303098               0.999999988               0.000072673               0.001314895               0.999999988               0.000068717               0.001331846               0.999999988               0.000065209               0.001353071               0.999999988               0.000060497               0.001377497               0.999999988               0.000053721               0.001403964               0.999999988               0.000044085               0.001431544               0.999999988               0.000031506               0.001459477               0.999999988               0.000015706               0.001487103               0.999999988              -0.000004297               0.001513949               0.999999988              -0.000029559               0.001539721               0.999999988              -0.000061058               0.001564061               0.999999988              -0.000099950               0.001586598               0.999999988              -0.000147986               0.001607119               0.999999988               0.000084399               0.001299019               0.999999988               0.000057615               0.001326227               0.999999988               0.000044468               0.001338041               0.999999988               0.000037797               0.001349153               0.999999988               0.000034343               0.001363925               0.999999988               0.000032124               0.001383073               0.999999988               0.000030249               0.001406296               0.999999988               0.000027879               0.001432968               0.999999988               0.000024392               0.001462212               0.999999988               0.000019486               0.001493149               0.999999988               0.000013295               0.001524988               0.999999988               0.000005415               0.001557252               0.999999988              -0.000004889               0.001589553               0.999999988              -0.000017931               0.001621486               0.999999988              -0.000034462               0.001652454               0.999999988              -0.000055538               0.001681894               0.999999988              -0.000082383               0.001709088               0.999999988              -0.000000000               0.001306119               0.999999988               0.000000000               0.001337658               0.999999988              -0.000000000               0.001352251               0.999999988              -0.000000000               0.001365146               0.999999988               0.000000000               0.001380979               0.999999988               0.000000000               0.001400964               0.999999988              -0.000000000               0.001425035               0.999999988              -0.000000000               0.001452626               0.999999988              -0.000000000               0.001482860               0.999999988              -0.000000000               0.001514898               0.999999988              -0.000000000               0.001548082               0.999999988              -0.000000000               0.001582058               0.999999988               0.000000000               0.001616297               0.999999988               0.000000000               0.001650348               0.999999988               0.000000000               0.001683828               0.999999988              -0.000000000               0.001715958               0.999999988              -0.000000000               0.001745702               0.999999988 </DataArray>
<DataArray type="Float64"                                    Name="stress"                                                      NumberOfComponents="10" format="ascii">
              0.002127573               0.022367250              -0.000000000              -0.001998061               0.008121696               0.006123634               0.000000000               0.000000000               0.000000000               0.000000000               0.002033536               0.017077500               0.000000000              -0.001372108               0.006149813               0.004777704               0.000000000               0.000000000               0.000000000               0.000000000               0.002616371               0.012774052              -0.000000000              -0.000615616               0.004463180               0.003847564               0.000000000               0.000000000               0.000000000               0.000000000               0.002428688               0.010348987              -0.000000000              -0.000382864               0.003577249               0.003194385               0.000000000               0.000000000               0.000000000               0.000000000               0.002028675               0.008814865               0.000000000              -0.000341104               0.003051960               0.002710856               0.000000000               0.000000000               0.000000000               0.000000000               0.001605493               0.007729154              -0.000000000              -0.000364083               0.002697720               0.002333637               0.000000000               0.000000000               0.000000000               0.000000000               0.001225631               0.006887032              -0.000000000              -0.000401267               0.002429410               0.002028143               0.000000000               0.000000000               0.000000000               0.000000000               0.000896978               0.006182396               0.000000000              -0.000436432               0.002206255               0.001769824               0.000000000               0.000000000               0.000000000               0.000000000               0.000608334               0.005544386               0.000000000              -0.000464922               0.002003084               0.001538162               0.000000000               0.000000000               0.000000000               0.000000000               0.000363845               0.004935864              -0.000000000              -0.000480540               0.001805451               0.001324911               0.000000000               0.000000000               0.000000000               0.000000000               0.000169564               0.004332998              -0.000000000              -0.000478037               0.001603664               0.001125627               0.000000000               0.000000000               0.000000000               0.000000000               0.000025901               0.003713257              -0.000000000              -0.000454443               0.001389221               0.000934778               0.000000000               0.000000000               0.000000000               0.000000000              -0.000070145               0.003069146              -0.000000000              -0.000409947               0.001159687               0.000749741               0.000000000               0.000000000               0.000000000               0.000000000              -0.000125064               0.002390142               0.000000000              -0.000345666               0.000911928               0.000566262               0.000000000               0.000000000               0.000000000               0.000000000              -0.000138238               0.001656481               0.000000000              -0.000258899               0.000638454               0.000379556               0.000000000               0.000000000               0.000000000               0.000000000              -0.000089161               0.000837768               0.000000000              -0.000138156               0.000325305               0.000187149               0.000000000               0.000000000               0.000000000               0.000000000              -0.000113914               0.000208161               0.000000000              -0.000068738               0.000092299               0.000023561               0.000000000               0.000000000               0.000000000               0.000000000               0.002187901               0.021885813              -0.001469043              -0.001915259               0.007933618               0.006018358               0.000000000               0.000000000               0.000000000               0.000000000               0.001968307               0.016774655              -0.000638888              -0.001358713               0.006044400               0.004685687               0.000000000               0.000000000               0.000000000               0.000000000               0.002417157               0.012661231               0.000180198              -0.000676219               0.004445774               0.003769556               0.000000000               0.000000000               0.000000000               0.000000000               0.002177832               0.010332698               0.000516599              -0.000474899               0.003602498               0.003127599               0.000000000               0.000000000               0.000000000               0.000000000               0.001767610               0.008850171               0.000641075              -0.000443417               0.003097833               0.002654416               0.000000000               0.000000000               0.000000000               0.000000000               0.001354315               0.007790776               0.000670047              -0.000465978               0.002752225               0.002286247               0.000000000               0.000000000               0.000000000               0.000000000               0.000993518               0.006958312               0.000661114              -0.000497219               0.002485153               0.001987935               0.000000000               0.000000000               0.000000000               0.000000000               0.000690662               0.006253082               0.000635272              -0.000522636               0.002258552               0.001735916               0.000000000               0.000000000               0.000000000               0.000000000               0.000433662               0.005612372               0.000602030              -0.000538922               0.002050413               0.001511490               0.000000000               0.000000000               0.000000000               0.000000000               0.000221729               0.005003485               0.000567254              -0.000542286               0.001848574               0.001306287               0.000000000               0.000000000               0.000000000               0.000000000               0.000054577               0.004401988               0.000527070              -0.000529781               0.001643908               0.001114127               0.000000000               0.000000000               0.000000000               0.000000000              -0.000065707               0.003790810               0.000483359              -0.000498490               0.001429754               0.000931264               0.000000000               0.000000000               0.000000000               0.000000000              -0.000138959               0.003165104               0.000438468              -0.000447747               0.001204273               0.000756526               0.000000000               0.000000000               0.000000000               0.000000000              -0.000170127               0.002513714               0.000382585              -0.000378011               0.000963900               0.000585889               0.000000000               0.000000000               0.000000000               0.000000000              -0.000157377               0.001820230               0.000300779              -0.000286545               0.000702252               0.000415707               0.000000000               0.000000000               0.000000000               0.000000000              -0.000093903               0.001067957               0.000174657              -0.000168708               0.000412218               0.000243510               0.000000000               0.000000000               0.000000000               0.000000000              -0.000109432               0.000505621               0.000109849              -0.000104239               0.000203285               0.000099045               0.000000000               0.000000000               0.000000000               0.000000000               0.002316361               0.020503967              -0.002702012              -0.001694357               0.007399373               0.005705016               0.000000000               0.000000000               0.000000000               0.000000000               0.001752514               0.015913904              -0.001163250              -0.001332042               0.005748596               0.004416553               0.000000000               0.000000000               0.000000000               0.000000000               0.001833375               0.012341965               0.000335846              -0.000855228               0.004399023               0.003543795               0.000000000               0.000000000               0.000000000               0.000000000               0.001466358               0.010285162               0.000925342              -0.000735760               0.003673606               0.002937847               0.000000000               0.000000000               0.000000000               0.000000000               0.001046552               0.008934803               0.001132677              -0.000724392               0.003219702               0.002495310               0.000000000               0.000000000               0.000000000               0.000000000               0.000676082               0.007938961               0.001172974              -0.000738838               0.002892573               0.002153735               0.000000000               0.000000000               0.000000000               0.000000000               0.000377798               0.007134013               0.001148586              -0.000750076               0.002628006               0.001877930               0.000000000               0.000000000               0.000000000               0.000000000               0.000148709               0.006435861               0.001097290              -0.000748715               0.002394837               0.001646122               0.000000000               0.000000000               0.000000000               0.000000000              -0.000026222               0.005796148               0.001033926              -0.000734350               0.002176813               0.001442463               0.000000000               0.000000000               0.000000000               0.000000000              -0.000154627               0.005186432               0.000967079              -0.000706288               0.001964223               0.001257935               0.000000000               0.000000000               0.000000000               0.000000000              -0.000243434               0.004594865               0.000890711              -0.000665644               0.001753488               0.001087843               0.000000000               0.000000000               0.000000000               0.000000000              -0.000293971               0.004011764               0.000809117              -0.000611709               0.001541144               0.000929436               0.000000000               0.000000000               0.000000000               0.000000000              -0.000301391               0.003431626               0.000723640              -0.000541974               0.001324522               0.000782548               0.000000000               0.000000000               0.000000000               0.000000000              -0.000271013               0.002846913               0.000616542              -0.000457493               0.001101459               0.000643966               0.000000000               0.000000000               0.000000000               0.000000000              -0.000205251               0.002257515               0.000471019              -0.000359158               0.000872217               0.000513059               0.000000000               0.000000000               0.000000000               0.000000000              -0.000108781               0.001672714               0.000266199              -0.000249881               0.000640859               0.000390978               0.000000000               0.000000000               0.000000000               0.000000000              -0.000096765               0.001271399               0.000161474              -0.000195211               0.000488866               0.000293654               0.000000000               0.000000000               0.000000000               0.000000000               0.002393431               0.018400209              -0.003534763              -0.001402488               0.006600837               0.005198349               0.000000000               0.000000000               0.000000000               0.000000000               0.001354630               0.014627268              -0.001510158              -0.001320420               0.005315847               0.003995427               0.000000000               0.000000000               0.000000000               0.000000000               0.000931299               0.011867677               0.000427749              -0.001134220               0.004333926               0.003199706               0.000000000               0.000000000               0.000000000               0.000000000               0.000423006               0.010192659               0.001139948              -0.001115453               0.003769337               0.002653884               0.000000000               0.000000000               0.000000000               0.000000000               0.000024517               0.009016941               0.001370057              -0.001117921               0.003378257               0.002260336               0.000000000               0.000000000               0.000000000               0.000000000              -0.000252552               0.008101679               0.001399131              -0.001107415               0.003069671               0.001962256               0.000000000               0.000000000               0.000000000               0.000000000              -0.000435437               0.007333448               0.001352829              -0.001079968               0.002804447               0.001724480               0.000000000               0.000000000               0.000000000               0.000000000              -0.000544933               0.006650340               0.001279304              -0.001035640               0.002561971               0.001526331               0.000000000               0.000000000               0.000000000               0.000000000              -0.000601992               0.006017422               0.001192925              -0.000977923               0.002331761               0.001353838               0.000000000               0.000000000               0.000000000               0.000000000              -0.000618046               0.005417110               0.001104650              -0.000908904               0.002108653               0.001199749               0.000000000               0.000000000               0.000000000               0.000000000              -0.000598771               0.004845191               0.001010461              -0.000830186               0.001891776               0.001061590               0.000000000               0.000000000               0.000000000               0.000000000              -0.000549381               0.004302012               0.000906272              -0.000743768               0.001681912               0.000938144               0.000000000               0.000000000               0.000000000               0.000000000              -0.000470647               0.003782604               0.000792554              -0.000649317               0.001477294               0.000827977               0.000000000               0.000000000               0.000000000               0.000000000              -0.000364007               0.003291478               0.000656362              -0.000547936               0.001279794               0.000731857               0.000000000               0.000000000               0.000000000               0.000000000              -0.000240759               0.002841360               0.000485705              -0.000445454               0.001095595               0.000650141               0.000000000               0.000000000               0.000000000               0.000000000              -0.000117848               0.002450419               0.000266908              -0.000350495               0.000933630               0.000583135               0.000000000               0.000000000               0.000000000               0.000000000              -0.000080623               0.002219417               0.000155178              -0.000307660               0.000842352               0.000534692               0.000000000               0.000000000               0.000000000               0.000000000               0.002284000               0.015830708              -0.003891470              -0.001122339               0.005650962               0.004528623               0.000000000               0.000000000               0.000000000               0.000000000               0.000757313               0.013090175              -0.001668422              -0.001352277               0.004814107               0.003461830               0.000000000               0.000000000               0.000000000               0.000000000              -0.000181380               0.011296399               0.000416321              -0.001480064               0.004258783               0.002778719               0.000000000               0.000000000               0.000000000               0.000000000              -0.000769323               0.010035317               0.001120500              -0.001542907               0.003859374               0.002316467               0.000000000               0.000000000               0.000000000               0.000000000              -0.001085256               0.009045852               0.001322107              -0.001537699               0.003527820               0.001990121               0.000000000               0.000000000               0.000000000               0.000000000              -0.001223076               0.008211872               0.001328095              -0.001485134               0.003232308               0.001747174               0.000000000               0.000000000               0.000000000               0.000000000              -0.001248118               0.007477977               0.001266704              -0.001402788               0.002960230               0.001557442               0.000000000               0.000000000               0.000000000               0.000000000              -0.001202627               0.006810568               0.001184765              -0.001302303               0.002704268               0.001401964               0.000000000               0.000000000               0.000000000               0.000000000              -0.001117793               0.006189362               0.001094745              -0.001192840               0.002460713               0.001267873               0.000000000               0.000000000               0.000000000               0.000000000              -0.001005041               0.005609361               0.001001609              -0.001078058               0.002229121               0.001151063               0.000000000               0.000000000               0.000000000               0.000000000              -0.000870872               0.005065891               0.000906322              -0.000959811               0.002008550               0.001048739               0.000000000               0.000000000               0.000000000               0.000000000              -0.000718307               0.004570180               0.000801529              -0.000840636               0.001803590               0.000962954               0.000000000               0.000000000               0.000000000               0.000000000              -0.000551135               0.004123753               0.000682202              -0.000722143               0.001615285               0.000893142               0.000000000               0.000000000               0.000000000               0.000000000              -0.000382824               0.003729977               0.000544390              -0.000609805               0.001446581               0.000836777               0.000000000               0.000000000               0.000000000               0.000000000              -0.000228641               0.003405440               0.000382740              -0.000511419               0.001305608               0.000794189               0.000000000               0.000000000               0.000000000               0.000000000              -0.000103827               0.003171234               0.000198812              -0.000435338               0.001202180               0.000766842               0.000000000               0.000000000               0.000000000               0.000000000              -0.000057517               0.003066311               0.000106985              -0.000404857               0.001157046               0.000752189               0.000000000               0.000000000               0.000000000               0.000000000               0.001870019               0.013070314              -0.003782762              -0.000932533               0.004667571               0.003735038               0.000000000               0.000000000               0.000000000               0.000000000              -0.000029227               0.011472010              -0.001667846              -0.001444959               0.004305618               0.002860659               0.000000000               0.000000000               0.000000000               0.000000000              -0.001371680               0.010668917               0.000276940              -0.001847990               0.004172267               0.002324277               0.000000000               0.000000000               0.000000000               0.000000000              -0.001928421               0.009793393               0.000874234              -0.001947327               0.003913541               0.001966213               0.000000000               0.000000000               0.000000000               0.000000000              -0.002087530               0.008966378               0.001026015              -0.001903616               0.003623301               0.001719685               0.000000000               0.000000000               0.000000000               0.000000000              -0.002043991               0.008206358               0.001019125              -0.001792287               0.003332854               0.001540567               0.000000000               0.000000000               0.000000000               0.000000000              -0.001889569               0.007512960               0.000962116              -0.001647704               0.003053530               0.001405825               0.000000000               0.000000000               0.000000000               0.000000000              -0.001680225               0.006866584               0.000892981              -0.001488404               0.002784973               0.001296569               0.000000000               0.000000000               0.000000000               0.000000000              -0.001453860               0.006266014               0.000817164              -0.001328446               0.002531466               0.001203019               0.000000000               0.000000000               0.000000000               0.000000000              -0.001220857               0.005709260               0.000736846              -0.001171476               0.002293560               0.001122084               0.000000000               0.000000000               0.000000000               0.000000000              -0.000980380               0.005201845               0.000657601              -0.001017871               0.002073221               0.001055350               0.000000000               0.000000000               0.000000000               0.000000000              -0.000743110               0.004757040               0.000570269              -0.000873294               0.001876762               0.001003468               0.000000000               0.000000000               0.000000000               0.000000000              -0.000520337               0.004375550               0.000462805              -0.000742068               0.001705858               0.000963790               0.000000000               0.000000000               0.000000000               0.000000000              -0.000326517               0.004062961               0.000343183              -0.000630313               0.001564411               0.000934098               0.000000000               0.000000000               0.000000000               0.000000000              -0.000172579               0.003834243               0.000219838              -0.000543996               0.001459400               0.000915404               0.000000000               0.000000000               0.000000000               0.000000000              -0.000066605               0.003704976               0.000102434              -0.000488098               0.001397679               0.000909581               0.000000000               0.000000000               0.000000000               0.000000000              -0.000026191               0.003671524               0.000047224              -0.000468761               0.001380083               0.000911322               0.000000000               0.000000000               0.000000000               0.000000000               0.001079111               0.010360753              -0.003294009              -0.000890428               0.003750358               0.002859930               0.000000000               0.000000000               0.000000000               0.000000000              -0.000967084               0.009906582              -0.001568922              -0.001600976               0.003835819               0.002234843               0.000000000               0.000000000               0.000000000               0.000000000              -0.002511310               0.010004199               0.000000904              -0.002192261               0.004065453               0.001873193               0.000000000               0.000000000               0.000000000               0.000000000              -0.002907121               0.009444842               0.000446491              -0.002270770               0.003905172               0.001634403               0.000000000               0.000000000               0.000000000               0.000000000              -0.002847242               0.008750231               0.000564392              -0.002161489               0.003637211               0.001475721               0.000000000               0.000000000               0.000000000               0.000000000              -0.002593059               0.008064284               0.000570955              -0.001980428               0.003348210               0.001367782               0.000000000               0.000000000               0.000000000               0.000000000              -0.002259895               0.007412740               0.000538687              -0.001774049               0.003062238               0.001288189               0.000000000               0.000000000               0.000000000               0.000000000              -0.001907161               0.006794814               0.000498476              -0.001564533               0.002786426               0.001221893               0.000000000               0.000000000               0.000000000               0.000000000              -0.001559437               0.006224707               0.000455318              -0.001362874               0.002529173               0.001166299               0.000000000               0.000000000               0.000000000               0.000000000              -0.001229256               0.005702946               0.000403534              -0.001173836               0.002292242               0.001118405               0.000000000               0.000000000               0.000000000               0.000000000              -0.000920174               0.005239697               0.000352544              -0.001000025               0.002079890               0.001079865               0.000000000               0.000000000               0.000000000               0.000000000              -0.000637968               0.004845616               0.000295440              -0.000844938               0.001896835               0.001051897               0.000000000               0.000000000               0.000000000               0.000000000              -0.000395177               0.004526278               0.000221018              -0.000713975               0.001746736               0.001032761               0.000000000               0.000000000               0.000000000               0.000000000              -0.000205853               0.004291844               0.000143473              -0.000613674               0.001635159               0.001021484               0.000000000               0.000000000               0.000000000               0.000000000              -0.000079858               0.004149364               0.000074928              -0.000548616               0.001565980               0.001017364               0.000000000               0.000000000               0.000000000               0.000000000              -0.000017142               0.004096356               0.000025385              -0.000518471               0.001538262               0.001019791               0.000000000               0.000000000               0.000000000               0.000000000               0.000002885               0.004101899               0.000004112              -0.000511654               0.001537837               0.001026183               0.000000000               0.000000000               0.000000000               0.000000000              -0.000045757               0.007866139              -0.002544812              -0.001000425               0.002955494               0.001955069               0.000000000               0.000000000               0.000000000               0.000000000              -0.001993318               0.008479360              -0.001432681              -0.001807411               0.003428895               0.001621484               0.000000000               0.000000000               0.000000000               0.000000000              -0.003484561               0.009299781              -0.000398270              -0.002469177               0.003922955               0.001453778               0.000000000               0.000000000               0.000000000               0.000000000              -0.003609584               0.008984054              -0.000085147              -0.002476594               0.003820186               0.001343592               0.000000000               0.000000000               0.000000000               0.000000000              -0.003298932               0.008411899               0.000033658              -0.002288581               0.003566799               0.001278217               0.000000000               0.000000000               0.000000000               0.000000000              -0.002843610               0.007795748               0.000077859              -0.002040817               0.003278829               0.001238012               0.000000000               0.000000000               0.000000000               0.000000000              -0.002352402               0.007185176               0.000092201              -0.001780293               0.002988466               0.001208173               0.000000000               0.000000000               0.000000000               0.000000000              -0.001880320               0.006609563               0.000098642              -0.001531311               0.002713603               0.001182291               0.000000000               0.000000000               0.000000000               0.000000000              -0.001445713               0.006076409               0.000100740              -0.001301690               0.002459346               0.001157656               0.000000000               0.000000000               0.000000000               0.000000000              -0.001054988               0.005597176               0.000089232              -0.001095265               0.002230795               0.001135530               0.000000000               0.000000000               0.000000000               0.000000000              -0.000715001               0.005190016               0.000073752              -0.000916875               0.002035613               0.001118738               0.000000000               0.000000000               0.000000000               0.000000000              -0.000424713               0.004858848               0.000057772              -0.000766622               0.001875140               0.001108519               0.000000000               0.000000000               0.000000000               0.000000000              -0.000195971               0.004616568               0.000032315              -0.000650559               0.001755693               0.001105135               0.000000000               0.000000000               0.000000000               0.000000000              -0.000041919               0.004472994               0.000007788              -0.000574842               0.001682597               0.001107755               0.000000000               0.000000000               0.000000000               0.000000000               0.000032664               0.004422643              -0.000007349              -0.000540580               0.001654393               0.001113813               0.000000000               0.000000000               0.000000000               0.000000000               0.000038852               0.004441602              -0.000011134              -0.000540630               0.001660729               0.001120099               0.000000000               0.000000000               0.000000000               0.000000000               0.000031862               0.004479782              -0.000013855              -0.000548023               0.001675920               0.001127897               0.000000000               0.000000000               0.000000000               0.000000000              -0.001359819               0.005765345              -0.001655779              -0.001230598               0.002331961               0.001101363               0.000000000               0.000000000               0.000000000               0.000000000              -0.002995401               0.007196590              -0.001295937              -0.002022845               0.003073121               0.001050276               0.000000000               0.000000000               0.000000000               0.000000000              -0.004249580               0.008573105              -0.000877912              -0.002665224               0.003746081               0.001080857               0.000000000               0.000000000               0.000000000               0.000000000              -0.004090837               0.008509889              -0.000644484              -0.002597793               0.003702532               0.001104739               0.000000000               0.000000000               0.000000000               0.000000000              -0.003569824               0.008085867              -0.000498519              -0.002349412               0.003478399               0.001128988               0.000000000               0.000000000               0.000000000               0.000000000              -0.002954537               0.007559337              -0.000399733              -0.002052863               0.003204042               0.001151178               0.000000000               0.000000000               0.000000000               0.000000000              -0.002340823               0.007014114              -0.000324617              -0.001754569               0.002922871               0.001168302               0.000000000               0.000000000               0.000000000               0.000000000              -0.001775769               0.006490221              -0.000265651              -0.001477187               0.002655781               0.001178594               0.000000000               0.000000000               0.000000000               0.000000000              -0.001280036               0.005994294              -0.000219962              -0.001229297               0.002407844               0.001178547               0.000000000               0.000000000               0.000000000               0.000000000              -0.000846025               0.005555854              -0.000187190              -0.001011739               0.002189179               0.001177441               0.000000000               0.000000000               0.000000000               0.000000000              -0.000477070               0.005192920              -0.000158040              -0.000828014               0.002006961               0.001178947               0.000000000               0.000000000               0.000000000               0.000000000              -0.000182632               0.004908897              -0.000124564              -0.000682097               0.001863648               0.001181551               0.000000000               0.000000000               0.000000000               0.000000000               0.000023274               0.004721107              -0.000092357              -0.000581409               0.001767490               0.001186080               0.000000000               0.000000000               0.000000000               0.000000000               0.000135946               0.004641811              -0.000062865              -0.000529245               0.001723670               0.001194425               0.000000000               0.000000000               0.000000000               0.000000000               0.000167046               0.004653578              -0.000037271              -0.000519054               0.001724195               0.001205142               0.000000000               0.000000000               0.000000000               0.000000000               0.000142777               0.004725737              -0.000016940              -0.000537175               0.001754288               0.001217114               0.000000000               0.000000000               0.000000000               0.000000000               0.000114944               0.004779318              -0.000007508              -0.000554309               0.001777860               0.001223550               0.000000000               0.000000000               0.000000000               0.000000000              -0.002871002               0.003824330              -0.000732154              -0.001554664               0.001792985               0.000238321               0.000000000               0.000000000               0.000000000               0.000000000              -0.003848858               0.005696391              -0.001147809              -0.002155365               0.002617233               0.000461867               0.000000000               0.000000000               0.000000000               0.000000000              -0.004725796               0.007474458              -0.001377351              -0.002706474               0.003393619               0.000687145               0.000000000               0.000000000               0.000000000               0.000000000              -0.004409341               0.007791148              -0.001228234              -0.002627390               0.003472820               0.000845430               0.000000000               0.000000000               0.000000000               0.000000000              -0.003804776               0.007636343              -0.001052661              -0.002381328               0.003339198               0.000957870               0.000000000               0.000000000               0.000000000               0.000000000              -0.003134592               0.007312539              -0.000897252              -0.002089534               0.003134000               0.001044466               0.000000000               0.000000000               0.000000000               0.000000000              -0.002481418               0.006920149              -0.000761044              -0.001795546               0.002905208               0.001109662               0.000000000               0.000000000               0.000000000               0.000000000              -0.001877888               0.006506908              -0.000649096              -0.001517568               0.002674803               0.001157236               0.000000000               0.000000000               0.000000000               0.000000000              -0.001342295               0.006098662              -0.000557976              -0.001265690               0.002454764               0.001189073               0.000000000               0.000000000               0.000000000               0.000000000              -0.000871204               0.005726002              -0.000482338              -0.001042449               0.002256131               0.001213682               0.000000000               0.000000000               0.000000000               0.000000000              -0.000469303               0.005398450              -0.000408846              -0.000850793               0.002083063               0.001232270               0.000000000               0.000000000               0.000000000               0.000000000              -0.000140110               0.005130547              -0.000329458              -0.000693858               0.001941451               0.001247593               0.000000000               0.000000000               0.000000000               0.000000000               0.000106078               0.004939423              -0.000243374              -0.000577647               0.001839007               0.001261360               0.000000000               0.000000000               0.000000000               0.000000000               0.000259151               0.004837505              -0.000160735              -0.000507505               0.001781654               0.001274148               0.000000000               0.000000000               0.000000000               0.000000000               0.000323906               0.004821396              -0.000091557              -0.000481209               0.001767519               0.001286310               0.000000000               0.000000000               0.000000000               0.000000000               0.000320734               0.004883646              -0.000037634              -0.000490179               0.001791259               0.001301080               0.000000000               0.000000000               0.000000000               0.000000000               0.000286328               0.004921189              -0.000007764              -0.000507774               0.001809638               0.001301864               0.000000000               0.000000000               0.000000000               0.000000000              -0.004766493               0.002072902               0.000150861              -0.002046544               0.001373140              -0.000673405               0.000000000               0.000000000               0.000000000               0.000000000              -0.004806568               0.004173956              -0.000941041              -0.002324203               0.002166038              -0.000158165               0.000000000               0.000000000               0.000000000               0.000000000              -0.005125382               0.006155788              -0.001777104              -0.002691485               0.002949070               0.000257585               0.000000000               0.000000000               0.000000000               0.000000000              -0.004672467               0.006833322              -0.001779554              -0.002606334               0.003146529               0.000540195               0.000000000               0.000000000               0.000000000               0.000000000              -0.004020683               0.006987862              -0.001607248              -0.002381233               0.003123008               0.000741775               0.000000000               0.000000000               0.000000000               0.000000000              -0.003333661               0.006905279              -0.001413754              -0.002113278               0.003006162               0.000892885               0.000000000               0.000000000               0.000000000               0.000000000              -0.002657753               0.006702131              -0.001230879              -0.001834419               0.002845494               0.001011075               0.000000000               0.000000000               0.000000000               0.000000000              -0.002028750               0.006434769              -0.001070463              -0.001565124               0.002666609               0.001101485               0.000000000               0.000000000               0.000000000               0.000000000              -0.001459768               0.006143124              -0.000936185              -0.001315300               0.002486121               0.001170821               0.000000000               0.000000000               0.000000000               0.000000000              -0.000951047               0.005855129              -0.000820370              -0.001088531               0.002314534               0.001226003               0.000000000               0.000000000               0.000000000               0.000000000              -0.000498732               0.005591219              -0.000710632              -0.000885925               0.002159029               0.001273104               0.000000000               0.000000000               0.000000000               0.000000000              -0.000107666               0.005356124              -0.000595263              -0.000709889               0.002021986               0.001312098               0.000000000               0.000000000               0.000000000               0.000000000               0.000207199               0.005161077              -0.000467317              -0.000567434               0.001909487               0.001342053               0.000000000               0.000000000               0.000000000               0.000000000               0.000438012               0.005025976              -0.000335216              -0.000463992               0.001829973               0.001365981               0.000000000               0.000000000               0.000000000               0.000000000               0.000572562               0.004957695              -0.000207218              -0.000405000               0.001787549               0.001382548               0.000000000               0.000000000               0.000000000               0.000000000               0.000609593               0.004955562              -0.000093021              -0.000390847               0.001782120               0.001391273               0.000000000               0.000000000               0.000000000               0.000000000               0.000580775               0.004952778              -0.000033134              -0.000401306               0.001784678               0.001383372               0.000000000               0.000000000               0.000000000               0.000000000              -0.006905875               0.000668509               0.000901999              -0.002673264               0.001113917              -0.001559348               0.000000000               0.000000000               0.000000000               0.000000000              -0.005902956               0.002741788              -0.000670993              -0.002556328               0.001766026              -0.000790301               0.000000000               0.000000000               0.000000000               0.000000000              -0.005466928               0.004647916              -0.001975514              -0.002631082               0.002426315              -0.000204766               0.000000000               0.000000000               0.000000000               0.000000000              -0.004795544               0.005572558              -0.002166550              -0.002494893               0.002689131               0.000194238               0.000000000               0.000000000               0.000000000               0.000000000              -0.004082461               0.006007595              -0.002046095              -0.002281867               0.002763133               0.000481266               0.000000000               0.000000000               0.000000000               0.000000000              -0.003383941               0.006176685              -0.001851179              -0.002041059               0.002739227               0.000698168               0.000000000               0.000000000               0.000000000               0.000000000              -0.002704531               0.006184773              -0.001650459              -0.001787292               0.002657334               0.000870042               0.000000000               0.000000000               0.000000000               0.000000000              -0.002066265               0.006093600              -0.001459744              -0.001536546               0.002543361               0.001006815               0.000000000               0.000000000               0.000000000               0.000000000              -0.001478816               0.005948049              -0.001292185              -0.001298059               0.002415349               0.001117290               0.000000000               0.000000000               0.000000000               0.000000000              -0.000941975               0.005776419              -0.001147488              -0.001075291               0.002283884               0.001208593               0.000000000               0.000000000               0.000000000               0.000000000              -0.000446819               0.005603260              -0.001015676              -0.000867963               0.002157056               0.001289093               0.000000000               0.000000000               0.000000000               0.000000000               0.000004055               0.005437984              -0.000873606              -0.000678226               0.002038718               0.001360492               0.000000000               0.000000000               0.000000000               0.000000000               0.000396884               0.005285572              -0.000715597              -0.000511864               0.001932461               0.001420597               0.000000000               0.000000000               0.000000000               0.000000000               0.000713558               0.005149911              -0.000545759              -0.000376154               0.001842004               0.001465851               0.000000000               0.000000000               0.000000000               0.000000000               0.000937770               0.005056073              -0.000363146              -0.000280345               0.001778789               0.001498444               0.000000000               0.000000000               0.000000000               0.000000000               0.001050700               0.005011109              -0.000177309              -0.000232376               0.001747811               0.001515436               0.000000000               0.000000000               0.000000000               0.000000000               0.001062497               0.004990419              -0.000082695              -0.000225365               0.001738578               0.001513213               0.000000000               0.000000000               0.000000000               0.000000000              -0.009141615              -0.000310750               0.001401183              -0.003389259               0.001026162              -0.002363097               0.000000000               0.000000000               0.000000000               0.000000000              -0.007072153               0.001485665              -0.000385245              -0.002837762               0.001441132              -0.001396629               0.000000000               0.000000000               0.000000000               0.000000000              -0.005772749               0.003086765              -0.001945856              -0.002550622               0.001879116              -0.000671506               0.000000000               0.000000000               0.000000000               0.000000000              -0.004801112               0.004122334              -0.002301898              -0.002315704               0.002145998              -0.000169707               0.000000000               0.000000000               0.000000000               0.000000000              -0.003990094               0.004771331              -0.002262580              -0.002092697               0.002287992               0.000195295               0.000000000               0.000000000               0.000000000               0.000000000              -0.003270072               0.005172596              -0.002102415              -0.001872847               0.002348463               0.000475616               0.000000000               0.000000000               0.000000000               0.000000000              -0.002602844               0.005394841              -0.001908540              -0.001650418               0.002348401               0.000697983               0.000000000               0.000000000               0.000000000               0.000000000              -0.001972131               0.005486299              -0.001713849              -0.001425334               0.002303859               0.000878525               0.000000000               0.000000000               0.000000000               0.000000000              -0.001376981               0.005498473              -0.001536686              -0.001203675               0.002234030               0.001030356               0.000000000               0.000000000               0.000000000               0.000000000              -0.000817916               0.005466843              -0.001381848              -0.000990072               0.002152286               0.001162214               0.000000000               0.000000000               0.000000000               0.000000000              -0.000292586               0.005407147              -0.001241590              -0.000785612               0.002064235               0.001278623               0.000000000               0.000000000               0.000000000               0.000000000               0.000206300               0.005332971              -0.001093791              -0.000589258               0.001974058               0.001384800               0.000000000               0.000000000               0.000000000               0.000000000               0.000677146               0.005252184              -0.000924733              -0.000402593               0.001884908               0.001482315               0.000000000               0.000000000               0.000000000               0.000000000               0.001094542               0.005168121              -0.000730775              -0.000235562               0.001801210               0.001565648               0.000000000               0.000000000               0.000000000               0.000000000               0.001437114               0.005094728              -0.000507116              -0.000097923               0.001730867               0.001632944               0.000000000               0.000000000               0.000000000               0.000000000               0.001681480               0.005039100              -0.000260373               0.000000667               0.001679461               0.001680128               0.000000000               0.000000000               0.000000000               0.000000000               0.001787905               0.005022674              -0.000138648               0.000042629               0.001659998               0.001702627               0.000000000               0.000000000               0.000000000               0.000000000              -0.011276288              -0.000904471               0.001548078              -0.004115546               0.001070351              -0.003045196               0.000000000               0.000000000               0.000000000               0.000000000              -0.008223504               0.000474055              -0.000150227              -0.003143068               0.001205699              -0.001937369               0.000000000               0.000000000               0.000000000               0.000000000              -0.006043646               0.001638901              -0.001690775              -0.002471226               0.001370032              -0.001101194               0.000000000               0.000000000               0.000000000               0.000000000              -0.004726944               0.002658621              -0.002130711              -0.002104928               0.001587838              -0.000517090               0.000000000               0.000000000               0.000000000               0.000000000              -0.003780721               0.003439850              -0.002165541              -0.001847748               0.001762520              -0.000085228               0.000000000               0.000000000               0.000000000               0.000000000              -0.003025026               0.004015774              -0.002056316              -0.001636353               0.001884028               0.000247675               0.000000000               0.000000000               0.000000000               0.000000000              -0.002364466               0.004418593              -0.001896828              -0.001438996               0.001952514               0.000513518               0.000000000               0.000000000               0.000000000               0.000000000              -0.001749359               0.004687863              -0.001726881              -0.001241990               0.001976602               0.000734612               0.000000000               0.000000000               0.000000000               0.000000000              -0.001160317               0.004862117              -0.001566335              -0.001042882               0.001968316               0.000925434               0.000000000               0.000000000               0.000000000               0.000000000              -0.000593544               0.004975493              -0.001423175              -0.000844514               0.001939985               0.001095471               0.000000000               0.000000000               0.000000000               0.000000000              -0.000043095               0.005042448              -0.001296520              -0.000646466               0.001896288               0.001249822               0.000000000               0.000000000               0.000000000               0.000000000               0.000496971               0.005070955              -0.001167701              -0.000447505               0.001839470               0.001391965               0.000000000               0.000000000               0.000000000               0.000000000               0.001027688               0.005078725              -0.001011651              -0.000249458               0.001776044               0.001526586               0.000000000               0.000000000               0.000000000               0.000000000               0.001541870               0.005078679              -0.000819026              -0.000056634               0.001711754               0.001655120               0.000000000               0.000000000               0.000000000               0.000000000               0.002024337               0.005062708              -0.000588323               0.000126287               0.001645457               0.001771743               0.000000000               0.000000000               0.000000000               0.000000000               0.002455277               0.005031779              -0.000314007               0.000291753               0.001579992               0.001871745               0.000000000               0.000000000               0.000000000               0.000000000               0.002710984               0.005038595              -0.000178018               0.000386791               0.001550585               0.001937375               0.000000000               0.000000000               0.000000000               0.000000000              -0.013062132              -0.001194180               0.001315538              -0.004749024               0.001184940              -0.003564084               0.000000000               0.000000000               0.000000000               0.000000000              -0.009217887              -0.000248984              -0.000012156              -0.003425582               0.001058859              -0.002366723               0.000000000               0.000000000               0.000000000               0.000000000              -0.006273772               0.000460912              -0.001248049              -0.002410276               0.000957056              -0.001453220               0.000000000               0.000000000               0.000000000               0.000000000              -0.004625646               0.001386674              -0.001647878              -0.001907949               0.001098199              -0.000809750               0.000000000               0.000000000               0.000000000               0.000000000              -0.003543075               0.002220628              -0.001716186              -0.001606229               0.001275610              -0.000330619               0.000000000               0.000000000               0.000000000               0.000000000              -0.002735442               0.002905868              -0.001656332              -0.001389021               0.001431619               0.000042598               0.000000000               0.000000000               0.000000000               0.000000000              -0.002064175               0.003451275              -0.001548084              -0.001205473               0.001552237               0.000346765               0.000000000               0.000000000               0.000000000               0.000000000              -0.001458701               0.003872854              -0.001423146              -0.001031118               0.001634644               0.000603526               0.000000000               0.000000000               0.000000000               0.000000000              -0.000884900               0.004190070              -0.001300276              -0.000855595               0.001681874               0.000826279               0.000000000               0.000000000               0.000000000               0.000000000              -0.000320039               0.004429743              -0.001191927              -0.000673731               0.001701143               0.001027412               0.000000000               0.000000000               0.000000000               0.000000000               0.000247521               0.004608264              -0.001099722              -0.000483212               0.001697143               0.001213931               0.000000000               0.000000000               0.000000000               0.000000000               0.000818566               0.004739495              -0.001001767              -0.000285475               0.001674974               0.001389499               0.000000000               0.000000000               0.000000000               0.000000000               0.001399185               0.004842089              -0.000880183              -0.000080567               0.001640869               0.001560302               0.000000000               0.000000000               0.000000000               0.000000000               0.002005026               0.004923851              -0.000730004               0.000136402               0.001595800               0.001732202               0.000000000               0.000000000               0.000000000               0.000000000               0.002633465               0.004974656              -0.000542519               0.000365714               0.001536297               0.001902011               0.000000000               0.000000000               0.000000000               0.000000000               0.003274826               0.004994462              -0.000299562               0.000603746               0.001463555               0.002067301               0.000000000               0.000000000               0.000000000               0.000000000               0.003716741               0.005042276              -0.000178199               0.000763486               0.001426247               0.002189732               0.000000000               0.000000000               0.000000000               0.000000000              -0.014255253              -0.001301864               0.000753659              -0.005182984               0.001293698              -0.003889286               0.000000000               0.000000000               0.000000000               0.000000000              -0.009891478              -0.000675019               0.000026017              -0.003624924               0.000983295              -0.002641629               0.000000000               0.000000000               0.000000000               0.000000000              -0.006433592              -0.000308077              -0.000662638              -0.002374086               0.000688665              -0.001685421               0.000000000               0.000000000               0.000000000               0.000000000              -0.004539900               0.000515349              -0.000901602              -0.001766880               0.000760737              -0.001006142               0.000000000               0.000000000               0.000000000               0.000000000              -0.003352169               0.001355704              -0.000953371              -0.001426524               0.000927403              -0.000499121               0.000000000               0.000000000               0.000000000               0.000000000              -0.002500546               0.002099646              -0.000930310              -0.001200158               0.001099927              -0.000100231               0.000000000               0.000000000               0.000000000               0.000000000              -0.001819445               0.002731461              -0.000878080              -0.001023722               0.001251718               0.000227996               0.000000000               0.000000000               0.000000000               0.000000000              -0.001216131               0.003251343              -0.000811997              -0.000862465               0.001371258               0.000508793               0.000000000               0.000000000               0.000000000               0.000000000              -0.000645927               0.003663400              -0.000744039              -0.000700146               0.001454503               0.000754357               0.000000000               0.000000000               0.000000000               0.000000000              -0.000082271               0.003984627              -0.000686525              -0.000528929               0.001504505               0.000975576               0.000000000               0.000000000               0.000000000               0.000000000               0.000485200               0.004240330              -0.000637722              -0.000348091               0.001529459               0.001181368               0.000000000               0.000000000               0.000000000               0.000000000               0.001069853               0.004453990              -0.000581476              -0.000155554               0.001536500               0.001380946               0.000000000               0.000000000               0.000000000               0.000000000               0.001692865               0.004637142              -0.000514808               0.000055181               0.001527305               0.001582485               0.000000000               0.000000000               0.000000000               0.000000000               0.002370780               0.004788284              -0.000435275               0.000290504               0.001499244               0.001789748               0.000000000               0.000000000               0.000000000               0.000000000               0.003114294               0.004899963              -0.000330126               0.000555359               0.001448185               0.002003544               0.000000000               0.000000000               0.000000000               0.000000000               0.003935826               0.004964928              -0.000185912               0.000855310               0.001369856               0.002225166               0.000000000               0.000000000               0.000000000               0.000000000               0.004546132               0.005047375              -0.000114698               0.001073867               0.001324486               0.002398353               0.000000000               0.000000000               0.000000000               0.000000000              -0.014675668              -0.001329440               0.000000000              -0.005337192               0.001335909              -0.004001284               0.000000000               0.000000000               0.000000000               0.000000000              -0.010128897              -0.000816257              -0.000000000              -0.003696302               0.000960008              -0.002736294               0.000000000               0.000000000               0.000000000               0.000000000              -0.006491534              -0.000574119              -0.000000000              -0.002362559               0.000596143              -0.001766416               0.000000000               0.000000000               0.000000000               0.000000000              -0.004504192               0.000204424               0.000000000              -0.001714624               0.000639678              -0.001074946               0.000000000               0.000000000               0.000000000               0.000000000              -0.003274738               0.001040920               0.000000000              -0.001358140               0.000799681              -0.000558459               0.000000000               0.000000000               0.000000000               0.000000000              -0.002406257               0.001806717              -0.000000000              -0.001128184               0.000978293              -0.000149890               0.000000000               0.000000000               0.000000000               0.000000000              -0.001721305               0.002469301              -0.000000000              -0.000954150               0.001141142               0.000186992               0.000000000               0.000000000               0.000000000               0.000000000              -0.001120890               0.003019628              -0.000000000              -0.000797785               0.001272461               0.000474676               0.000000000               0.000000000               0.000000000               0.000000000              -0.000549889               0.003460893               0.000000000              -0.000638819               0.001366559               0.000727740               0.000000000               0.000000000               0.000000000               0.000000000               0.000014358               0.003810800               0.000000000              -0.000470965               0.001427242               0.000956277               0.000000000               0.000000000               0.000000000               0.000000000               0.000578182               0.004098278              -0.000000000              -0.000295466               0.001464568               0.001169102               0.000000000               0.000000000               0.000000000               0.000000000               0.001165325               0.004343483               0.000000000              -0.000105939               0.001483126               0.001377188               0.000000000               0.000000000               0.000000000               0.000000000               0.001803384               0.004553017               0.000000000               0.000107141               0.001481943               0.001589084               0.000000000               0.000000000               0.000000000               0.000000000               0.002506308               0.004732900               0.000000000               0.000348249               0.001461534               0.001809784               0.000000000               0.000000000               0.000000000               0.000000000               0.003293143               0.004873671              -0.000000000               0.000625713               0.001415970               0.002041683               0.000000000               0.000000000               0.000000000               0.000000000               0.004188460               0.004955475              -0.000000000               0.000951229               0.001334732               0.002285961               0.000000000               0.000000000               0.000000000               0.000000000               0.004869302               0.005049991               0.000000000               0.001194727               0.001285071               0.002479798               0.000000000               0.000000000               0.000000000               0.000000000               0.000000000               0.000000000               0.000000000               0.000000000               0.000000000               0.000000000               0.000000000               0.000000000               0.000000000               0.000000000               0.000000000               0.000000000               0.000000000               0.000000000               0.000000000               0.000000000               0.000000000               0.000000000               0.000000000               0.000000000               0.000000000               0.000000000               0.000000000               0.000000000               0.000000000               0.000000000               0.000000000               0.000000000               0.000000000               0.000000000               0.000000000               0.000000000               0.000000000               0.000000000               0.000000000               0.000000000               0.000000000               0.000000000               0.000000000               0.000000000               0.000000000               0.000000000               0.000000000               0.000000000               0.000000000               0.000000000               0.000000000               0.000000000               0.000000000               0.000000000               0.000000000               0.000000000               0.000000000               0.000000000               0.000000000               0.000000000               0.000000000               0.000000000               0.000000000               0.000000000               0.000000000               0.000000000               0.000000000               0.000000000               0.000000000               0.000000000               0.000000000               0.000000000               0.000000000               0.000000000               0.000000000               0.000000000               0.000000000               0.000000000               0.000000000               0.000000000               0.000000000               0.000000000               0.000000000               0.000000000               0.000000000               0.000000000               0.000000000               0.000000000               0.000000000               0.000000000               0.000000000               0.000000000               0.000000000               0.000000000               0.000000000               0.000000000               0.000000000               0.000000000               0.000000000               0.000000000               0.000000000               0.000000000               0.000000000               0.000000000               0.000000000               0.000000000               0.000000000               0.000000000               0.000000000               0.000000000               0.000000000               0.000000000               0.000000000               0.000000000               0.000000000               0.000000000               0.000000000               0.000000000               0.000000000               0.000000000               0.000000000               0.000000000               0.000000000               0.000000000               0.000000000               0.000000000               0.000000000               0.000000000               0.000000000               0.000000000               0.000000000               0.000000000               0.000000000               0.000000000               0.000000000               0.000000000               0.000000000               0.000000000               0.000000000               0.000000000               0.000000000               0.000000000               0.000000000               0.000000000               0.000000000               0.000000000               0.000000000               0.000000000               0.000000000               0.000000000               0.000000000               0.000000000               0.000000000               0.000000000               0.000000000               0.000000000               0.000000000               0.000000000               0.000000000               0.000000000               0.000000000               0.000000000               0.000000000               0.000000000               0.000000000               0.000000000               0.000000000               0.000000000               0.000000000               0.000000000               0.000000000               0.000000000               0.000000000               0.000000000               0.002187901               0.021885813               0.001469043              -0.001915259               0.007933618               0.006018358               0.000000000               0.000000000               0.000000000               0.000000000               0.001968307               0.016774655               0.000638888              -0.001358713               0.006044400               0.004685687               0.000000000               0.000000000               0.000000000               0.000000000               0.002417157               0.012661231              -0.000180198              -0.000676219               0.004445774               0.003769556               0.000000000               0.000000000               0.000000000               0.000000000               0.002177832               0.010332698              -0.000516599              -0.000474899               0.003602498               0.003127599               0.000000000               0.000000000               0.000000000               0.000000000               0.001767610               0.008850171              -0.000641075              -0.000443417               0.003097833               0.002654416               0.000000000               0.000000000               0.000000000               0.000000000               0.001354315               0.007790776              -0.000670047              -0.000465978               0.002752225               0.002286247               0.000000000               0.000000000               0.000000000               0.000000000               0.000993518               0.006958312              -0.000661114              -0.000497219               0.002485153               0.001987935               0.000000000               0.000000000               0.000000000               0.000000000               0.000690662               0.006253082              -0.000635272              -0.000522636               0.002258552               0.001735916               0.000000000               0.000000000               0.000000000               0.000000000               0.000433662               0.005612372              -0.000602030              -0.000538922               0.002050413               0.001511490               0.000000000               0.000000000               0.000000000               0.000000000               0.000221729               0.005003485              -0.000567254              -0.000542286               0.001848574               0.001306287               0.000000000               0.000000000               0.000000000               0.000000000               0.000054577               0.004401988              -0.000527070              -0.000529781               0.001643908               0.001114127               0.000000000               0.000000000               0.000000000               0.000000000              -0.000065707               0.003790810              -0.000483359              -0.000498490               0.001429754               0.000931264               0.000000000               0.000000000               0.000000000               0.000000000              -0.000138959               0.003165104              -0.000438468              -0.000447747               0.001204273               0.000756526               0.000000000               0.000000000               0.000000000               0.000000000              -0.000170127               0.002513714              -0.000382585              -0.000378011               0.000963900               0.000585889               0.000000000               0.000000000               0.000000000               0.000000000              -0.000157377               0.001820230              -0.000300779              -0.000286545               0.000702252               0.000415707               0.000000000               0.000000000               0.000000000               0.000000000              -0.000093903               0.001067957              -0.000174657              -0.000168708               0.000412218               0.000243510               0.000000000               0.000000000               0.000000000               0.000000000              -0.000109432               0.000505621              -0.000109849              -0.000104239               0.000203285               0.000099045               0.000000000               0.000000000               0.000000000               0.000000000               0.002316361               0.020503967               0.002702012              -0.001694357               0.007399373               0.005705016               0.000000000               0.000000000               0.000000000               0.000000000               0.001752514               0.015913904               0.001163250              -0.001332042               0.005748596               0.004416553               0.000000000               0.000000000               0.000000000               0.000000000               0.001833375               0.012341965              -0.000335846              -0.000855228               0.004399023               0.003543795               0.000000000               0.000000000               0.000000000               0.000000000               0.001466358               0.010285162              -0.000925342              -0.000735760               0.003673606               0.002937847               0.000000000               0.000000000               0.000000000               0.000000000               0.001046552               0.008934803              -0.001132677              -0.000724392               0.003219702               0.002495310               0.000000000               0.000000000               0.000000000               0.000000000               0.000676082               0.007938961              -0.001172974              -0.000738838               0.002892573               0.002153735               0.000000000               0.000000000               0.000000000               0.000000000               0.000377798               0.007134013              -0.001148586              -0.000750076               0.002628006               0.001877930               0.000000000               0.000000000               0.000000000               0.000000000               0.000148709               0.006435861              -0.001097290              -0.000748715               0.002394837               0.001646122               0.000000000               0.000000000               0.000000000               0.000000000              -0.000026222               0.005796148              -0.001033926              -0.000734350               0.002176813               0.001442463               0.000000000               0.000000000               0.000000000               0.000000000              -0.000154627               0.005186432              -0.000967079              -0.000706288               0.001964223               0.001257935               0.000000000               0.000000000               0.000000000               0.000000000              -0.000243434               0.004594865              -0.000890711              -0.000665644               0.001753488               0.001087843               0.000000000               0.000000000               0.000000000               0.000000000              -0.000293971               0.004011764              -0.000809117              -0.000611709               0.001541144               0.000929436               0.000000000               0.000000000               0.000000000               0.000000000              -0.000301391               0.003431626              -0.000723640              -0.000541974               0.001324522               0.000782548               0.000000000               0.000000000               0.000000000               0.000000000              -0.000271013               0.002846913              -0.000616542              -0.000457493               0.001101459               0.000643966               0.000000000               0.000000000               0.000000000               0.000000000              -0.000205251               0.002257515              -0.000471019              -0.000359158               0.000872217               0.000513059               0.000000000               0.000000000               0.000000000               0.000000000              -0.000108781               0.001672714              -0.000266199              -0.000249881               0.000640859               0.000390978               0.000000000               0.000000000               0.000000000               0.000000000              -0.000096765               0.001271399              -0.000161474              -0.000195211               0.000488866               0.000293654               0.000000000               0.000000000               0.000000000               0.000000000               0.002393431               0.018400209               0.003534763              -0.001402488               0.006600837               0.005198349               0.000000000               0.000000000               0.000000000               0.000000000               0.001354630               0.014627268               0.001510158              -0.001320420               0.005315847               0.003995427               0.000000000               0.000000000               0.000000000               0.000000000               0.000931299               0.011867677              -0.000427749              -0.001134220               0.004333926               0.003199706               0.000000000               0.000000000               0.000000000               0.000000000               0.000423006               0.010192659              -0.001139948              -0.001115453               0.003769337               0.002653884               0.000000000               0.000000000               0.000000000               0.000000000               0.000024517               0.009016941              -0.001370057              -0.001117921               0.003378257               0.002260336               0.000000000               0.000000000               0.000000000               0.000000000              -0.000252552               0.008101679              -0.001399131              -0.001107415               0.003069671               0.001962256               0.000000000               0.000000000               0.000000000               0.000000000              -0.000435437               0.007333448              -0.001352829              -0.001079968               0.002804447               0.001724480               0.000000000               0.000000000               0.000000000               0.000000000              -0.000544933               0.006650340              -0.001279304              -0.001035640               0.002561971               0.001526331               0.000000000               0.000000000               0.000000000               0.000000000              -0.000601992               0.006017422              -0.001192925              -0.000977923               0.002331761               0.001353838               0.000000000               0.000000000               0.000000000               0.000000000              -0.000618046               0.005417110              -0.001104650              -0.000908904               0.002108653               0.001199749               0.000000000               0.000000000               0.000000000               0.000000000              -0.000598771               0.004845191              -0.001010461              -0.000830186               0.001891776               0.001061590               0.000000000               0.000000000               0.000000000               0.000000000              -0.000549381               0.004302012              -0.000906272              -0.000743768               0.001681912               0.000938144               0.000000000               0.000000000               0.000000000               0.000000000              -0.000470647               0.003782604              -0.000792554              -0.000649317               0.001477294               0.000827977               0.000000000               0.000000000               0.000000000               0.000000000              -0.000364007               0.003291478              -0.000656362              -0.000547936               0.001279794               0.000731857               0.000000000               0.000000000               0.000000000               0.000000000              -0.000240759               0.002841360              -0.000485705              -0.000445454               0.001095595               0.000650141               0.000000000               0.000000000               0.000000000               0.000000000              -0.000117848               0.002450419              -0.000266908              -0.000350495               0.000933630               0.000583135               0.000000000               0.000000000               0.000000000               0.000000000              -0.000080623               0.002219417              -0.000155178              -0.000307660               0.000842352               0.000534692               0.000000000               0.000000000               0.000000000               0.000000000               0.002284000               0.015830708               0.003891470              -0.001122339               0.005650962               0.004528623               0.000000000               0.000000000               0.000000000               0.000000000               0.000757313               0.013090175               0.001668422              -0.001352277               0.004814107               0.003461830               0.000000000               0.000000000               0.000000000               0.000000000              -0.000181380               0.011296399              -0.000416321              -0.001480064               0.004258783               0.002778719               0.000000000               0.000000000               0.000000000               0.000000000              -0.000769323               0.010035317              -0.001120500              -0.001542907               0.003859374               0.002316467               0.000000000               0.000000000               0.000000000               0.000000000              -0.001085256               0.009045852              -0.001322107              -0.001537699               0.003527820               0.001990121               0.000000000               0.000000000               0.000000000               0.000000000              -0.001223076               0.008211872              -0.001328095              -0.001485134               0.003232308               0.001747174               0.000000000               0.000000000               0.000000000               0.000000000              -0.001248118               0.007477977              -0.001266704              -0.001402788               0.002960230               0.001557442               0.000000000               0.000000000               0.000000000               0.000000000              -0.001202627               0.006810568              -0.001184765              -0.001302303               0.002704268               0.001401964               0.000000000               0.000000000               0.000000000               0.000000000              -0.001117793               0.006189362              -0.001094745              -0.001192840               0.002460713               0.001267873               0.000000000               0.000000000               0.000000000               0.000000000              -0.001005041               0.005609361              -0.001001609              -0.001078058               0.002229121               0.001151063               0.000000000               0.000000000               0.000000000               0.000000000              -0.000870872               0.005065891              -0.000906322              -0.000959811               0.002008550               0.001048739               0.000000000               0.000000000               0.000000000               0.000000000              -0.000718307               0.004570180              -0.000801529              -0.000840636               0.001803590               0.000962954               0.000000000               0.000000000               0.000000000               0.000000000              -0.000551135               0.004123753              -0.000682202              -0.000722143               0.001615285               0.000893142               0.000000000               0.000000000               0.000000000               0.000000000              -0.000382824               0.003729977              -0.000544390              -0.000609805               0.001446581               0.000836777               0.000000000               0.000000000               0.000000000               0.000000000              -0.000228641               0.003405440              -0.000382740              -0.000511419               0.001305608               0.000794189               0.000000000               0.000000000               0.000000000               0.000000000              -0.000103827               0.003171234              -0.000198812              -0.000435338               0.001202180               0.000766842               0.000000000               0.000000000               0.000000000               0.000000000              -0.000057517               0.003066311              -0.000106985              -0.000404857               0.001157046               0.000752189               0.000000000               0.000000000               0.000000000               0.000000000               0.001870019               0.013070314               0.003782762              -0.000932533               0.004667571               0.003735038               0.000000000               0.000000000               0.000000000               0.000000000              -0.000029227               0.011472010               0.001667846              -0.001444959               0.004305618               0.002860659               0.000000000               0.000000000               0.000000000               0.000000000              -0.001371680               0.010668917              -0.000276940              -0.001847990               0.004172267               0.002324277               0.000000000               0.000000000               0.000000000               0.000000000              -0.001928421               0.009793393              -0.000874234              -0.001947327               0.003913541               0.001966213               0.000000000               0.000000000               0.000000000               0.000000000              -0.002087530               0.008966378              -0.001026015              -0.001903616               0.003623301               0.001719685               0.000000000               0.000000000               0.000000000               0.000000000              -0.002043991               0.008206358              -0.001019125              -0.001792287               0.003332854               0.001540567               0.000000000               0.000000000               0.000000000               0.000000000              -0.001889569               0.007512960              -0.000962116              -0.001647704               0.003053530               0.001405825               0.000000000               0.000000000               0.000000000               0.000000000              -0.001680225               0.006866584              -0.000892981              -0.001488404               0.002784973               0.001296569               0.000000000               0.000000000               0.000000000               0.000000000              -0.001453860               0.006266014              -0.000817164              -0.001328446               0.002531466               0.001203019               0.000000000               0.000000000               0.000000000               0.000000000              -0.001220857               0.005709260              -0.000736846              -0.001171476               0.002293560               0.001122084               0.000000000               0.000000000               0.000000000               0.000000000              -0.000980380               0.005201845              -0.000657601              -0.001017871               0.002073221               0.001055350               0.000000000               0.000000000               0.000000000               0.000000000              -0.000743110               0.004757040              -0.000570269              -0.000873294               0.001876762               0.001003468               0.000000000               0.000000000               0.000000000               0.000000000              -0.000520337               0.004375550              -0.000462805              -0.000742068               0.001705858               0.000963790               0.000000000               0.000000000               0.000000000               0.000000000              -0.000326517               0.004062961              -0.000343183              -0.000630313               0.001564411               0.000934098               0.000000000               0.000000000               0.000000000               0.000000000              -0.000172579               0.003834243              -0.000219838              -0.000543996               0.001459400               0.000915404               0.000000000               0.000000000               0.000000000               0.000000000              -0.000066605               0.003704976              -0.000102434              -0.000488098               0.001397679               0.000909581               0.000000000               0.000000000               0.000000000               0.000000000              -0.000026191               0.003671524              -0.000047224              -0.000468761               0.001380083               0.000911322               0.000000000               0.000000000               0.000000000               0.000000000               0.001079111               0.010360753               0.003294009              -0.000890428               0.003750358               0.002859930               0.000000000               0.000000000               0.000000000               0.000000000              -0.000967084               0.009906582               0.001568922              -0.001600976               0.003835819               0.002234843               0.000000000               0.000000000               0.000000000               0.000000000              -0.002511310               0.010004199              -0.000000904              -0.002192261               0.004065453               0.001873193               0.000000000               0.000000000               0.000000000               0.000000000              -0.002907121               0.009444842              -0.000446491              -0.002270770               0.003905172               0.001634403               0.000000000               0.000000000               0.000000000               0.000000000              -0.002847242               0.008750231              -0.000564392              -0.002161489               0.003637211               0.001475721               0.000000000               0.000000000               0.000000000               0.000000000              -0.002593059               0.008064284              -0.000570955              -0.001980428               0.003348210               0.001367782               0.000000000               0.000000000               0.000000000               0.000000000              -0.002259895               0.007412740              -0.000538687              -0.001774049               0.003062238               0.001288189               0.000000000               0.000000000               0.000000000               0.000000000              -0.001907161               0.006794814              -0.000498476              -0.001564533               0.002786426               0.001221893               0.000000000               0.000000000               0.000000000               0.000000000              -0.001559437               0.006224707              -0.000455318              -0.001362874               0.002529173               0.001166299               0.000000000               0.000000000               0.000000000               0.000000000              -0.001229256               0.005702946              -0.000403534              -0.001173836               0.002292242               0.001118405               0.000000000               0.000000000               0.000000000               0.000000000              -0.000920174               0.005239697              -0.000352544              -0.001000025               0.002079890               0.001079865               0.000000000               0.000000000               0.000000000               0.000000000              -0.000637968               0.004845616              -0.000295440              -0.000844938               0.001896835               0.001051897               0.000000000               0.000000000               0.000000000               0.000000000              -0.000395177               0.004526278              -0.000221018              -0.000713975               0.001746736               0.001032761               0.000000000               0.000000000               0.000000000               0.000000000              -0.000205853               0.004291844              -0.000143473              -0.000613674               0.001635159               0.001021484               0.000000000               0.000000000               0.000000000               0.000000000              -0.000079858               0.004149364              -0.000074928              -0.000548616               0.001565980               0.001017364               0.000000000               0.000000000               0.000000000               0.000000000              -0.000017142               0.004096356              -0.000025385              -0.000518471               0.001538262               0.001019791               0.000000000               0.000000000               0.000000000               0.000000000               0.000002885               0.004101899              -0.000004112              -0.000511654               0.001537837               0.001026183               0.000000000               0.000000000               0.000000000               0.000000000              -0.000045757               0.007866139               0.002544812              -0.001000425               0.002955494               0.001955069               0.000000000               0.000000000               0.000000000               0.000000000              -0.001993318               0.008479360               0.001432681              -0.001807411               0.003428895               0.001621484               0.000000000               0.000000000               0.000000000               0.000000000              -0.003484561               0.009299781               0.000398270              -0.002469177               0.003922955               0.001453778               0.000000000               0.000000000               0.000000000               0.000000000              -0.003609584               0.008984054               0.000085147              -0.002476594               0.003820186               0.001343592               0.000000000               0.000000000               0.000000000               0.000000000              -0.003298932               0.008411899              -0.000033658              -0.002288581               0.003566799               0.001278217               0.000000000               0.000000000               0.000000000               0.000000000              -0.002843610               0.007795748              -0.000077859              -0.002040817               0.003278829               0.001238012               0.000000000               0.000000000               0.000000000               0.000000000              -0.002352402               0.007185176              -0.000092201              -0.001780293               0.002988466               0.001208173               0.000000000               0.000000000               0.000000000               0.000000000              -0.001880320               0.006609563              -0.000098642              -0.001531311               0.002713603               0.001182291               0.000000000               0.000000000               0.000000000               0.000000000              -0.001445713               0.006076409              -0.000100740              -0.001301690               0.002459346               0.001157656               0.000000000               0.000000000               0.000000000               0.000000000              -0.001054988               0.005597176              -0.000089232              -0.001095265               0.002230795               0.001135530               0.000000000               0.000000000               0.000000000               0.000000000              -0.000715001               0.005190016              -0.000073752              -0.000916875               0.002035613               0.001118738               0.000000000               0.000000000               0.000000000               0.000000000              -0.000424713               0.004858848              -0.000057772              -0.000766622               0.001875140               0.001108519               0.000000000               0.000000000               0.000000000               0.000000000              -0.000195971               0.004616568              -0.000032315              -0.000650559               0.001755693               0.001105135               0.000000000               0.000000000               0.000000000               0.000000000              -0.000041919               0.004472994              -0.000007788              -0.000574842               0.001682597               0.001107755               0.000000000               0.000000000               0.000000000               0.000000000               0.000032664               0.004422643               0.000007349              -0.000540580               0.001654393               0.001113813               0.000000000               0.000000000               0.000000000               0.000000000               0.000038852               0.004441602               0.000011134              -0.000540630               0.001660729               0.001120099               0.000000000               0.000000000               0.000000000               0.000000000               0.000031862               0.004479782               0.000013855              -0.000548023               0.001675920               0.001127897               0.000000000               0.000000000               0.000000000               0.000000000              -0.001359819               0.005765345               0.001655779              -0.001230598               0.002331961               0.001101363               0.000000000               0.000000000               0.000000000               0.000000000              -0.002995401               0.007196590               0.001295937              -0.002022845               0.003073121               0.001050276               0.000000000               0.000000000               0.000000000               0.000000000              -0.004249580               0.008573105               0.000877912              -0.002665224               0.003746081               0.001080857               0.000000000               0.000000000               0.000000000               0.000000000              -0.004090837               0.008509889               0.000644484              -0.002597793               0.003702532               0.001104739               0.000000000               0.000000000               0.000000000               0.000000000              -0.003569824               0.008085867               0.000498519              -0.002349412               0.003478399               0.001128988               0.000000000               0.000000000               0.000000000               0.000000000              -0.002954537               0.007559337               0.000399733              -0.002052863               0.003204042               0.001151178               0.000000000               0.000000000               0.000000000               0.000000000              -0.002340823               0.007014114               0.000324617              -0.001754569               0.002922871               0.001168302               0.000000000               0.000000000               0.000000000               0.000000000              -0.001775769               0.006490221               0.000265651              -0.001477187               0.002655781               0.001178594               0.000000000               0.000000000               0.000000000               0.000000000              -0.001280036               0.005994294               0.000219962              -0.001229297               0.002407844               0.001178547               0.000000000               0.000000000               0.000000000               0.000000000              -0.000846025               0.005555854               0.000187190              -0.001011739               0.002189179               0.001177441               0.000000000               0.000000000               0.000000000               0.000000000              -0.000477070               0.005192920               0.000158040              -0.000828014               0.002006961               0.001178947               0.000000000               0.000000000               0.000000000               0.000000000              -0.000182632               0.004908897               0.000124564              -0.000682097               0.001863648               0.001181551               0.000000000               0.000000000               0.000000000               0.000000000               0.000023274               0.004721107               0.000092357              -0.000581409               0.001767490               0.001186080               0.000000000               0.000000000               0.000000000               0.000000000               0.000135946               0.004641811               0.000062865              -0.000529245               0.001723670               0.001194425               0.000000000               0.000000000               0.000000000               0.000000000               0.000167046               0.004653578               0.000037271              -0.000519054               0.001724195               0.001205142               0.000000000               0.000000000               0.000000000               0.000000000               0.000142777               0.004725737               0.000016940              -0.000537175               0.001754288               0.001217114               0.000000000               0.000000000               0.000000000               0.000000000               0.000114944               0.004779318               0.000007508              -0.000554309               0.001777860               0.001223550               0.000000000               0.000000000               0.000000000               0.000000000              -0.002871002               0.003824330               0.000732154              -0.001554664               0.001792985               0.000238321               0.000000000               0.000000000               0.000000000               0.000000000              -0.003848858               0.005696391               0.001147809              -0.002155365               0.002617233               0.000461867               0.000000000               0.000000000               0.000000000               0.000000000              -0.004725796               0.007474458               0.001377351              -0.002706474               0.003393619               0.000687145               0.000000000               0.000000000               0.000000000               0.000000000              -0.004409341               0.007791148               0.001228234              -0.002627390               0.003472820               0.000845430               0.000000000               0.000000000               0.000000000               0.000000000              -0.003804776               0.007636343               0.001052661              -0.002381328               0.003339198               0.000957870               0.000000000               0.000000000               0.000000000               0.000000000              -0.003134592               0.007312539               0.000897252              -0.002089534               0.003134000               0.001044466               0.000000000               0.000000000               0.000000000               0.000000000              -0.002481418               0.006920149               0.000761044              -0.001795546               0.002905208               0.001109662               0.000000000               0.000000000               0.000000000               0.000000000              -0.001877888               0.006506908               0.000649096              -0.001517568               0.002674803               0.001157236               0.000000000               0.000000000               0.000000000               0.000000000              -0.001342295               0.006098662               0.000557976              -0.001265690               0.002454764               0.001189073               0.000000000               0.000000000               0.000000000               0.000000000              -0.000871204               0.005726002               0.000482338              -0.001042449               0.002256131               0.001213682               0.000000000               0.000000000               0.000000000               0.000000000              -0.000469303               0.005398450               0.000408846              -0.000850793               0.002083063               0.001232270               0.000000000               0.000000000               0.000000000               0.000000000              -0.000140110               0.005130547               0.000329458              -0.000693858               0.001941451               0.001247593               0.000000000               0.000000000               0.000000000               0.000000000               0.000106078               0.004939423               0.000243374              -0.000577647               0.001839007               0.001261360               0.000000000               0.000000000               0.000000000               0.000000000               0.000259151               0.004837505               0.000160735              -0.000507505               0.001781654               0.001274148               0.000000000               0.000000000               0.000000000               0.000000000               0.000323906               0.004821396               0.000091557              -0.000481209               0.001767519               0.001286310               0.000000000               0.000000000               0.000000000               0.000000000               0.000320734               0.004883646               0.000037634              -0.000490179               0.001791259               0.001301080               0.000000000               0.000000000               0.000000000               0.000000000               0.000286328               0.004921189               0.000007764              -0.000507774               0.001809638               0.001301864               0.000000000               0.000000000               0.000000000               0.000000000              -0.004766493               0.002072902              -0.000150861              -0.002046544               0.001373140              -0.000673405               0.000000000               0.000000000               0.000000000               0.000000000              -0.004806568               0.004173956               0.000941041              -0.002324203               0.002166038              -0.000158165               0.000000000               0.000000000               0.000000000               0.000000000              -0.005125382               0.006155788               0.001777104              -0.002691485               0.002949070               0.000257585               0.000000000               0.000000000               0.000000000               0.000000000              -0.004672467               0.006833322               0.001779554              -0.002606334               0.003146529               0.000540195               0.000000000               0.000000000               0.000000000               0.000000000              -0.004020683               0.006987862               0.001607248              -0.002381233               0.003123008               0.000741775               0.000000000               0.000000000               0.000000000               0.000000000              -0.003333661               0.006905279               0.001413754              -0.002113278               0.003006162               0.000892885               0.000000000               0.000000000               0.000000000               0.000000000              -0.002657753               0.006702131               0.001230879              -0.001834419               0.002845494               0.001011075               0.000000000               0.000000000               0.000000000               0.000000000              -0.002028750               0.006434769               0.001070463              -0.001565124               0.002666609               0.001101485               0.000000000               0.000000000               0.000000000               0.000000000              -0.001459768               0.006143124               0.000936185              -0.001315300               0.002486121               0.001170821               0.000000000               0.000000000               0.000000000               0.000000000              -0.000951047               0.005855129               0.000820370              -0.001088531               0.002314534               0.001226003               0.000000000               0.000000000               0.000000000               0.000000000              -0.000498732               0.005591219               0.000710632              -0.000885925               0.002159029               0.001273104               0.000000000               0.000000000               0.000000000               0.000000000              -0.000107666               0.005356124               0.000595263              -0.000709889               0.002021986               0.001312098               0.000000000               0.000000000               0.000000000               0.000000000               0.000207199               0.005161077               0.000467317              -0.000567434               0.001909487               0.001342053               0.000000000               0.000000000               0.000000000               0.000000000               0.000438012               0.005025976               0.000335216              -0.000463992               0.001829973               0.001365981               0.000000000               0.000000000               0.000000000               0.000000000               0.000572562               0.004957695               0.000207218              -0.000405000               0.001787549               0.001382548               0.000000000               0.000000000               0.000000000               0.000000000               0.000609593               0.004955562               0.000093021              -0.000390847               0.001782120               0.001391273               0.000000000               0.000000000               0.000000000               0.000000000               0.000580775               0.004952778               0.000033134              -0.000401306               0.001784678               0.001383372               0.000000000               0.000000000               0.000000000               0.000000000              -0.006905875               0.000668509              -0.000901999              -0.002673264               0.001113917              -0.001559348               0.000000000               0.000000000               0.000000000               0.000000000              -0.005902956               0.002741788               0.000670993              -0.002556328               0.001766026              -0.000790301               0.000000000               0.000000000               0.000000000               0.000000000              -0.005466928               0.004647916               0.001975514              -0.002631082               0.002426315              -0.000204766               0.000000000               0.000000000               0.000000000               0.000000000              -0.004795544               0.005572558               0.002166550              -0.002494893               0.002689131               0.000194238               0.000000000               0.000000000               0.000000000               0.000000000              -0.004082461               0.006007595               0.002046095              -0.002281867               0.002763133               0.000481266               0.000000000               0.000000000               0.000000000               0.000000000              -0.003383941               0.006176685               0.001851179              -0.002041059               0.002739227               0.000698168               0.000000000               0.000000000               0.000000000               0.000000000              -0.002704531               0.006184773               0.001650459              -0.001787292               0.002657334               0.000870042               0.000000000               0.000000000               0.000000000               0.000000000              -0.002066265               0.006093600               0.001459744              -0.001536546               0.002543361               0.001006815               0.000000000               0.000000000               0.000000000               0.000000000              -0.001478816               0.005948049               0.001292185              -0.001298059               0.002415349               0.001117290               0.000000000               0.000000000               0.000000000               0.000000000              -0.000941975               0.005776419               0.001147488              -0.001075291               0.002283884               0.001208593               0.000000000               0.000000000               0.000000000               0.000000000              -0.000446819               0.005603260               0.001015676              -0.000867963               0.002157056               0.001289093               0.000000000               0.000000000               0.000000000               0.000000000               0.000004055               0.005437984               0.000873606              -0.000678226               0.002038718               0.001360492               0.000000000               0.000000000               0.000000000               0.000000000               0.000396884               0.005285572               0.000715597              -0.000511864               0.001932461               0.001420597               0.000000000               0.000000000               0.000000000               0.000000000               0.000713558               0.005149911               0.000545759              -0.000376154               0.001842004               0.001465851               0.000000000               0.000000000               0.000000000               0.000000000               0.000937770               0.005056073               0.000363146              -0.000280345               0.001778789               0.001498444               0.000000000               0.000000000               0.000000000               0.000000000               0.001050700               0.005011109               0.000177309              -0.000232376               0.001747811               0.001515436               0.000000000               0.000000000               0.000000000               0.000000000               0.001062497               0.004990419               0.000082695              -0.000225365               0.001738578               0.001513213               0.000000000               0.000000000               0.000000000               0.000000000              -0.009141615              -0.000310750              -0.001401183              -0.003389259               0.001026162              -0.002363097               0.000000000               0.000000000               0.000000000               0.000000000              -0.007072153               0.001485665               0.000385245              -0.002837762               0.001441132              -0.001396629               0.000000000               0.000000000               0.000000000               0.000000000              -0.005772749               0.003086765               0.001945856              -0.002550622               0.001879116              -0.000671506               0.000000000               0.000000000               0.000000000               0.000000000              -0.004801112               0.004122334               0.002301898              -0.002315704               0.002145998              -0.000169707               0.000000000               0.000000000               0.000000000               0.000000000              -0.003990094               0.004771331               0.002262580              -0.002092697               0.002287992               0.000195295               0.000000000               0.000000000               0.000000000               0.000000000              -0.003270072               0.005172596               0.002102415              -0.001872847               0.002348463               0.000475616               0.000000000               0.000000000               0.000000000               0.000000000              -0.002602844               0.005394841               0.001908540              -0.001650418               0.002348401               0.000697983               0.000000000               0.000000000               0.000000000               0.000000000              -0.001972131               0.005486299               0.001713849              -0.001425334               0.002303859               0.000878525               0.000000000               0.000000000               0.000000000               0.000000000              -0.001376981               0.005498473               0.001536686              -0.001203675               0.002234030               0.001030356               0.000000000               0.000000000               0.000000000               0.000000000              -0.000817916               0.005466843               0.001381848              -0.000990072               0.002152286               0.001162214               0.000000000               0.000000000               0.000000000               0.000000000              -0.000292586               0.005407147               0.001241590              -0.000785612               0.002064235               0.001278623               0.000000000               0.000000000               0.000000000               0.000000000               0.000206300               0.005332971               0.001093791              -0.000589258               0.001974058               0.001384800               0.000000000               0.000000000               0.000000000               0.000000000               0.000677146               0.005252184               0.000924733              -0.000402593               0.001884908               0.001482315               0.000000000               0.000000000               0.000000000               0.000000000               0.001094542               0.005168121               0.000730775              -0.000235562               0.001801210               0.001565648               0.000000000               0.000000000               0.000000000               0.000000000               0.001437114               0.005094728               0.000507116              -0.000097923               0.001730867               0.001632944               0.000000000               0.000000000               0.000000000               0.000000000               0.001681480               0.005039100               0.000260373               0.000000667               0.001679461               0.001680128               0.000000000               0.000000000               0.000000000               0.000000000               0.001787905               0.005022674               0.000138648               0.000042629               0.001659998               0.001702627               0.000000000               0.000000000               0.000000000               0.000000000              -0.011276288              -0.000904471              -0.001548078              -0.004115546               0.001070351              -0.003045196               0.000000000               0.000000000               0.000000000               0.000000000              -0.008223504               0.000474055               0.000150227              -0.003143068               0.001205699              -0.001937369               0.000000000               0.000000000               0.000000000               0.000000000              -0.006043646               0.001638901               0.001690775              -0.002471226               0.001370032              -0.001101194               0.000000000               0.000000000               0.000000000               0.000000000              -0.004726944               0.002658621               0.002130711              -0.002104928               0.001587838              -0.000517090               0.000000000               0.000000000               0.000000000               0.000000000              -0.003780721               0.003439850               0.002165541              -0.001847748               0.001762520              -0.000085228               0.000000000               0.000000000               0.000000000               0.000000000              -0.003025026               0.004015774               0.002056316              -0.001636353               0.001884028               0.000247675               0.000000000               0.000000000               0.000000000               0.000000000              -0.002364466               0.004418593               0.001896828              -0.001438996               0.001952514               0.000513518               0.000000000               0.000000000               0.000000000               0.000000000              -0.001749359               0.004687863               0.001726881              -0.001241990               0.001976602               0.000734612               0.000000000               0.000000000               0.000000000               0.000000000              -0.001160317               0.004862117               0.001566335              -0.001042882               0.001968316               0.000925434               0.000000000               0.000000000               0.000000000               0.000000000              -0.000593544               0.004975493               0.001423175              -0.000844514               0.001939985               0.001095471               0.000000000               0.000000000               0.000000000               0.000000000              -0.000043095               0.005042448               0.001296520              -0.000646466               0.001896288               0.001249822               0.000000000               0.000000000               0.000000000               0.000000000               0.000496971               0.005070955               0.001167701              -0.000447505               0.001839470               0.001391965               0.000000000               0.000000000               0.000000000               0.000000000               0.001027688               0.005078725               0.001011651              -0.000249458               0.001776044               0.001526586               0.000000000               0.000000000               0.000000000               0.000000000               0.001541870               0.005078679               0.000819026              -0.000056634               0.001711754               0.001655120               0.000000000               0.000000000               0.000000000               0.000000000               0.002024337               0.005062708               0.000588323               0.000126287               0.001645457               0.001771743               0.000000000               0.000000000               0.000000000               0.000000000               0.002455277               0.005031779               0.000314007               0.000291753               0.001579992               0.001871745               0.000000000               0.000000000               0.000000000               0.000000000               0.002710984               0.005038595               0.000178018               0.000386791               0.001550585               0.001937375               0.000000000               0.000000000               0.000000000               0.000000000              -0.013062132              -0.001194180              -0.001315538              -0.004749024               0.001184940              -0.003564084               0.000000000               0.000000000               0.000000000               0.000000000              -0.009217887              -0.000248984               0.000012156              -0.003425582               0.001058859              -0.002366723               0.000000000               0.000000000               0.000000000               0.000000000              -0.006273772               0.000460912               0.001248049              -0.002410276               0.000957056              -0.001453220               0.000000000               0.000000000               0.000000000               0.000000000              -0.004625646               0.001386674               0.001647878              -0.001907949               0.001098199              -0.000809750               0.000000000               0.000000000               0.000000000               0.000000000              -0.003543075               0.002220628               0.001716186              -0.001606229               0.001275610              -0.000330619               0.000000000               0.000000000               0.000000000               0.000000000              -0.002735442               0.002905868               0.001656332              -0.001389021               0.001431619               0.000042598               0.000000000               0.000000000               0.000000000               0.000000000              -0.002064175               0.003451275               0.001548084              -0.001205473               0.001552237               0.000346765               0.000000000               0.000000000               0.000000000               0.000000000              -0.001458701               0.003872854               0.001423146              -0.001031118               0.001634644               0.000603526               0.000000000               0.000000000               0.000000000               0.000000000              -0.000884900               0.004190070               0.001300276              -0.000855595               0.001681874               0.000826279               0.000000000               0.000000000               0.000000000               0.000000000              -0.000320039               0.004429743               0.001191927              -0.000673731               0.001701143               0.001027412               0.000000000               0.000000000               0.000000000               0.000000000               0.000247521               0.004608264               0.001099722              -0.000483212               0.001697143               0.001213931               0.000000000               0.000000000               0.000000000               0.000000000               0.000818566               0.004739495               0.001001767              -0.000285475               0.001674974               0.001389499               0.000000000               0.000000000               0.000000000               0.000000000               0.001399185               0.004842089               0.000880183              -0.000080567               0.001640869               0.001560302               0.000000000               0.000000000               0.000000000               0.000000000               0.002005026               0.004923851               0.000730004               0.000136402               0.001595800               0.001732202               0.000000000               0.000000000               0.000000000               0.000000000               0.002633465               0.004974656               0.000542519               0.000365714               0.001536297               0.001902011               0.000000000               0.000000000               0.000000000               0.000000000               0.003274826               0.004994462               0.000299562               0.000603746               0.001463555               0.002067301               0.000000000               0.000000000               0.000000000               0.000000000               0.003716741               0.005042276               0.000178199               0.000763486               0.001426247               0.002189732               0.000000000               0.000000000               0.000000000               0.000000000              -0.014255253              -0.001301864              -0.000753659              -0.005182984               0.001293698              -0.003889286               0.000000000               0.000000000               0.000000000               0.000000000              -0.009891478              -0.000675019              -0.000026017              -0.003624924               0.000983295              -0.002641629               0.000000000               0.000000000               0.000000000               0.000000000              -0.006433592              -0.000308077               0.000662638              -0.002374086               0.000688665              -0.001685421               0.000000000               0.000000000               0.000000000               0.000000000              -0.004539900               0.000515349               0.000901602              -0.001766880               0.000760737              -0.001006142               0.000000000               0.000000000               0.000000000               0.000000000              -0.003352169               0.001355704               0.000953371              -0.001426524               0.000927403              -0.000499121               0.000000000               0.000000000               0.000000000               0.000000000              -0.002500546               0.002099646               0.000930310              -0.001200158               0.001099927              -0.000100231               0.000000000               0.000000000               0.000000000               0.000000000              -0.001819445               0.002731461               0.000878080              -0.001023722               0.001251718               0.000227996               0.000000000               0.000000000               0.000000000               0.000000000              -0.001216131               0.003251343               0.000811997              -0.000862465               0.001371258               0.000508793               0.000000000               0.000000000               0.000000000               0.000000000              -0.000645927               0.003663400               0.000744039              -0.000700146               0.001454503               0.000754357               0.000000000               0.000000000               0.000000000               0.000000000              -0.000082271               0.003984627               0.000686525              -0.000528929               0.001504505               0.000975576               0.000000000               0.000000000               0.000000000               0.000000000               0.000485200               0.004240330               0.000637722              -0.000348091               0.001529459               0.001181368               0.000000000               0.000000000               0.000000000               0.000000000               0.001069853               0.004453990               0.000581476              -0.000155554               0.001536500               0.001380946               0.000000000               0.000000000               0.000000000               0.000000000               0.001692865               0.004637142               0.000514808               0.000055181               0.001527305               0.001582485               0.000000000               0.000000000               0.000000000               0.000000000               0.002370780               0.004788284               0.000435275               0.000290504               0.001499244               0.001789748               0.000000000               0.000000000               0.000000000               0.000000000               0.003114294               0.004899963               0.000330126               0.000555359               0.001448185               0.002003544               0.000000000               0.000000000               0.000000000               0.000000000               0.003935826               0.004964928               0.000185912               0.000855310               0.001369856               0.002225166               0.000000000               0.000000000               0.000000000               0.000000000               0.004546132               0.005047375               0.000114698               0.001073867               0.001324486               0.002398353               0.000000000               0.000000000               0.000000000               0.000000000              -0.014675668              -0.001329440               0.000000000              -0.005337192               0.001335909              -0.004001284               0.000000000               0.000000000               0.000000000               0.000000000              -0.010128897              -0.000816257               0.000000000              -0.003696302               0.000960008              -0.002736294               0.000000000               0.000000000               0.000000000               0.000000000              -0.006491534              -0.000574119               0.000000000              -0.002362559               0.000596143              -0.001766416               0.000000000               0.000000000               0.000000000               0.000000000              -0.004504192               0.000204424               0.000000000              -0.001714624               0.000639678              -0.001074946               0.000000000               0.000000000               0.000000000               0.000000000              -0.003274738               0.001040920              -0.000000000              -0.001358140               0.000799681              -0.000558459               0.000000000               0.000000000               0.000000000               0.000000000              -0.002406257               0.001806717               0.000000000              -0.001128184               0.000978293              -0.000149890               0.000000000               0.000000000               0.000000000               0.000000000              -0.001721305               0.002469301               0.000000000              -0.000954150               0.001141142               0.000186992               0.000000000               0.000000000               0.000000000               0.000000000              -0.001120890               0.003019628              -0.000000000              -0.000797785               0.001272461               0.000474676               0.000000000               0.000000000               0.000000000               0.000000000              -0.000549889               0.003460893               0.000000000              -0.000638819               0.001366559               0.000727740               0.000000000               0.000000000               0.000000000               0.000000000               0.000014358               0.003810800              -0.000000000              -0.000470965               0.001427242               0.000956277               0.000000000               0.000000000               0.000000000               0.000000000               0.000578182               0.004098278               0.000000000              -0.000295466               0.001464568               0.001169102               0.000000000               0.000000000               0.000000000               0.000000000               0.001165325               0.004343483               0.000000000              -0.000105939               0.001483126               0.001377188               0.000000000               0.000000000               0.000000000               0.000000000               0.001803384               0.004553017              -0.000000000               0.000107141               0.001481943               0.001589084               0.000000000               0.000000000               0.000000000               0.000000000               0.002506308               0.004732900               0.000000000               0.000348249               0.001461534               0.001809784               0.000000000               0.000000000               0.000000000               0.000000000               0.003293143               0.004873671              -0.000000000               0.000625713               0.001415970               0.002041683               0.000000000               0.000000000               0.000000000               0.000000000               0.004188460               0.004955475              -0.000000000               0.000951229               0.001334732               0.002285961               0.000000000               0.000000000               0.000000000               0.000000000               0.004869302               0.005049991              -0.000000000               0.001194727               0.001285071               0.002479798               0.000000000               0.000000000               0.000000000               0.000000000               0.002127573               0.022367250               0.000000000              -0.001998061               0.008121696               0.006123634               0.000000000               0.000000000               0.000000000               0.000000000               0.002033536               0.017077500              -0.000000000              -0.001372108               0.006149813               0.004777704               0.000000000               0.000000000               0.000000000               0.000000000               0.002616371               0.012774052              -0.000000000              -0.000615616               0.004463180               0.003847564               0.000000000               0.000000000               0.000000000               0.000000000               0.002428688               0.010348987              -0.000000000              -0.000382864               0.003577249               0.003194385               0.000000000               0.000000000               0.000000000               0.000000000               0.002028675               0.008814865               0.000000000              -0.000341104               0.003051960               0.002710856               0.000000000               0.000000000               0.000000000               0.000000000               0.001605493               0.007729154              -0.000000000              -0.000364083               0.002697720               0.002333637               0.000000000               0.000000000               0.000000000               0.000000000               0.001225631               0.006887032               0.000000000              -0.000401267               0.002429410               0.002028143               0.000000000               0.000000000               0.000000000               0.000000000               0.000896978               0.006182396               0.000000000              -0.000436432               0.002206255               0.001769824               0.000000000               0.000000000               0.000000000               0.000000000               0.000608334               0.005544386              -0.000000000              -0.000464922               0.002003084               0.001538162               0.000000000               0.000000000               0.000000000               0.000000000               0.000363845               0.004935864              -0.000000000              -0.000480540               0.001805451               0.001324911               0.000000000               0.000000000               0.000000000               0.000000000               0.000169564               0.004332998               0.000000000              -0.000478037               0.001603664               0.001125627               0.000000000               0.000000000               0.000000000               0.000000000               0.000025901               0.003713257              -0.000000000              -0.000454443               0.001389221               0.000934778               0.000000000               0.000000000               0.000000000               0.000000000              -0.000070145               0.003069146               0.000000000              -0.000409947               0.001159687               0.000749741               0.000000000               0.000000000               0.000000000               0.000000000              -0.000125064               0.002390142               0.000000000              -0.000345666               0.000911928               0.000566262               0.000000000               0.000000000               0.000000000               0.000000000              -0.000138238               0.001656481              -0.000000000              -0.000258899               0.000638454               0.000379556               0.000000000               0.000000000               0.000000000               0.000000000              -0.000089161               0.000837768               0.000000000              -0.000138156               0.000325305               0.000187149               0.000000000               0.000000000               0.000000000               0.000000000              -0.000113914               0.000208161               0.000000000              -0.000068738               0.000092299               0.000023561               0.000000000               0.000000000               0.000000000               0.000000000               0.002187901               0.021885813              -0.001469043              -0.001915259               0.007933618               0.006018358               0.000000000               0.000000000               0.000000000               0.000000000               0.001968307               0.016774655              -0.000638888              -0.001358713               0.006044400               0.004685687               0.000000000               0.000000000               0.000000000               0.000000000               0.002417157               0.012661231               0.000180198              -0.000676219               0.004445774               0.003769556               0.000000000               0.000000000               0.000000000               0.000000000               0.002177832               0.010332698               0.000516599              -0.000474899               0.003602498               0.003127599               0.000000000               0.000000000               0.000000000               0.000000000               0.001767610               0.008850171               0.000641075              -0.000443417               0.003097833               0.002654416               0.000000000               0.000000000               0.000000000               0.000000000               0.001354315               0.007790776               0.000670047              -0.000465978               0.002752225               0.002286247               0.000000000               0.000000000               0.000000000               0.000000000               0.000993518               0.006958312               0.000661114              -0.000497219               0.002485153               0.001987935               0.000000000               0.000000000               0.000000000               0.000000000               0.000690662               0.006253082               0.000635272              -0.000522636               0.002258552               0.001735916               0.000000000               0.000000000               0.000000000               0.000000000               0.000433662               0.005612372               0.000602030              -0.000538922               0.002050413               0.001511490               0.000000000               0.000000000               0.000000000               0.000000000               0.000221729               0.005003485               0.000567254              -0.000542286               0.001848574               0.001306287               0.000000000               0.000000000               0.000000000               0.000000000               0.000054577               0.004401988               0.000527070              -0.000529781               0.001643908               0.001114127               0.000000000               0.000000000               0.000000000               0.000000000              -0.000065707               0.003790810               0.000483359              -0.000498490               0.001429754               0.000931264               0.000000000               0.000000000               0.000000000               0.000000000              -0.000138959               0.003165104               0.000438468              -0.000447747               0.001204273               0.000756526               0.000000000               0.000000000               0.000000000               0.000000000              -0.000170127               0.002513714               0.000382585              -0.000378011               0.000963900               0.000585889               0.000000000               0.000000000               0.000000000               0.000000000              -0.000157377               0.001820230               0.000300779              -0.000286545               0.000702252               0.000415707               0.000000000               0.000000000               0.000000000               0.000000000              -0.000093903               0.001067957               0.000174657              -0.000168708               0.000412218               0.000243510               0.000000000               0.000000000               0.000000000               0.000000000              -0.000109432               0.000505621               0.000109849              -0.000104239               0.000203285               0.000099045               0.000000000               0.000000000               0.000000000               0.000000000               0.002316361               0.020503967              -0.002702012              -0.001694357               0.007399373               0.005705016               0.000000000               0.000000000               0.000000000               0.000000000               0.001752514               0.015913904              -0.001163250              -0.001332042               0.005748596               0.004416553               0.000000000               0.000000000               0.000000000               0.000000000               0.001833375               0.012341965               0.000335846              -0.000855228               0.004399023               0.003543795               0.000000000               0.000000000               0.000000000               0.000000000               0.001466358               0.010285162               0.000925342              -0.000735760               0.003673606               0.002937847               0.000000000               0.000000000               0.000000000               0.000000000               0.001046552               0.008934803               0.001132677              -0.000724392               0.003219702               0.002495310               0.000000000               0.000000000               0.000000000               0.000000000               0.000676082               0.007938961               0.001172974              -0.000738838               0.002892573               0.002153735               0.000000000               0.000000000               0.000000000               0.000000000               0.000377798               0.007134013               0.001148586              -0.000750076               0.002628006               0.001877930               0.000000000               0.000000000               0.000000000               0.000000000               0.000148709               0.006435861               0.001097290              -0.000748715               0.002394837               0.001646122               0.000000000               0.000000000               0.000000000               0.000000000              -0.000026222               0.005796148               0.001033926              -0.000734350               0.002176813               0.001442463               0.000000000               0.000000000               0.000000000               0.000000000              -0.000154627               0.005186432               0.000967079              -0.000706288               0.001964223               0.001257935               0.000000000               0.000000000               0.000000000               0.000000000              -0.000243434               0.004594865               0.000890711              -0.000665644               0.001753488               0.001087843               0.000000000               0.000000000               0.000000000               0.000000000              -0.000293971               0.004011764               0.000809117              -0.000611709               0.001541144               0.000929436               0.000000000               0.000000000               0.000000000               0.000000000              -0.000301391               0.003431626               0.000723640              -0.000541974               0.001324522               0.000782548               0.000000000               0.000000000               0.000000000               0.000000000              -0.000271013               0.002846913               0.000616542              -0.000457493               0.001101459               0.000643966               0.000000000               0.000000000               0.000000000               0.000000000              -0.000205251               0.002257515               0.000471019              -0.000359158               0.000872217               0.000513059               0.000000000               0.000000000               0.000000000               0.000000000              -0.000108781               0.001672714               0.000266199              -0.000249881               0.000640859               0.000390978               0.000000000               0.000000000               0.000000000               0.000000000              -0.000096765               0.001271399               0.000161474              -0.000195211               0.000488866               0.000293654               0.000000000               0.000000000               0.000000000               0.000000000               0.002393431               0.018400209              -0.003534763              -0.001402488               0.006600837               0.005198349               0.000000000               0.000000000               0.000000000               0.000000000               0.001354630               0.014627268              -0.001510158              -0.001320420               0.005315847               0.003995427               0.000000000               0.000000000               0.000000000               0.000000000               0.000931299               0.011867677               0.000427749              -0.001134220               0.004333926               0.003199706               0.000000000               0.000000000               0.000000000               0.000000000               0.000423006               0.010192659               0.001139948              -0.001115453               0.003769337               0.002653884               0.000000000               0.000000000               0.000000000               0.000000000               0.000024517               0.009016941               0.001370057              -0.001117921               0.003378257               0.002260336               0.000000000               0.000000000               0.000000000               0.000000000              -0.000252552               0.008101679               0.001399131              -0.001107415               0.003069671               0.001962256               0.000000000               0.000000000               0.000000000               0.000000000              -0.000435437               0.007333448               0.001352829              -0.001079968               0.002804447               0.001724480               0.000000000               0.000000000               0.000000000               0.000000000              -0.000544933               0.006650340               0.001279304              -0.001035640               0.002561971               0.001526331               0.000000000               0.000000000               0.000000000               0.000000000              -0.000601992               0.006017422               0.001192925              -0.000977923               0.002331761               0.001353838               0.000000000               0.000000000               0.000000000               0.000000000              -0.000618046               0.005417110               0.001104650              -0.000908904               0.002108653               0.001199749               0.000000000               0.000000000               0.000000000               0.000000000              -0.000598771               0.004845191               0.001010461              -0.000830186               0.001891776               0.001061590               0.000000000               0.000000000               0.000000000               0.000000000              -0.000549381               0.004302012               0.000906272              -0.000743768               0.001681912               0.000938144               0.000000000               0.000000000               0.000000000               0.000000000              -0.000470647               0.003782604               0.000792554              -0.000649317               0.001477294               0.000827977               0.000000000               0.000000000               0.000000000               0.000000000              -0.000364007               0.003291478               0.000656362              -0.000547936               0.001279794               0.000731857               0.000000000               0.000000000               0.000000000               0.000000000              -0.000240759               0.002841360               0.000485705              -0.000445454               0.001095595               0.000650141               0.000000000               0.000000000               0.000000000               0.000000000              -0.000117848               0.002450419               0.000266908              -0.000350495               0.000933630               0.000583135               0.000000000               0.000000000               0.000000000               0.000000000              -0.000080623               0.002219417               0.000155178              -0.000307660               0.000842352               0.000534692               0.000000000               0.000000000               0.000000000               0.000000000               0.002284000               0.015830708              -0.003891470              -0.001122339               0.005650962               0.004528623               0.000000000               0.000000000               0.000000000               0.000000000               0.000757313               0.013090175              -0.001668422              -0.001352277               0.004814107               0.003461830               0.000000000               0.000000000               0.000000000               0.000000000              -0.000181380               0.011296399               0.000416321              -0.001480064               0.004258783               0.002778719               0.000000000               0.000000000               0.000000000               0.000000000              -0.000769323               0.010035317               0.001120500              -0.001542907               0.003859374               0.002316467               0.000000000               0.000000000               0.000000000               0.000000000              -0.001085256               0.009045852               0.001322107              -0.001537699               0.003527820               0.001990121               0.000000000               0.000000000               0.000000000               0.000000000              -0.001223076               0.008211872               0.001328095              -0.001485134               0.003232308               0.001747174               0.000000000               0.000000000               0.000000000               0.000000000              -0.001248118               0.007477977               0.001266704              -0.001402788               0.002960230               0.001557442               0.000000000               0.000000000               0.000000000               0.000000000              -0.001202627               0.006810568               0.001184765              -0.001302303               0.002704268               0.001401964               0.000000000               0.000000000               0.000000000               0.000000000              -0.001117793               0.006189362               0.001094745              -0.001192840               0.002460713               0.001267873               0.000000000               0.000000000               0.000000000               0.000000000              -0.001005041               0.005609361               0.001001609              -0.001078058               0.002229121               0.001151063               0.000000000               0.000000000               0.000000000               0.000000000              -0.000870872               0.005065891               0.000906322              -0.000959811               0.002008550               0.001048739               0.000000000               0.000000000               0.000000000               0.000000000              -0.000718307               0.004570180               0.000801529              -0.000840636               0.001803590               0.000962954               0.000000000               0.000000000               0.000000000               0.000000000              -0.000551135               0.004123753               0.000682202              -0.000722143               0.001615285               0.000893142               0.000000000               0.000000000               0.000000000               0.000000000              -0.000382824               0.003729977               0.000544390              -0.000609805               0.001446581               0.000836777               0.000000000               0.000000000               0.000000000               0.000000000              -0.000228641               0.003405440               0.000382740              -0.000511419               0.001305608               0.000794189               0.000000000               0.000000000               0.000000000               0.000000000              -0.000103827               0.003171234               0.000198812              -0.000435338               0.001202180               0.000766842               0.000000000               0.000000000               0.000000000               0.000000000              -0.000057517               0.003066311               0.000106985              -0.000404857               0.001157046               0.000752189               0.000000000               0.000000000               0.000000000               0.000000000               0.001870019               0.013070314              -0.003782762              -0.000932533               0.004667571               0.003735038               0.000000000               0.000000000               0.000000000               0.000000000              -0.000029227               0.011472010              -0.001667846              -0.001444959               0.004305618               0.002860659               0.000000000               0.000000000               0.000000000               0.000000000              -0.001371680               0.010668917               0.000276940              -0.001847990               0.004172267               0.002324277               0.000000000               0.000000000               0.000000000               0.000000000              -0.001928421               0.009793393               0.000874234              -0.001947327               0.003913541               0.001966213               0.000000000               0.000000000               0.000000000               0.000000000              -0.002087530               0.008966378               0.001026015              -0.001903616               0.003623301               0.001719685               0.000000000               0.000000000               0.000000000               0.000000000              -0.002043991               0.008206358               0.001019125              -0.001792287               0.003332854               0.001540567               0.000000000               0.000000000               0.000000000               0.000000000              -0.001889569               0.007512960               0.000962116              -0.001647704               0.003053530               0.001405825               0.000000000               0.000000000               0.000000000               0.000000000              -0.001680225               0.006866584               0.000892981              -0.001488404               0.002784973               0.001296569               0.000000000               0.000000000               0.000000000               0.000000000              -0.001453860               0.006266014               0.000817164              -0.001328446               0.002531466               0.001203019               0.000000000               0.000000000               0.000000000               0.000000000              -0.001220857               0.005709260               0.000736846              -0.001171476               0.002293560               0.001122084               0.000000000               0.000000000               0.000000000               0.000000000              -0.000980380               0.005201845               0.000657601              -0.001017871               0.002073221               0.001055350               0.000000000               0.000000000               0.000000000               0.000000000              -0.000743110               0.004757040               0.000570269              -0.000873294               0.001876762               0.001003468               0.000000000               0.000000000               0.000000000               0.000000000              -0.000520337               0.004375550               0.000462805              -0.000742068               0.001705858               0.000963790               0.000000000               0.000000000               0.000000000               0.000000000              -0.000326517               0.004062961               0.000343183              -0.000630313               0.001564411               0.000934098               0.000000000               0.000000000               0.000000000               0.000000000              -0.000172579               0.003834243               0.000219838              -0.000543996               0.001459400               0.000915404               0.000000000               0.000000000               0.000000000               0.000000000              -0.000066605               0.003704976               0.000102434              -0.000488098               0.001397679               0.000909581               0.000000000               0.000000000               0.000000000               0.000000000              -0.000026191               0.003671524               0.000047224              -0.000468761               0.001380083               0.000911322               0.000000000               0.000000000               0.000000000               0.000000000               0.001079111               0.010360753              -0.003294009              -0.000890428               0.003750358               0.002859930               0.000000000               0.000000000               0.000000000               0.000000000              -0.000967084               0.009906582              -0.001568922              -0.001600976               0.003835819               0.002234843               0.000000000               0.000000000               0.000000000               0.000000000              -0.002511310               0.010004199               0.000000904              -0.002192261               0.004065453               0.001873193               0.000000000               0.000000000               0.000000000               0.000000000              -0.002907121               0.009444842               0.000446491              -0.002270770               0.003905172               0.001634403               0.000000000               0.000000000               0.000000000               0.000000000              -0.002847242               0.008750231               0.000564392              -0.002161489               0.003637211               0.001475721               0.000000000               0.000000000               0.000000000               0.000000000              -0.002593059               0.008064284               0.000570955              -0.001980428               0.003348210               0.001367782               0.000000000               0.000000000               0.000000000               0.000000000              -0.002259895               0.007412740               0.000538687              -0.001774049               0.003062238               0.001288189               0.000000000               0.000000000               0.000000000               0.000000000              -0.001907161               0.006794814               0.000498476              -0.001564533               0.002786426               0.001221893               0.000000000               0.000000000               0.000000000               0.000000000              -0.001559437               0.006224707               0.000455318              -0.001362874               0.002529173               0.001166299               0.000000000               0.000000000               0.000000000               0.000000000              -0.001229256               0.005702946               0.000403534              -0.001173836               0.002292242               0.001118405               0.000000000               0.000000000               0.000000000               0.000000000              -0.000920174               0.005239697               0.000352544              -0.001000025               0.002079890               0.001079865               0.000000000               0.000000000               0.000000000               0.000000000              -0.000637968               0.004845616               0.000295440              -0.000844938               0.001896835               0.001051897               0.000000000               0.000000000               0.000000000               0.000000000              -0.000395177               0.004526278               0.000221018              -0.000713975               0.001746736               0.001032761               0.000000000               0.000000000               0.000000000               0.000000000              -0.000205853               0.004291844               0.000143473              -0.000613674               0.001635159               0.001021484               0.000000000               0.000000000               0.000000000               0.000000000              -0.000079858               0.004149364               0.000074928              -0.000548616               0.001565980               0.001017364               0.000000000               0.000000000               0.000000000               0.000000000              -0.000017142               0.004096356               0.000025385              -0.000518471               0.001538262               0.001019791               0.000000000               0.000000000               0.000000000               0.000000000               0.000002885               0.004101899               0.000004112              -0.000511654               0.001537837               0.001026183               0.000000000               0.000000000               0.000000000               0.000000000              -0.000045757               0.007866139              -0.002544812              -0.001000425               0.002955494               0.001955069               0.000000000               0.000000000               0.000000000               0.000000000              -0.001993318               0.008479360              -0.001432681              -0.001807411               0.003428895               0.001621484               0.000000000               0.000000000               0.000000000               0.000000000              -0.003484561               0.009299781              -0.000398270              -0.002469177               0.003922955               0.001453778               0.000000000               0.000000000               0.000000000               0.000000000              -0.003609584               0.008984054              -0.000085147              -0.002476594               0.003820186               0.001343592               0.000000000               0.000000000               0.000000000               0.000000000              -0.003298932               0.008411899               0.000033658              -0.002288581               0.003566799               0.001278217               0.000000000               0.000000000               0.000000000               0.000000000              -0.002843610               0.007795748               0.000077859              -0.002040817               0.003278829               0.001238012               0.000000000               0.000000000               0.000000000               0.000000000              -0.002352402               0.007185176               0.000092201              -0.001780293               0.002988466               0.001208173               0.000000000               0.000000000               0.000000000               0.000000000              -0.001880320               0.006609563               0.000098642              -0.001531311               0.002713603               0.001182291               0.000000000               0.000000000               0.000000000               0.000000000              -0.001445713               0.006076409               0.000100740              -0.001301690               0.002459346               0.001157656               0.000000000               0.000000000               0.000000000               0.000000000              -0.001054988               0.005597176               0.000089232              -0.001095265               0.002230795               0.001135530               0.000000000               0.000000000               0.000000000               0.000000000              -0.000715001               0.005190016               0.000073752              -0.000916875               0.002035613               0.001118738               0.000000000               0.000000000               0.000000000               0.000000000              -0.000424713               0.004858848               0.000057772              -0.000766622               0.001875140               0.001108519               0.000000000               0.000000000               0.000000000               0.000000000              -0.000195971               0.004616568               0.000032315              -0.000650559               0.001755693               0.001105135               0.000000000               0.000000000               0.000000000               0.000000000              -0.000041919               0.004472994               0.000007788              -0.000574842               0.001682597               0.001107755               0.000000000               0.000000000               0.000000000               0.000000000               0.000032664               0.004422643              -0.000007349              -0.000540580               0.001654393               0.001113813               0.000000000               0.000000000               0.000000000               0.000000000               0.000038852               0.004441602              -0.000011134              -0.000540630               0.001660729               0.001120099               0.000000000               0.000000000               0.000000000               0.000000000               0.000031862               0.004479782              -0.000013855              -0.000548023               0.001675920               0.001127897               0.000000000               0.000000000               0.000000000               0.000000000              -0.001359819               0.005765345              -0.001655779              -0.001230598               0.002331961               0.001101363               0.000000000               0.000000000               0.000000000               0.000000000              -0.002995401               0.007196590              -0.001295937              -0.002022845               0.003073121               0.001050276               0.000000000               0.000000000               0.000000000               0.000000000              -0.004249580               0.008573105              -0.000877912              -0.002665224               0.003746081               0.001080857               0.000000000               0.000000000               0.000000000               0.000000000              -0.004090837               0.008509889              -0.000644484              -0.002597793               0.003702532               0.001104739               0.000000000               0.000000000               0.000000000               0.000000000              -0.003569824               0.008085867              -0.000498519              -0.002349412               0.003478399               0.001128988               0.000000000               0.000000000               0.000000000               0.000000000              -0.002954537               0.007559337              -0.000399733              -0.002052863               0.003204042               0.001151178               0.000000000               0.000000000               0.000000000               0.000000000              -0.002340823               0.007014114              -0.000324617              -0.001754569               0.002922871               0.001168302               0.000000000               0.000000000               0.000000000               0.000000000              -0.001775769               0.006490221              -0.000265651              -0.001477187               0.002655781               0.001178594               0.000000000               0.000000000               0.000000000               0.000000000              -0.001280036               0.005994294              -0.000219962              -0.001229297               0.002407844               0.001178547               0.000000000               0.000000000               0.000000000               0.000000000              -0.000846025               0.005555854              -0.000187190              -0.001011739               0.002189179               0.001177441               0.000000000               0.000000000               0.000000000               0.000000000              -0.000477070               0.005192920              -0.000158040              -0.000828014               0.002006961               0.001178947               0.000000000               0.000000000               0.000000000               0.000000000              -0.000182632               0.004908897              -0.000124564              -0.000682097               0.001863648               0.001181551               0.000000000               0.000000000               0.000000000               0.000000000               0.000023274               0.004721107              -0.000092357              -0.000581409               0.001767490               0.001186080               0.000000000               0.000000000               0.000000000               0.000000000               0.000135946               0.004641811              -0.000062865              -0.000529245               0.001723670               0.001194425               0.000000000               0.000000000               0.000000000               0.000000000               0.000167046               0.004653578              -0.000037271              -0.000519054               0.001724195               0.001205142               0.000000000               0.000000000               0.000000000               0.000000000               0.000142777               0.004725737              -0.000016940              -0.000537175               0.001754288               0.001217114               0.000000000               0.000000000               0.000000000               0.000000000               0.000114944               0.004779318              -0.000007508              -0.000554309               0.001777860               0.001223550               0.000000000               0.000000000               0.000000000               0.000000000              -0.002871002               0.003824330              -0.000732154              -0.001554664               0.001792985               0.000238321               0.000000000               0.000000000               0.000000000               0.000000000              -0.003848858               0.005696391              -0.001147809              -0.002155365               0.002617233               0.000461867               0.000000000               0.000000000               0.000000000               0.000000000              -0.004725796               0.007474458              -0.001377351              -0.002706474               0.003393619               0.000687145               0.000000000               0.000000000               0.000000000               0.000000000              -0.004409341               0.007791148              -0.001228234              -0.002627390               0.003472820               0.000845430               0.000000000               0.000000000               0.000000000               0.000000000              -0.003804776               0.007636343              -0.001052661              -0.002381328               0.003339198               0.000957870               0.000000000               0.000000000               0.000000000               0.000000000              -0.003134592               0.007312539              -0.000897252              -0.002089534               0.003134000               0.001044466               0.000000000               0.000000000               0.000000000               0.000000000              -0.002481418               0.006920149              -0.000761044              -0.001795546               0.002905208               0.001109662               0.000000000               0.000000000               0.000000000               0.000000000              -0.001877888               0.006506908              -0.000649096              -0.001517568               0.002674803               0.001157236               0.000000000               0.000000000               0.000000000               0.000000000              -0.001342295               0.006098662              -0.000557976              -0.001265690               0.002454764               0.001189073               0.000000000               0.000000000               0.000000000               0.000000000              -0.000871204               0.005726002              -0.000482338              -0.001042449               0.002256131               0.001213682               0.000000000               0.000000000               0.000000000               0.000000000              -0.000469303               0.005398450              -0.000408846              -0.000850793               0.002083063               0.001232270               0.000000000               0.000000000               0.000000000               0.000000000              -0.000140110               0.005130547              -0.000329458              -0.000693858               0.001941451               0.001247593               0.000000000               0.000000000               0.000000000               0.000000000               0.000106078               0.004939423              -0.000243374              -0.000577647               0.001839007               0.001261360               0.000000000               0.000000000               0.000000000               0.000000000               0.000259151               0.004837505              -0.000160735              -0.000507505               0.001781654               0.001274148               0.000000000               0.000000000               0.000000000               0.000000000               0.000323906               0.004821396              -0.000091557              -0.000481209               0.001767519               0.001286310               0.000000000               0.000000000               0.000000000               0.000000000               0.000320734               0.004883646              -0.000037634              -0.000490179               0.001791259               0.001301080               0.000000000               0.000000000               0.000000000               0.000000000               0.000286328               0.004921189              -0.000007764              -0.000507774               0.001809638               0.001301864               0.000000000               0.000000000               0.000000000               0.000000000              -0.004766493               0.002072902               0.000150861              -0.002046544               0.001373140              -0.000673405               0.000000000               0.000000000               0.000000000               0.000000000              -0.004806568               0.004173956              -0.000941041              -0.002324203               0.002166038              -0.000158165               0.000000000               0.000000000               0.000000000               0.000000000              -0.005125382               0.006155788              -0.001777104              -0.002691485               0.002949070               0.000257585               0.000000000               0.000000000               0.000000000               0.000000000              -0.004672467               0.006833322              -0.001779554              -0.002606334               0.003146529               0.000540195               0.000000000               0.000000000               0.000000000               0.000000000              -0.004020683               0.006987862              -0.001607248              -0.002381233               0.003123008               0.000741775               0.000000000               0.000000000               0.000000000               0.000000000              -0.003333661               0.006905279              -0.001413754              -0.002113278               0.003006162               0.000892885               0.000000000               0.000000000               0.000000000               0.000000000              -0.002657753               0.006702131              -0.001230879              -0.001834419               0.002845494               0.001011075               0.000000000               0.000000000               0.000000000               0.000000000              -0.002028750               0.006434769              -0.001070463              -0.001565124               0.002666609               0.001101485               0.000000000               0.000000000               0.000000000               0.000000000              -0.001459768               0.006143124              -0.000936185              -0.001315300               0.002486121               0.001170821               0.000000000               0.000000000               0.000000000               0.000000000              -0.000951047               0.005855129              -0.000820370              -0.001088531               0.002314534               0.001226003               0.000000000               0.000000000               0.000000000               0.000000000              -0.000498732               0.005591219              -0.000710632              -0.000885925               0.002159029               0.001273104               0.000000000               0.000000000               0.000000000               0.000000000              -0.000107666               0.005356124              -0.000595263              -0.000709889               0.002021986               0.001312098               0.000000000               0.000000000               0.000000000               0.000000000               0.000207199               0.005161077              -0.000467317              -0.000567434               0.001909487               0.001342053               0.000000000               0.000000000               0.000000000               0.000000000               0.000438012               0.005025976              -0.000335216              -0.000463992               0.001829973               0.001365981               0.000000000               0.000000000               0.000000000               0.000000000               0.000572562               0.004957695              -0.000207218              -0.000405000               0.001787549               0.001382548               0.000000000               0.000000000               0.000000000               0.000000000               0.000609593               0.004955562              -0.000093021              -0.000390847               0.001782120               0.001391273               0.000000000               0.000000000               0.000000000               0.000000000               0.000580775               0.004952778              -0.000033134              -0.000401306               0.001784678               0.001383372               0.000000000               0.000000000               0.000000000               0.000000000              -0.006905875               0.000668509               0.000901999              -0.002673264               0.001113917              -0.001559348               0.000000000               0.000000000               0.000000000               0.000000000              -0.005902956               0.002741788              -0.000670993              -0.002556328               0.001766026              -0.000790301               0.000000000               0.000000000               0.000000000               0.000000000              -0.005466928               0.004647916              -0.001975514              -0.002631082               0.002426315              -0.000204766               0.000000000               0.000000000               0.000000000               0.000000000              -0.004795544               0.005572558              -0.002166550              -0.002494893               0.002689131               0.000194238               0.000000000               0.000000000               0.000000000               0.000000000              -0.004082461               0.006007595              -0.002046095              -0.002281867               0.002763133               0.000481266               0.000000000               0.000000000               0.000000000               0.000000000              -0.003383941               0.006176685              -0.001851179              -0.002041059               0.002739227               0.000698168               0.000000000               0.000000000               0.000000000               0.000000000              -0.002704531               0.006184773              -0.001650459              -0.001787292               0.002657334               0.000870042               0.000000000               0.000000000               0.000000000               0.000000000              -0.002066265               0.006093600              -0.001459744              -0.001536546               0.002543361               0.001006815               0.000000000               0.000000000               0.000000000               0.000000000              -0.001478816               0.005948049              -0.001292185              -0.001298059               0.002415349               0.001117290               0.000000000               0.000000000               0.000000000               0.000000000              -0.000941975               0.005776419              -0.001147488              -0.001075291               0.002283884               0.001208593               0.000000000               0.000000000               0.000000000               0.000000000              -0.000446819               0.005603260              -0.001015676              -0.000867963               0.002157056               0.001289093               0.000000000               0.000000000               0.000000000               0.000000000               0.000004055               0.005437984              -0.000873606              -0.000678226               0.002038718               0.001360492               0.000000000               0.000000000               0.000000000               0.000000000               0.000396884               0.005285572              -0.000715597              -0.000511864               0.001932461               0.001420597               0.000000000               0.000000000               0.000000000               0.000000000               0.000713558               0.005149911              -0.000545759              -0.000376154               0.001842004               0.001465851               0.000000000               0.000000000               0.000000000               0.000000000               0.000937770               0.005056073              -0.000363146              -0.000280345               0.001778789               0.001498444               0.000000000               0.000000000               0.000000000               0.000000000               0.001050700               0.005011109              -0.000177309              -0.000232376               0.001747811               0.001515436               0.000000000               0.000000000               0.000000000               0.000000000               0.001062497               0.004990419              -0.000082695              -0.000225365               0.001738578               0.001513213               0.000000000               0.000000000               0.000000000               0.000000000              -0.009141615              -0.000310750               0.001401183              -0.003389259               0.001026162              -0.002363097               0.000000000               0.000000000               0.000000000               0.000000000              -0.007072153               0.001485665              -0.000385245              -0.002837762               0.001441132              -0.001396629               0.000000000               0.000000000               0.000000000               0.000000000              -0.005772749               0.003086765              -0.001945856              -0.002550622               0.001879116              -0.000671506               0.000000000               0.000000000               0.000000000               0.000000000              -0.004801112               0.004122334              -0.002301898              -0.002315704               0.002145998              -0.000169707               0.000000000               0.000000000               0.000000000               0.000000000              -0.003990094               0.004771331              -0.002262580              -0.002092697               0.002287992               0.000195295               0.000000000               0.000000000               0.000000000               0.000000000              -0.003270072               0.005172596              -0.002102415              -0.001872847               0.002348463               0.000475616               0.000000000               0.000000000               0.000000000               0.000000000              -0.002602844               0.005394841              -0.001908540              -0.001650418               0.002348401               0.000697983               0.000000000               0.000000000               0.000000000               0.000000000              -0.001972131               0.005486299              -0.001713849              -0.001425334               0.002303859               0.000878525               0.000000000               0.000000000               0.000000000               0.000000000              -0.001376981               0.005498473              -0.001536686              -0.001203675               0.002234030               0.001030356               0.000000000               0.000000000               0.000000000               0.000000000              -0.000817916               0.005466843              -0.001381848              -0.000990072               0.002152286               0.001162214               0.000000000               0.000000000               0.000000000               0.000000000              -0.000292586               0.005407147              -0.001241590              -0.000785612               0.002064235               0.001278623               0.000000000               0.000000000               0.000000000               0.000000000               0.000206300               0.005332971              -0.001093791              -0.000589258               0.001974058               0.001384800               0.000000000               0.000000000               0.000000000               0.000000000               0.000677146               0.005252184              -0.000924733              -0.000402593               0.001884908               0.001482315               0.000000000               0.000000000               0.000000000               0.000000000               0.001094542               0.005168121              -0.000730775              -0.000235562               0.001801210               0.001565648               0.000000000               0.000000000               0.000000000               0.000000000               0.001437114               0.005094728              -0.000507116              -0.000097923               0.001730867               0.001632944               0.000000000               0.000000000               0.000000000               0.000000000               0.001681480               0.005039100              -0.000260373               0.000000667               0.001679461               0.001680128               0.000000000               0.000000000               0.000000000               0.000000000               0.001787905               0.005022674              -0.000138648               0.000042629               0.001659998               0.001702627               0.000000000               0.000000000               0.000000000               0.000000000              -0.011276288              -0.000904471               0.001548078              -0.004115546               0.001070351              -0.003045196               0.000000000               0.000000000               0.000000000               0.000000000              -0.008223504               0.000474055              -0.000150227              -0.003143068               0.001205699              -0.001937369               0.000000000               0.000000000               0.000000000               0.000000000              -0.006043646               0.001638901              -0.001690775              -0.002471226               0.001370032              -0.001101194               0.000000000               0.000000000               0.000000000               0.000000000              -0.004726944               0.002658621              -0.002130711              -0.002104928               0.001587838              -0.000517090               0.000000000               0.000000000               0.000000000               0.000000000              -0.003780721               0.003439850              -0.002165541              -0.001847748               0.001762520              -0.000085228               0.000000000               0.000000000               0.000000000               0.000000000              -0.003025026               0.004015774              -0.002056316              -0.001636353               0.001884028               0.000247675               0.000000000               0.000000000               0.000000000               0.000000000              -0.002364466               0.004418593              -0.001896828              -0.001438996               0.001952514               0.000513518               0.000000000               0.000000000               0.000000000               0.000000000              -0.001749359               0.004687863              -0.001726881              -0.001241990               0.001976602               0.000734612               0.000000000               0.000000000               0.000000000               0.000000000              -0.001160317               0.004862117              -0.001566335              -0.001042882               0.001968316               0.000925434               0.000000000               0.000000000               0.000000000               0.000000000              -0.000593544               0.004975493              -0.001423175              -0.000844514               0.001939985               0.001095471               0.000000000               0.000000000               0.000000000               0.000000000              -0.000043095               0.005042448              -0.001296520              -0.000646466               0.001896288               0.001249822               0.000000000               0.000000000               0.000000000               0.000000000               0.000496971               0.005070955              -0.001167701              -0.000447505               0.001839470               0.001391965               0.000000000               0.000000000               0.000000000               0.000000000               0.001027688               0.005078725              -0.001011651              -0.000249458               0.001776044               0.001526586               0.000000000               0.000000000               0.000000000               0.000000000               0.001541870               0.005078679              -0.000819026              -0.000056634               0.001711754               0.001655120               0.000000000               0.000000000               0.000000000               0.000000000               0.002024337               0.005062708              -0.000588323               0.000126287               0.001645457               0.001771743               0.000000000               0.000000000               0.000000000               0.000000000               0.002455277               0.005031779              -0.000314007               0.000291753               0.001579992               0.001871745               0.000000000               0.000000000               0.000000000               0.000000000               0.002710984               0.005038595              -0.000178018               0.000386791               0.001550585               0.001937375               0.000000000               0.000000000               0.000000000               0.000000000              -0.013062132              -0.001194180               0.001315538              -0.004749024               0.001184940              -0.003564084               0.000000000               0.000000000               0.000000000               0.000000000              -0.009217887              -0.000248984              -0.000012156              -0.003425582               0.001058859              -0.002366723               0.000000000               0.000000000               0.000000000               0.000000000              -0.006273772               0.000460912              -0.001248049              -0.002410276               0.000957056              -0.001453220               0.000000000               0.000000000               0.000000000               0.000000000              -0.004625646               0.001386674              -0.001647878              -0.001907949               0.001098199              -0.000809750               0.000000000               0.000000000               0.000000000               0.000000000              -0.003543075               0.002220628              -0.001716186              -0.001606229               0.001275610              -0.000330619               0.000000000               0.000000000               0.000000000               0.000000000              -0.002735442               0.002905868              -0.001656332              -0.001389021               0.001431619               0.000042598               0.000000000               0.000000000               0.000000000               0.000000000              -0.002064175               0.003451275              -0.001548084              -0.001205473               0.001552237               0.000346765               0.000000000               0.000000000               0.000000000               0.000000000              -0.001458701               0.003872854              -0.001423146              -0.001031118               0.001634644               0.000603526               0.000000000               0.000000000               0.000000000               0.000000000              -0.000884900               0.004190070              -0.001300276              -0.000855595               0.001681874               0.000826279               0.000000000               0.000000000               0.000000000               0.000000000              -0.000320039               0.004429743              -0.001191927              -0.000673731               0.001701143               0.001027412               0.000000000               0.000000000               0.000000000               0.000000000               0.000247521               0.004608264              -0.001099722              -0.000483212               0.001697143               0.001213931               0.000000000               0.000000000               0.000000000               0.000000000               0.000818566               0.004739495              -0.001001767              -0.000285475               0.001674974               0.001389499               0.000000000               0.000000000               0.000000000               0.000000000               0.001399185               0.004842089              -0.000880183              -0.000080567               0.001640869               0.001560302               0.000000000               0.000000000               0.000000000               0.000000000               0.002005026               0.004923851              -0.000730004               0.000136402               0.001595800               0.001732202               0.000000000               0.000000000               0.000000000               0.000000000               0.002633465               0.004974656              -0.000542519               0.000365714               0.001536297               0.001902011               0.000000000               0.000000000               0.000000000               0.000000000               0.003274826               0.004994462              -0.000299562               0.000603746               0.001463555               0.002067301               0.000000000               0.000000000               0.000000000               0.000000000               0.003716741               0.005042276              -0.000178199               0.000763486               0.001426247               0.002189732               0.000000000               0.000000000               0.000000000               0.000000000              -0.014255253              -0.001301864               0.000753659              -0.005182984               0.001293698              -0.003889286               0.000000000               0.000000000               0.000000000               0.000000000              -0.009891478              -0.000675019               0.000026017              -0.003624924               0.000983295              -0.002641629               0.000000000               0.000000000               0.000000000               0.000000000              -0.006433592              -0.000308077              -0.000662638              -0.002374086               0.000688665              -0.001685421               0.000000000               0.000000000               0.000000000               0.000000000              -0.004539900               0.000515349              -0.000901602              -0.001766880               0.000760737              -0.001006142               0.000000000               0.000000000               0.000000000               0.000000000              -0.003352169               0.001355704              -0.000953371              -0.001426524               0.000927403              -0.000499121               0.000000000               0.000000000               0.000000000               0.000000000              -0.002500546               0.002099646              -0.000930310              -0.001200158               0.001099927              -0.000100231               0.000000000               0.000000000               0.000000000               0.000000000              -0.001819445               0.002731461              -0.000878080              -0.001023722               0.001251718               0.000227996               0.000000000               0.000000000               0.000000000               0.000000000              -0.001216131               0.003251343              -0.000811997              -0.000862465               0.001371258               0.000508793               0.000000000               0.000000000               0.000000000               0.000000000              -0.000645927               0.003663400              -0.000744039              -0.000700146               0.001454503               0.000754357               0.000000000               0.000000000               0.000000000               0.000000000              -0.000082271               0.003984627              -0.000686525              -0.000528929               0.001504505               0.000975576               0.000000000               0.000000000               0.000000000               0.000000000               0.000485200               0.004240330              -0.000637722              -0.000348091               0.001529459               0.001181368               0.000000000               0.000000000               0.000000000               0.000000000               0.001069853               0.004453990              -0.000581476              -0.000155554               0.001536500               0.001380946               0.000000000               0.000000000               0.000000000               0.000000000               0.001692865               0.004637142              -0.000514808               0.000055181               0.001527305               0.001582485               0.000000000               0.000000000               0.000000000               0.000000000               0.002370780               0.004788284              -0.000435275               0.000290504               0.001499244               0.001789748               0.000000000               0.000000000               0.000000000               0.000000000               0.003114294               0.004899963              -0.000330126               0.000555359               0.001448185               0.002003544               0.000000000               0.000000000               0.000000000               0.000000000               0.003935826               0.004964928              -0.000185912               0.000855310               0.001369856               0.002225166               0.000000000               0.000000000               0.000000000               0.000000000               0.004546132               0.005047375              -0.000114698               0.001073867               0.001324486               0.002398353               0.000000000               0.000000000               0.000000000               0.000000000               0.000000000               0.000000000               0.000000000               0.000000000               0.000000000               0.000000000               0.000000000               0.000000000               0.000000000               0.000000000               0.000000000               0.000000000               0.000000000               0.000000000               0.000000000               0.000000000               0.000000000               0.000000000               0.000000000               0.000000000               0.000000000               0.000000000               0.000000000               0.000000000               0.000000000               0.000000000               0.000000000               0.000000000               0.000000000               0.000000000               0.000000000               0.000000000               0.000000000               0.000000000               0.000000000               0.000000000               0.000000000               0.000000000               0.000000000               0.000000000               0.000000000               0.000000000               0.000000000               0.000000000               0.000000000               0.000000000               0.000000000               0.000000000               0.000000000               0.000000000               0.000000000               0.000000000               0.000000000               0.000000000               0.000000000               0.000000000               0.000000000               0.000000000               0.000000000               0.000000000               0.000000000               0.000000000               0.000000000               0.000000000               0.000000000               0.000000000               0.000000000               0.000000000               0.000000000               0.000000000               0.000000000               0.000000000               0.000000000               0.000000000               0.000000000               0.000000000               0.000000000               0.000000000               0.000000000               0.000000000               0.000000000               0.000000000               0.000000000               0.000000000               0.000000000               0.000000000               0.000000000               0.000000000               0.000000000               0.000000000               0.000000000               0.000000000               0.000000000               0.000000000               0.000000000               0.000000000               0.000000000               0.000000000               0.000000000               0.000000000               0.000000000               0.000000000               0.000000000               0.000000000               0.000000000               0.000000000               0.000000000               0.000000000               0.000000000               0.000000000               0.000000000               0.000000000               0.000000000               0.000000000               0.000000000               0.000000000               0.000000000               0.000000000               0.000000000               0.000000000               0.000000000               0.000000000               0.000000000               0.000000000               0.000000000               0.000000000               0.000000000               0.000000000               0.000000000               0.000000000               0.000000000               0.000000000               0.000000000               0.000000000               0.000000000               0.000000000               0.000000000               0.000000000               0.000000000               0.000000000               0.000000000               0.000000000               0.000000000               0.000000000               0.000000000               0.000000000               0.000000000               0.000000000               0.000000000               0.000000000               0.000000000               0.000000000               0.000000000               0.000000000               0.000000000               0.000000000               0.000000000               0.000000000               0.000000000               0.000000000               0.000000000               0.000000000               0.000000000               0.000000000               0.000000000               0.000000000               0.000000000               0.000000000               0.000000000               0.000000000               0.000000000               0.000000000               0.000000000               0.000000000               0.000000000               0.000000000               0.000000000               0.000000000               0.000000000               0.000000000               0.000000000               0.000000000               0.000000000               0.000000000               0.000000000               0.000000000               0.000000000               0.000000000               0.000000000               0.000000000               0.000000000               0.000000000               0.000000000               0.000000000               0.000000000               0.000000000               0.000000000               0.000000000               0.000000000               0.000000000               0.000000000               0.000000000               0.000000000               0.000000000               0.000000000               0.000000000               0.000000000               0.000000000               0.000000000               0.000000000               0.000000000               0.000000000               0.000000000               0.000000000               0.000000000               0.000000000               0.000000000               0.000000000               0.000000000               0.000000000               0.000000000               0.000000000               0.000000000               0.000000000               0.000000000               0.000000000               0.000000000               0.000000000               0.000000000               0.000000000               0.000000000               0.000000000               0.000000000               0.000000000               0.000000000               0.000000000               0.000000000               0.000000000               0.000000000               0.000000000               0.000000000               0.000000000               0.000000000               0.000000000               0.000000000               0.000000000               0.000000000               0.000000000               0.000000000               0.000000000               0.000000000               0.000000000               0.000000000               0.000000000               0.000000000               0.000000000               0.000000000               0.000000000               0.000000000               0.000000000               0.000000000               0.000000000               0.000000000               0.000000000               0.000000000               0.000000000               0.000000000               0.000000000               0.000000000               0.000000000               0.000000000               0.000000000               0.000000000               0.000000000               0.000000000               0.000000000               0.000000000               0.000000000               0.000000000               0.000000000               0.000000000               0.000000000               0.000000000               0.000000000               0.000000000               0.000000000               0.000000000               0.000000000               0.000000000               0.000000000               0.000000000               0.000000000               0.000000000               0.000000000               0.000000000               0.000000000               0.000000000               0.000000000               0.000000000               0.000000000               0.000000000               0.000000000               0.000000000               0.000000000               0.000000000               0.000000000               0.000000000               0.000000000               0.000000000               0.000000000               0.000000000               0.000000000               0.000000000               0.000000000               0.000000000               0.000000000               0.000000000               0.000000000               0.000000000               0.000000000               0.000000000               0.000000000               0.000000000               0.000000000               0.000000000               0.000000000               0.000000000               0.000000000               0.000000000               0.000000000               0.000000000               0.000000000               0.000000000               0.000000000               0.000000000               0.000000000               0.000000000               0.000000000               0.000000000               0.000000000               0.002187901               0.021885813               0.001469043              -0.001915259               0.007933618               0.006018358               0.000000000               0.000000000               0.000000000               0.000000000               0.001968307               0.016774655               0.000638888              -0.001358713               0.006044400               0.004685687               0.000000000               0.000000000               0.000000000               0.000000000               0.002417157               0.012661231              -0.000180198              -0.000676219               0.004445774               0.003769556               0.000000000               0.000000000               0.000000000               0.000000000               0.002177832               0.010332698              -0.000516599              -0.000474899               0.003602498               0.003127599               0.000000000               0.000000000               0.000000000               0.000000000               0.001767610               0.008850171              -0.000641075              -0.000443417               0.003097833               0.002654416               0.000000000               0.000000000               0.000000000               0.000000000               0.001354315               0.007790776              -0.000670047              -0.000465978               0.002752225               0.002286247               0.000000000               0.000000000               0.000000000               0.000000000               0.000993518               0.006958312              -0.000661114              -0.000497219               0.002485153               0.001987935               0.000000000               0.000000000               0.000000000               0.000000000               0.000690662               0.006253082              -0.000635272              -0.000522636               0.002258552               0.001735916               0.000000000               0.000000000               0.000000000               0.000000000               0.000433662               0.005612372              -0.000602030              -0.000538922               0.002050413               0.001511490               0.000000000               0.000000000               0.000000000               0.000000000               0.000221729               0.005003485              -0.000567254              -0.000542286               0.001848574               0.001306287               0.000000000               0.000000000               0.000000000               0.000000000               0.000054577               0.004401988              -0.000527070              -0.000529781               0.001643908               0.001114127               0.000000000               0.000000000               0.000000000               0.000000000              -0.000065707               0.003790810              -0.000483359              -0.000498490               0.001429754               0.000931264               0.000000000               0.000000000               0.000000000               0.000000000              -0.000138959               0.003165104              -0.000438468              -0.000447747               0.001204273               0.000756526               0.000000000               0.000000000               0.000000000               0.000000000              -0.000170127               0.002513714              -0.000382585              -0.000378011               0.000963900               0.000585889               0.000000000               0.000000000               0.000000000               0.000000000              -0.000157377               0.001820230              -0.000300779              -0.000286545               0.000702252               0.000415707               0.000000000               0.000000000               0.000000000               0.000000000              -0.000093903               0.001067957              -0.000174657              -0.000168708               0.000412218               0.000243510               0.000000000               0.000000000               0.000000000               0.000000000              -0.000109432               0.000505621              -0.000109849              -0.000104239               0.000203285               0.000099045               0.000000000               0.000000000               0.000000000               0.000000000               0.002316361               0.020503967               0.002702012              -0.001694357               0.007399373               0.005705016               0.000000000               0.000000000               0.000000000               0.000000000               0.001752514               0.015913904               0.001163250              -0.001332042               0.005748596               0.004416553               0.000000000               0.000000000               0.000000000               0.000000000               0.001833375               0.012341965              -0.000335846              -0.000855228               0.004399023               0.003543795               0.000000000               0.000000000               0.000000000               0.000000000               0.001466358               0.010285162              -0.000925342              -0.000735760               0.003673606               0.002937847               0.000000000               0.000000000               0.000000000               0.000000000               0.001046552               0.008934803              -0.001132677              -0.000724392               0.003219702               0.002495310               0.000000000               0.000000000               0.000000000               0.000000000               0.000676082               0.007938961              -0.001172974              -0.000738838               0.002892573               0.002153735               0.000000000               0.000000000               0.000000000               0.000000000               0.000377798               0.007134013              -0.001148586              -0.000750076               0.002628006               0.001877930               0.000000000               0.000000000               0.000000000               0.000000000               0.000148709               0.006435861              -0.001097290              -0.000748715               0.002394837               0.001646122               0.000000000               0.000000000               0.000000000               0.000000000              -0.000026222               0.005796148              -0.001033926              -0.000734350               0.002176813               0.001442463               0.000000000               0.000000000               0.000000000               0.000000000              -0.000154627               0.005186432              -0.000967079              -0.000706288               0.001964223               0.001257935               0.000000000               0.000000000               0.000000000               0.000000000              -0.000243434               0.004594865              -0.000890711              -0.000665644               0.001753488               0.001087843               0.000000000               0.000000000               0.000000000               0.000000000              -0.000293971               0.004011764              -0.000809117              -0.000611709               0.001541144               0.000929436               0.000000000               0.000000000               0.000000000               0.000000000              -0.000301391               0.003431626              -0.000723640              -0.000541974               0.001324522               0.000782548               0.000000000               0.000000000               0.000000000               0.000000000              -0.000271013               0.002846913              -0.000616542              -0.000457493               0.001101459               0.000643966               0.000000000               0.000000000               0.000000000               0.000000000              -0.000205251               0.002257515              -0.000471019              -0.000359158               0.000872217               0.000513059               0.000000000               0.000000000               0.000000000               0.000000000              -0.000108781               0.001672714              -0.000266199              -0.000249881               0.000640859               0.000390978               0.000000000               0.000000000               0.000000000               0.000000000              -0.000096765               0.001271399              -0.000161474              -0.000195211               0.000488866               0.000293654               0.000000000               0.000000000               0.000000000               0.000000000               0.002393431               0.018400209               0.003534763              -0.001402488               0.006600837               0.005198349               0.000000000               0.000000000               0.000000000               0.000000000               0.001354630               0.014627268               0.001510158              -0.001320420               0.005315847               0.003995427               0.000000000               0.000000000               0.000000000               0.000000000               0.000931299               0.011867677              -0.000427749              -0.001134220               0.004333926               0.003199706               0.000000000               0.000000000               0.000000000               0.000000000               0.000423006               0.010192659              -0.001139948              -0.001115453               0.003769337               0.002653884               0.000000000               0.000000000               0.000000000               0.000000000               0.000024517               0.009016941              -0.001370057              -0.001117921               0.003378257               0.002260336               0.000000000               0.000000000               0.000000000               0.000000000              -0.000252552               0.008101679              -0.001399131              -0.001107415               0.003069671               0.001962256               0.000000000               0.000000000               0.000000000               0.000000000              -0.000435437               0.007333448              -0.001352829              -0.001079968               0.002804447               0.001724480               0.000000000               0.000000000               0.000000000               0.000000000              -0.000544933               0.006650340              -0.001279304              -0.001035640               0.002561971               0.001526331               0.000000000               0.000000000               0.000000000               0.000000000              -0.000601992               0.006017422              -0.001192925              -0.000977923               0.002331761               0.001353838               0.000000000               0.000000000               0.000000000               0.000000000              -0.000618046               0.005417110              -0.001104650              -0.000908904               0.002108653               0.001199749               0.000000000               0.000000000               0.000000000               0.000000000              -0.000598771               0.004845191              -0.001010461              -0.000830186               0.001891776               0.001061590               0.000000000               0.000000000               0.000000000               0.000000000              -0.000549381               0.004302012              -0.000906272              -0.000743768               0.001681912               0.000938144               0.000000000               0.000000000               0.000000000               0.000000000              -0.000470647               0.003782604              -0.000792554              -0.000649317               0.001477294               0.000827977               0.000000000               0.000000000               0.000000000               0.000000000              -0.000364007               0.003291478              -0.000656362              -0.000547936               0.001279794               0.000731857               0.000000000               0.000000000               0.000000000               0.000000000              -0.000240759               0.002841360              -0.000485705              -0.000445454               0.001095595               0.000650141               0.000000000               0.000000000               0.000000000               0.000000000              -0.000117848               0.002450419              -0.000266908              -0.000350495               0.000933630               0.000583135               0.000000000               0.000000000               0.000000000               0.000000000              -0.000080623               0.002219417              -0.000155178              -0.000307660               0.000842352               0.000534692               0.000000000               0.000000000               0.000000000               0.000000000               0.002284000               0.015830708               0.003891470              -0.001122339               0.005650962               0.004528623               0.000000000               0.000000000               0.000000000               0.000000000               0.000757313               0.013090175               0.001668422              -0.001352277               0.004814107               0.003461830               0.000000000               0.000000000               0.000000000               0.000000000              -0.000181380               0.011296399              -0.000416321              -0.001480064               0.004258783               0.002778719               0.000000000               0.000000000               0.000000000               0.000000000              -0.000769323               0.010035317              -0.001120500              -0.001542907               0.003859374               0.002316467               0.000000000               0.000000000               0.000000000               0.000000000              -0.001085256               0.009045852              -0.001322107              -0.001537699               0.003527820               0.001990121               0.000000000               0.000000000               0.000000000               0.000000000              -0.001223076               0.008211872              -0.001328095              -0.001485134               0.003232308               0.001747174               0.000000000               0.000000000               0.000000000               0.000000000              -0.001248118               0.007477977              -0.001266704              -0.001402788               0.002960230               0.001557442               0.000000000               0.000000000               0.000000000               0.000000000              -0.001202627               0.006810568              -0.001184765              -0.001302303               0.002704268               0.001401964               0.000000000               0.000000000               0.000000000               0.000000000              -0.001117793               0.006189362              -0.001094745              -0.001192840               0.002460713               0.001267873               0.000000000               0.000000000               0.000000000               0.000000000              -0.001005041               0.005609361              -0.001001609              -0.001078058               0.002229121               0.001151063               0.000000000               0.000000000               0.000000000               0.000000000              -0.000870872               0.005065891              -0.000906322              -0.000959811               0.002008550               0.001048739               0.000000000               0.000000000               0.000000000               0.000000000              -0.000718307               0.004570180              -0.000801529              -0.000840636               0.001803590               0.000962954               0.000000000               0.000000000               0.000000000               0.000000000              -0.000551135               0.004123753              -0.000682202              -0.000722143               0.001615285               0.000893142               0.000000000               0.000000000               0.000000000               0.000000000              -0.000382824               0.003729977              -0.000544390              -0.000609805               0.001446581               0.000836777               0.000000000               0.000000000               0.000000000               0.000000000              -0.000228641               0.003405440              -0.000382740              -0.000511419               0.001305608               0.000794189               0.000000000               0.000000000               0.000000000               0.000000000              -0.000103827               0.003171234              -0.000198812              -0.000435338               0.001202180               0.000766842               0.000000000               0.000000000               0.000000000               0.000000000              -0.000057517               0.003066311              -0.000106985              -0.000404857               0.001157046               0.000752189               0.000000000               0.000000000               0.000000000               0.000000000               0.001870019               0.013070314               0.003782762              -0.000932533               0.004667571               0.003735038               0.000000000               0.000000000               0.000000000               0.000000000              -0.000029227               0.011472010               0.001667846              -0.001444959               0.004305618               0.002860659               0.000000000               0.000000000               0.000000000               0.000000000              -0.001371680               0.010668917              -0.000276940              -0.001847990               0.004172267               0.002324277               0.000000000               0.000000000               0.000000000               0.000000000              -0.001928421               0.009793393              -0.000874234              -0.001947327               0.003913541               0.001966213               0.000000000               0.000000000               0.000000000               0.000000000              -0.002087530               0.008966378              -0.001026015              -0.001903616               0.003623301               0.001719685               0.000000000               0.000000000               0.000000000               0.000000000              -0.002043991               0.008206358              -0.001019125              -0.001792287               0.003332854               0.001540567               0.000000000               0.000000000               0.000000000               0.000000000              -0.001889569               0.007512960              -0.000962116              -0.001647704               0.003053530               0.001405825               0.000000000               0.000000000               0.000000000               0.000000000              -0.001680225               0.006866584              -0.000892981              -0.001488404               0.002784973               0.001296569               0.000000000               0.000000000               0.000000000               0.000000000              -0.001453860               0.006266014              -0.000817164              -0.001328446               0.002531466               0.001203019               0.000000000               0.000000000               0.000000000               0.000000000              -0.001220857               0.005709260              -0.000736846              -0.001171476               0.002293560               0.001122084               0.000000000               0.000000000               0.000000000               0.000000000              -0.000980380               0.005201845              -0.000657601              -0.001017871               0.002073221               0.001055350               0.000000000               0.000000000               0.000000000               0.000000000              -0.000743110               0.004757040              -0.000570269              -0.000873294               0.001876762               0.001003468               0.000000000               0.000000000               0.000000000               0.000000000              -0.000520337               0.004375550              -0.000462805              -0.000742068               0.001705858               0.000963790               0.000000000               0.000000000               0.000000000               0.000000000              -0.000326517               0.004062961              -0.000343183              -0.000630313               0.001564411               0.000934098               0.000000000               0.000000000               0.000000000               0.000000000              -0.000172579               0.003834243              -0.000219838              -0.000543996               0.001459400               0.000915404               0.000000000               0.000000000               0.000000000               0.000000000              -0.000066605               0.003704976              -0.000102434              -0.000488098               0.001397679               0.000909581               0.000000000               0.000000000               0.000000000               0.000000000              -0.000026191               0.003671524              -0.000047224              -0.000468761               0.001380083               0.000911322               0.000000000               0.000000000               0.000000000               0.000000000               0.001079111               0.010360753               0.003294009              -0.000890428               0.003750358               0.002859930               0.000000000               0.000000000               0.000000000               0.000000000              -0.000967084               0.009906582               0.001568922              -0.001600976               0.003835819               0.002234843               0.000000000               0.000000000               0.000000000               0.000000000              -0.002511310               0.010004199              -0.000000904              -0.002192261               0.004065453               0.001873193               0.000000000               0.000000000               0.000000000               0.000000000              -0.002907121               0.009444842              -0.000446491              -0.002270770               0.003905172               0.001634403               0.000000000               0.000000000               0.000000000               0.000000000              -0.002847242               0.008750231              -0.000564392              -0.002161489               0.003637211               0.001475721               0.000000000               0.000000000               0.000000000               0.000000000              -0.002593059               0.008064284              -0.000570955              -0.001980428               0.003348210               0.001367782               0.000000000               0.000000000               0.000000000               0.000000000              -0.002259895               0.007412740              -0.000538687              -0.001774049               0.003062238               0.001288189               0.000000000               0.000000000               0.000000000               0.000000000              -0.001907161               0.006794814              -0.000498476              -0.001564533               0.002786426               0.001221893               0.000000000               0.000000000               0.000000000               0.000000000              -0.001559437               0.006224707              -0.000455318              -0.001362874               0.002529173               0.001166299               0.000000000               0.000000000               0.000000000               0.000000000              -0.001229256               0.005702946              -0.000403534              -0.001173836               0.002292242               0.001118405               0.000000000               0.000000000               0.000000000               0.000000000              -0.000920174               0.005239697              -0.000352544              -0.001000025               0.002079890               0.001079865               0.000000000               0.000000000               0.000000000               0.000000000              -0.000637968               0.004845616              -0.000295440              -0.000844938               0.001896835               0.001051897               0.000000000               0.000000000               0.000000000               0.000000000              -0.000395177               0.004526278              -0.000221018              -0.000713975               0.001746736               0.001032761               0.000000000               0.000000000               0.000000000               0.000000000              -0.000205853               0.004291844              -0.000143473              -0.000613674               0.001635159               0.001021484               0.000000000               0.000000000               0.000000000               0.000000000              -0.000079858               0.004149364              -0.000074928              -0.000548616               0.001565980               0.001017364               0.000000000               0.000000000               0.000000000               0.000000000              -0.000017142               0.004096356              -0.000025385              -0.000518471               0.001538262               0.001019791               0.000000000               0.000000000               0.000000000               0.000000000               0.000002885               0.004101899              -0.000004112              -0.000511654               0.001537837               0.001026183               0.000000000               0.000000000               0.000000000               0.000000000              -0.000045757               0.007866139               0.002544812              -0.001000425               0.002955494               0.001955069               0.000000000               0.000000000               0.000000000               0.000000000              -0.001993318               0.008479360               0.001432681              -0.001807411               0.003428895               0.001621484               0.000000000               0.000000000               0.000000000               0.000000000              -0.003484561               0.009299781               0.000398270              -0.002469177               0.003922955               0.001453778               0.000000000               0.000000000               0.000000000               0.000000000              -0.003609584               0.008984054               0.000085147              -0.002476594               0.003820186               0.001343592               0.000000000               0.000000000               0.000000000               0.000000000              -0.003298932               0.008411899              -0.000033658              -0.002288581               0.003566799               0.001278217               0.000000000               0.000000000               0.000000000               0.000000000              -0.002843610               0.007795748              -0.000077859              -0.002040817               0.003278829               0.001238012               0.000000000               0.000000000               0.000000000               0.000000000              -0.002352402               0.007185176              -0.000092201              -0.001780293               0.002988466               0.001208173               0.000000000               0.000000000               0.000000000               0.000000000              -0.001880320               0.006609563              -0.000098642              -0.001531311               0.002713603               0.001182291               0.000000000               0.000000000               0.000000000               0.000000000              -0.001445713               0.006076409              -0.000100740              -0.001301690               0.002459346               0.001157656               0.000000000               0.000000000               0.000000000               0.000000000              -0.001054988               0.005597176              -0.000089232              -0.001095265               0.002230795               0.001135530               0.000000000               0.000000000               0.000000000               0.000000000              -0.000715001               0.005190016              -0.000073752              -0.000916875               0.002035613               0.001118738               0.000000000               0.000000000               0.000000000               0.000000000              -0.000424713               0.004858848              -0.000057772              -0.000766622               0.001875140               0.001108519               0.000000000               0.000000000               0.000000000               0.000000000              -0.000195971               0.004616568              -0.000032315              -0.000650559               0.001755693               0.001105135               0.000000000               0.000000000               0.000000000               0.000000000              -0.000041919               0.004472994              -0.000007788              -0.000574842               0.001682597               0.001107755               0.000000000               0.000000000               0.000000000               0.000000000               0.000032664               0.004422643               0.000007349              -0.000540580               0.001654393               0.001113813               0.000000000               0.000000000               0.000000000               0.000000000               0.000038852               0.004441602               0.000011134              -0.000540630               0.001660729               0.001120099               0.000000000               0.000000000               0.000000000               0.000000000               0.000031862               0.004479782               0.000013855              -0.000548023               0.001675920               0.001127897               0.000000000               0.000000000               0.000000000               0.000000000              -0.001359819               0.005765345               0.001655779              -0.001230598               0.002331961               0.001101363               0.000000000               0.000000000               0.000000000               0.000000000              -0.002995401               0.007196590               0.001295937              -0.002022845               0.003073121               0.001050276               0.000000000               0.000000000               0.000000000               0.000000000              -0.004249580               0.008573105               0.000877912              -0.002665224               0.003746081               0.001080857               0.000000000               0.000000000               0.000000000               0.000000000              -0.004090837               0.008509889               0.000644484              -0.002597793               0.003702532               0.001104739               0.000000000               0.000000000               0.000000000               0.000000000              -0.003569824               0.008085867               0.000498519              -0.002349412               0.003478399               0.001128988               0.000000000               0.000000000               0.000000000               0.000000000              -0.002954537               0.007559337               0.000399733              -0.002052863               0.003204042               0.001151178               0.000000000               0.000000000               0.000000000               0.000000000              -0.002340823               0.007014114               0.000324617              -0.001754569               0.002922871               0.001168302               0.000000000               0.000000000               0.000000000               0.000000000              -0.001775769               0.006490221               0.000265651              -0.001477187               0.002655781               0.001178594               0.000000000               0.000000000               0.000000000               0.000000000              -0.001280036               0.005994294               0.000219962              -0.001229297               0.002407844               0.001178547               0.000000000               0.000000000               0.000000000               0.000000000              -0.000846025               0.005555854               0.000187190              -0.001011739               0.002189179               0.001177441               0.000000000               0.000000000               0.000000000               0.000000000              -0.000477070               0.005192920               0.000158040              -0.000828014               0.002006961               0.001178947               0.000000000               0.000000000               0.000000000               0.000000000              -0.000182632               0.004908897               0.000124564              -0.000682097               0.001863648               0.001181551               0.000000000               0.000000000               0.000000000               0.000000000               0.000023274               0.004721107               0.000092357              -0.000581409               0.001767490               0.001186080               0.000000000               0.000000000               0.000000000               0.000000000               0.000135946               0.004641811               0.000062865              -0.000529245               0.001723670               0.001194425               0.000000000               0.000000000               0.000000000               0.000000000               0.000167046               0.004653578               0.000037271              -0.000519054               0.001724195               0.001205142               0.000000000               0.000000000               0.000000000               0.000000000               0.000142777               0.004725737               0.000016940              -0.000537175               0.001754288               0.001217114               0.000000000               0.000000000               0.000000000               0.000000000               0.000114944               0.004779318               0.000007508              -0.000554309               0.001777860               0.001223550               0.000000000               0.000000000               0.000000000               0.000000000              -0.002871002               0.003824330               0.000732154              -0.001554664               0.001792985               0.000238321               0.000000000               0.000000000               0.000000000               0.000000000              -0.003848858               0.005696391               0.001147809              -0.002155365               0.002617233               0.000461867               0.000000000               0.000000000               0.000000000               0.000000000              -0.004725796               0.007474458               0.001377351              -0.002706474               0.003393619               0.000687145               0.000000000               0.000000000               0.000000000               0.000000000              -0.004409341               0.007791148               0.001228234              -0.002627390               0.003472820               0.000845430               0.000000000               0.000000000               0.000000000               0.000000000              -0.003804776               0.007636343               0.001052661              -0.002381328               0.003339198               0.000957870               0.000000000               0.000000000               0.000000000               0.000000000              -0.003134592               0.007312539               0.000897252              -0.002089534               0.003134000               0.001044466               0.000000000               0.000000000               0.000000000               0.000000000              -0.002481418               0.006920149               0.000761044              -0.001795546               0.002905208               0.001109662               0.000000000               0.000000000               0.000000000               0.000000000              -0.001877888               0.006506908               0.000649096              -0.001517568               0.002674803               0.001157236               0.000000000               0.000000000               0.000000000               0.000000000              -0.001342295               0.006098662               0.000557976              -0.001265690               0.002454764               0.001189073               0.000000000               0.000000000               0.000000000               0.000000000              -0.000871204               0.005726002               0.000482338              -0.001042449               0.002256131               0.001213682               0.000000000               0.000000000               0.000000000               0.000000000              -0.000469303               0.005398450               0.000408846              -0.000850793               0.002083063               0.001232270               0.000000000               0.000000000               0.000000000               0.000000000              -0.000140110               0.005130547               0.000329458              -0.000693858               0.001941451               0.001247593               0.000000000               0.000000000               0.000000000               0.000000000               0.000106078               0.004939423               0.000243374              -0.000577647               0.001839007               0.001261360               0.000000000               0.000000000               0.000000000               0.000000000               0.000259151               0.004837505               0.000160735              -0.000507505               0.001781654               0.001274148               0.000000000               0.000000000               0.000000000               0.000000000               0.000323906               0.004821396               0.000091557              -0.000481209               0.001767519               0.001286310               0.000000000               0.000000000               0.000000000               0.000000000               0.000320734               0.004883646               0.000037634              -0.000490179               0.001791259               0.001301080               0.000000000               0.000000000               0.000000000               0.000000000               0.000286328               0.004921189               0.000007764              -0.000507774               0.001809638               0.001301864               0.000000000               0.000000000               0.000000000               0.000000000              -0.004766493               0.002072902              -0.000150861              -0.002046544               0.001373140              -0.000673405               0.000000000               0.000000000               0.000000000               0.000000000              -0.004806568               0.004173956               0.000941041              -0.002324203               0.002166038              -0.000158165               0.000000000               0.000000000               0.000000000               0.000000000              -0.005125382               0.006155788               0.001777104              -0.002691485               0.002949070               0.000257585               0.000000000               0.000000000               0.000000000               0.000000000              -0.004672467               0.006833322               0.001779554              -0.002606334               0.003146529               0.000540195               0.000000000               0.000000000               0.000000000               0.000000000              -0.004020683               0.006987862               0.001607248              -0.002381233               0.003123008               0.000741775               0.000000000               0.000000000               0.000000000               0.000000000              -0.003333661               0.006905279               0.001413754              -0.002113278               0.003006162               0.000892885               0.000000000               0.000000000               0.000000000               0.000000000              -0.002657753               0.006702131               0.001230879              -0.001834419               0.002845494               0.001011075               0.000000000               0.000000000               0.000000000               0.000000000              -0.002028750               0.006434769               0.001070463              -0.001565124               0.002666609               0.001101485               0.000000000               0.000000000               0.000000000               0.000000000              -0.001459768               0.006143124               0.000936185              -0.001315300               0.002486121               0.001170821               0.000000000               0.000000000               0.000000000               0.000000000              -0.000951047               0.005855129               0.000820370              -0.001088531               0.002314534               0.001226003               0.000000000               0.000000000               0.000000000               0.000000000              -0.000498732               0.005591219               0.000710632              -0.000885925               0.002159029               0.001273104               0.000000000               0.000000000               0.000000000               0.000000000              -0.000107666               0.005356124               0.000595263              -0.000709889               0.002021986               0.001312098               0.000000000               0.000000000               0.000000000               0.000000000               0.000207199               0.005161077               0.000467317              -0.000567434               0.001909487               0.001342053               0.000000000               0.000000000               0.000000000               0.000000000               0.000438012               0.005025976               0.000335216              -0.000463992               0.001829973               0.001365981               0.000000000               0.000000000               0.000000000               0.000000000               0.000572562               0.004957695               0.000207218              -0.000405000               0.001787549               0.001382548               0.000000000               0.000000000               0.000000000               0.000000000               0.000609593               0.004955562               0.000093021              -0.000390847               0.001782120               0.001391273               0.000000000               0.000000000               0.000000000               0.000000000               0.000580775               0.004952778               0.000033134              -0.000401306               0.001784678               0.001383372               0.000000000               0.000000000               0.000000000               0.000000000              -0.006905875               0.000668509              -0.000901999              -0.002673264               0.001113917              -0.001559348               0.000000000               0.000000000               0.000000000               0.000000000              -0.005902956               0.002741788               0.000670993              -0.002556328               0.001766026              -0.000790301               0.000000000               0.000000000               0.000000000               0.000000000              -0.005466928               0.004647916               0.001975514              -0.002631082               0.002426315              -0.000204766               0.000000000               0.000000000               0.000000000               0.000000000              -0.004795544               0.005572558               0.002166550              -0.002494893               0.002689131               0.000194238               0.000000000               0.000000000               0.000000000               0.000000000              -0.004082461               0.006007595               0.002046095              -0.002281867               0.002763133               0.000481266               0.000000000               0.000000000               0.000000000               0.000000000              -0.003383941               0.006176685               0.001851179              -0.002041059               0.002739227               0.000698168               0.000000000               0.000000000               0.000000000               0.000000000              -0.002704531               0.006184773               0.001650459              -0.001787292               0.002657334               0.000870042               0.000000000               0.000000000               0.000000000               0.000000000              -0.002066265               0.006093600               0.001459744              -0.001536546               0.002543361               0.001006815               0.000000000               0.000000000               0.000000000               0.000000000              -0.001478816               0.005948049               0.001292185              -0.001298059               0.002415349               0.001117290               0.000000000               0.000000000               0.000000000               0.000000000              -0.000941975               0.005776419               0.001147488              -0.001075291               0.002283884               0.001208593               0.000000000               0.000000000               0.000000000               0.000000000              -0.000446819               0.005603260               0.001015676              -0.000867963               0.002157056               0.001289093               0.000000000               0.000000000               0.000000000               0.000000000               0.000004055               0.005437984               0.000873606              -0.000678226               0.002038718               0.001360492               0.000000000               0.000000000               0.000000000               0.000000000               0.000396884               0.005285572               0.000715597              -0.000511864               0.001932461               0.001420597               0.000000000               0.000000000               0.000000000               0.000000000               0.000713558               0.005149911               0.000545759              -0.000376154               0.001842004               0.001465851               0.000000000               0.000000000               0.000000000               0.000000000               0.000937770               0.005056073               0.000363146              -0.000280345               0.001778789               0.001498444               0.000000000               0.000000000               0.000000000               0.000000000               0.001050700               0.005011109               0.000177309              -0.000232376               0.001747811               0.001515436               0.000000000               0.000000000               0.000000000               0.000000000               0.001062497               0.004990419               0.000082695              -0.000225365               0.001738578               0.001513213               0.000000000               0.000000000               0.000000000               0.000000000              -0.009141615              -0.000310750              -0.001401183              -0.003389259               0.001026162              -0.002363097               0.000000000               0.000000000               0.000000000               0.000000000              -0.007072153               0.001485665               0.000385245              -0.002837762               0.001441132              -0.001396629               0.000000000               0.000000000               0.000000000               0.000000000              -0.005772749               0.003086765               0.001945856              -0.002550622               0.001879116              -0.000671506               0.000000000               0.000000000               0.000000000               0.000000000              -0.004801112               0.004122334               0.002301898              -0.002315704               0.002145998              -0.000169707               0.000000000               0.000000000               0.000000000               0.000000000              -0.003990094               0.004771331               0.002262580              -0.002092697               0.002287992               0.000195295               0.000000000               0.000000000               0.000000000               0.000000000              -0.003270072               0.005172596               0.002102415              -0.001872847               0.002348463               0.000475616               0.000000000               0.000000000               0.000000000               0.000000000              -0.002602844               0.005394841               0.001908540              -0.001650418               0.002348401               0.000697983               0.000000000               0.000000000               0.000000000               0.000000000              -0.001972131               0.005486299               0.001713849              -0.001425334               0.002303859               0.000878525               0.000000000               0.000000000               0.000000000               0.000000000              -0.001376981               0.005498473               0.001536686              -0.001203675               0.002234030               0.001030356               0.000000000               0.000000000               0.000000000               0.000000000              -0.000817916               0.005466843               0.001381848              -0.000990072               0.002152286               0.001162214               0.000000000               0.000000000               0.000000000               0.000000000              -0.000292586               0.005407147               0.001241590              -0.000785612               0.002064235               0.001278623               0.000000000               0.000000000               0.000000000               0.000000000               0.000206300               0.005332971               0.001093791              -0.000589258               0.001974058               0.001384800               0.000000000               0.000000000               0.000000000               0.000000000               0.000677146               0.005252184               0.000924733              -0.000402593               0.001884908               0.001482315               0.000000000               0.000000000               0.000000000               0.000000000               0.001094542               0.005168121               0.000730775              -0.000235562               0.001801210               0.001565648               0.000000000               0.000000000               0.000000000               0.000000000               0.001437114               0.005094728               0.000507116              -0.000097923               0.001730867               0.001632944               0.000000000               0.000000000               0.000000000               0.000000000               0.001681480               0.005039100               0.000260373               0.000000667               0.001679461               0.001680128               0.000000000               0.000000000               0.000000000               0.000000000               0.001787905               0.005022674               0.000138648               0.000042629               0.001659998               0.001702627               0.000000000               0.000000000               0.000000000               0.000000000              -0.011276288              -0.000904471              -0.001548078              -0.004115546               0.001070351              -0.003045196               0.000000000               0.000000000               0.000000000               0.000000000              -0.008223504               0.000474055               0.000150227              -0.003143068               0.001205699              -0.001937369               0.000000000               0.000000000               0.000000000               0.000000000              -0.006043646               0.001638901               0.001690775              -0.002471226               0.001370032              -0.001101194               0.000000000               0.000000000               0.000000000               0.000000000              -0.004726944               0.002658621               0.002130711              -0.002104928               0.001587838              -0.000517090               0.000000000               0.000000000               0.000000000               0.000000000              -0.003780721               0.003439850               0.002165541              -0.001847748               0.001762520              -0.000085228               0.000000000               0.000000000               0.000000000               0.000000000              -0.003025026               0.004015774               0.002056316              -0.001636353               0.001884028               0.000247675               0.000000000               0.000000000               0.000000000               0.000000000              -0.002364466               0.004418593               0.001896828              -0.001438996               0.001952514               0.000513518               0.000000000               0.000000000               0.000000000               0.000000000              -0.001749359               0.004687863               0.001726881              -0.001241990               0.001976602               0.000734612               0.000000000               0.000000000               0.000000000               0.000000000              -0.001160317               0.004862117               0.001566335              -0.001042882               0.001968316               0.000925434               0.000000000               0.000000000               0.000000000               0.000000000              -0.000593544               0.004975493               0.001423175              -0.000844514               0.001939985               0.001095471               0.000000000               0.000000000               0.000000000               0.000000000              -0.000043095               0.005042448               0.001296520              -0.000646466               0.001896288               0.001249822               0.000000000               0.000000000               0.000000000               0.000000000               0.000496971               0.005070955               0.001167701              -0.000447505               0.001839470               0.001391965               0.000000000               0.000000000               0.000000000               0.000000000               0.001027688               0.005078725               0.001011651              -0.000249458               0.001776044               0.001526586               0.000000000               0.000000000               0.000000000               0.000000000               0.001541870               0.005078679               0.000819026              -0.000056634               0.001711754               0.001655120               0.000000000               0.000000000               0.000000000               0.000000000               0.002024337               0.005062708               0.000588323               0.000126287               0.001645457               0.001771743               0.000000000               0.000000000               0.000000000               0.000000000               0.002455277               0.005031779               0.000314007               0.000291753               0.001579992               0.001871745               0.000000000               0.000000000               0.000000000               0.000000000               0.002710984               0.005038595               0.000178018               0.000386791               0.001550585               0.001937375               0.000000000               0.000000000               0.000000000               0.000000000              -0.013062132              -0.001194180              -0.001315538              -0.004749024               0.001184940              -0.003564084               0.000000000               0.000000000               0.000000000               0.000000000              -0.009217887              -0.000248984               0.000012156              -0.003425582               0.001058859              -0.002366723               0.000000000               0.000000000               0.000000000               0.000000000              -0.006273772               0.000460912               0.001248049              -0.002410276               0.000957056              -0.001453220               0.000000000               0.000000000               0.000000000               0.000000000              -0.004625646               0.001386674               0.001647878              -0.001907949               0.001098199              -0.000809750               0.000000000               0.000000000               0.000000000               0.000000000              -0.003543075               0.002220628               0.001716186              -0.001606229               0.001275610              -0.000330619               0.000000000               0.000000000               0.000000000               0.000000000              -0.002735442               0.002905868               0.001656332              -0.001389021               0.001431619               0.000042598               0.000000000               0.000000000               0.000000000               0.000000000              -0.002064175               0.003451275               0.001548084              -0.001205473               0.001552237               0.000346765               0.000000000               0.000000000               0.000000000               0.000000000              -0.001458701               0.003872854               0.001423146              -0.001031118               0.001634644               0.000603526               0.000000000               0.000000000               0.000000000               0.000000000              -0.000884900               0.004190070               0.001300276              -0.000855595               0.001681874               0.000826279               0.000000000               0.000000000               0.000000000               0.000000000              -0.000320039               0.004429743               0.001191927              -0.000673731               0.001701143               0.001027412               0.000000000               0.000000000               0.000000000               0.000000000               0.000247521               0.004608264               0.001099722              -0.000483212               0.001697143               0.001213931               0.000000000               0.000000000               0.000000000               0.000000000               0.000818566               0.004739495               0.001001767              -0.000285475               0.001674974               0.001389499               0.000000000               0.000000000               0.000000000               0.000000000               0.001399185               0.004842089               0.000880183              -0.000080567               0.001640869               0.001560302               0.000000000               0.000000000               0.000000000               0.000000000               0.002005026               0.004923851               0.000730004               0.000136402               0.001595800               0.001732202               0.000000000               0.000000000               0.000000000               0.000000000               0.002633465               0.004974656               0.000542519               0.000365714               0.001536297               0.001902011               0.000000000               0.000000000               0.000000000               0.000000000               0.003274826               0.004994462               0.000299562               0.000603746               0.001463555               0.002067301               0.000000000               0.000000000               0.000000000               0.000000000               0.003716741               0.005042276               0.000178199               0.000763486               0.001426247               0.002189732               0.000000000               0.000000000               0.000000000               0.000000000              -0.014255253              -0.001301864              -0.000753659              -0.005182984               0.001293698              -0.003889286               0.000000000               0.000000000               0.000000000               0.000000000              -0.009891478              -0.000675019              -0.000026017              -0.003624924               0.000983295              -0.002641629               0.000000000               0.000000000               0.000000000               0.000000000              -0.006433592              -0.000308077               0.000662638              -0.002374086               0.000688665              -0.001685421               0.000000000               0.000000000               0.000000000               0.000000000              -0.004539900               0.000515349               0.000901602              -0.001766880               0.000760737              -0.001006142               0.000000000               0.000000000               0.000000000               0.000000000              -0.003352169               0.001355704               0.000953371              -0.001426524               0.000927403              -0.000499121               0.000000000               0.000000000               0.000000000               0.000000000              -0.002500546               0.002099646               0.000930310              -0.001200158               0.001099927              -0.000100231               0.000000000               0.000000000               0.000000000               0.000000000              -0.001819445               0.002731461               0.000878080              -0.001023722               0.001251718               0.000227996               0.000000000               0.000000000               0.000000000               0.000000000              -0.001216131               0.003251343               0.000811997              -0.000862465               0.001371258               0.000508793               0.000000000               0.000000000               0.000000000               0.000000000              -0.000645927               0.003663400               0.000744039              -0.000700146               0.001454503               0.000754357               0.000000000               0.000000000               0.000000000               0.000000000              -0.000082271               0.003984627               0.000686525              -0.000528929               0.001504505               0.000975576               0.000000000               0.000000000               0.000000000               0.000000000               0.000485200               0.004240330               0.000637722              -0.000348091               0.001529459               0.001181368               0.000000000               0.000000000               0.000000000               0.000000000               0.001069853               0.004453990               0.000581476              -0.000155554               0.001536500               0.001380946               0.000000000               0.000000000               0.000000000               0.000000000               0.001692865               0.004637142               0.000514808               0.000055181               0.001527305               0.001582485               0.000000000               0.000000000               0.000000000               0.000000000               0.002370780               0.004788284               0.000435275               0.000290504               0.001499244               0.001789748               0.000000000               0.000000000               0.000000000               0.000000000               0.003114294               0.004899963               0.000330126               0.000555359               0.001448185               0.002003544               0.000000000               0.000000000               0.000000000               0.000000000               0.003935826               0.004964928               0.000185912               0.000855310               0.001369856               0.002225166               0.000000000               0.000000000               0.000000000               0.000000000               0.004546132               0.005047375               0.000114698               0.001073867               0.001324486               0.002398353               0.000000000               0.000000000               0.000000000               0.000000000               0.000000000               0.000000000               0.000000000               0.000000000               0.000000000               0.000000000               0.000000000               0.000000000               0.000000000               0.000000000               0.000000000               0.000000000               0.000000000               0.000000000               0.000000000               0.000000000               0.000000000               0.000000000               0.000000000               0.000000000               0.000000000               0.000000000               0.000000000               0.000000000               0.000000000               0.000000000               0.000000000               0.000000000               0.000000000               0.000000000               0.000000000               0.000000000               0.000000000               0.000000000               0.000000000               0.000000000               0.000000000               0.000000000               0.000000000               0.000000000               0.000000000               0.000000000               0.000000000               0.000000000               0.000000000               0.000000000               0.000000000               0.000000000               0.000000000               0.000000000               0.000000000               0.000000000               0.000000000               0.000000000               0.000000000               0.000000000               0.000000000               0.000000000               0.000000000               0.000000000               0.000000000               0.000000000               0.000000000               0.000000000               0.000000000               0.000000000               0.000000000               0.000000000               0.000000000               0.000000000               0.000000000               0.000000000               0.000000000               0.000000000               0.000000000               0.000000000               0.000000000               0.000000000               0.000000000               0.000000000               0.000000000               0.000000000               0.000000000               0.000000000               0.000000000               0.000000000               0.000000000               0.000000000               0.000000000               0.000000000               0.000000000               0.000000000               0.000000000               0.000000000               0.000000000               0.000000000               0.000000000               0.000000000               0.000000000               0.000000000               0.000000000               0.000000000               0.000000000               0.000000000               0.000000000               0.000000000               0.000000000               0.000000000               0.000000000               0.000000000               0.000000000               0.000000000               0.000000000               0.000000000               0.000000000               0.000000000               0.000000000               0.000000000               0.000000000               0.000000000               0.000000000               0.000000000               0.000000000               0.000000000               0.000000000               0.000000000               0.000000000               0.000000000               0.000000000               0.000000000               0.000000000               0.000000000               0.000000000               0.000000000               0.000000000               0.000000000               0.000000000               0.000000000               0.000000000               0.000000000               0.000000000               0.000000000               0.000000000               0.000000000               0.000000000               0.000000000               0.000000000               0.000000000               0.000000000               0.000000000               0.000000000               0.000000000               0.000000000               0.000000000               0.000000000               0.000000000               0.000000000               0.000000000               0.000000000               0.000000000               0.000000000               0.000000000               0.000000000               0.000000000               0.000000000               0.000000000               0.000000000               0.000000000               0.000000000               0.000000000 </DataArray>
</PointData>
</Piece>
</UnstructuredGrid> </VTKFile>
