<?xml version="1.0"?>
<VTKFile type="UnstructuredGrid" version="0.1">
<UnstructuredGrid>
<Piece NumberOfPoints="      1156" NumberOfCells="      1024">
<Points>
<DataArray type="Float64"                                    Name="coordinates"                                                      NumberOfComponents=" 3" format="ascii">
              0.133000000               0.000000000               0.000000000               0.155937500               0.000000000               0.000000000               0.178875000               0.000000000               0.000000000               0.201812500               0.000000000               0.000000000               0.224750000               0.000000000               0.000000000               0.247687500               0.000000000               0.000000000               0.270625000               0.000000000               0.000000000               0.293562500               0.000000000               0.000000000               0.316500000               0.000000000               0.000000000               0.339437500               0.000000000               0.000000000               0.362375000               0.000000000               0.000000000               0.385312500               0.000000000               0.000000000               0.408250000               0.000000000               0.000000000               0.431187500               0.000000000               0.000000000               0.454125000               0.000000000               0.000000000               0.477062500               0.000000000               0.000000000               0.500000000               0.000000000               0.000000000               0.132359569               0.013036280               0.000000000               0.155337096               0.016127762               0.000000000               0.178314623               0.019219245               0.000000000               0.201292150               0.022310727               0.000000000               0.224269676               0.025402210               0.000000000               0.247247203               0.028493692               0.000000000               0.270224730               0.031585175               0.000000000               0.293202257               0.034676657               0.000000000               0.316179784               0.037768140               0.000000000               0.339157311               0.040859622               0.000000000               0.362134838               0.043951105               0.000000000               0.385112365               0.047042587               0.000000000               0.408089892               0.050134070               0.000000000               0.431067419               0.053225552               0.000000000               0.454044946               0.056317035               0.000000000               0.477022473               0.059408517               0.000000000               0.500000000               0.062500000               0.000000000               0.130444442               0.025947013               0.000000000               0.153541665               0.032137825               0.000000000               0.176638887               0.038328636               0.000000000               0.199736109               0.044519448               0.000000000               0.222833332               0.050710260               0.000000000               0.245930554               0.056901071               0.000000000               0.269027776               0.063091883               0.000000000               0.292124999               0.069282695               0.000000000               0.315222221               0.075473506               0.000000000               0.338319444               0.081664318               0.000000000               0.361416666               0.087855130               0.000000000               0.384513888               0.094045942               0.000000000               0.407611111               0.100236753               0.000000000               0.430708333               0.106427565               0.000000000               0.453805555               0.112618377               0.000000000               0.476902778               0.118809188               0.000000000               0.500000000               0.125000000               0.000000000               0.127273065               0.038607862               0.000000000               0.150568498               0.047913621               0.000000000               0.173863932               0.057219379               0.000000000               0.197159365               0.066525138               0.000000000               0.220454798               0.075830897               0.000000000               0.243750232               0.085136655               0.000000000               0.267045665               0.094442414               0.000000000               0.290341099               0.103748172               0.000000000               0.313636532               0.113053931               0.000000000               0.336931966               0.122359690               0.000000000               0.360227399               0.131665448               0.000000000               0.383522833               0.140971207               0.000000000               0.406818266               0.150276966               0.000000000               0.430113700               0.159582724               0.000000000               0.453409133               0.168888483               0.000000000               0.476704567               0.178194241               0.000000000               0.500000000               0.187500000               0.000000000               0.122875978               0.050896897               0.000000000               0.146446229               0.063340840               0.000000000               0.170016481               0.075784784               0.000000000               0.193586732               0.088228728               0.000000000               0.217156983               0.100672672               0.000000000               0.240727235               0.113116616               0.000000000               0.264297486               0.125560560               0.000000000               0.287867738               0.138004504               0.000000000               0.311437989               0.150448448               0.000000000               0.335008240               0.162892392               0.000000000               0.358578492               0.175336336               0.000000000               0.382148743               0.187780280               0.000000000               0.405718994               0.200224224               0.000000000               0.429289246               0.212668168               0.000000000               0.452859497               0.225112112               0.000000000               0.476429749               0.237556056               0.000000000               0.500000000               0.250000000               0.000000000               0.117295528               0.062695766               0.000000000               0.141214558               0.078308531               0.000000000               0.165133587               0.093921295               0.000000000               0.189052617               0.109534060               0.000000000               0.212971646               0.125146824               0.000000000               0.236890676               0.140759589               0.000000000               0.260809705               0.156372354               0.000000000               0.284728735               0.171985118               0.000000000               0.308647764               0.187597883               0.000000000               0.332566794               0.203210648               0.000000000               0.356485823               0.218823412               0.000000000               0.380404853               0.234436177               0.000000000               0.404323882               0.250048941               0.000000000               0.428242912               0.265661706               0.000000000               0.452161941               0.281274471               0.000000000               0.476080971               0.296887235               0.000000000               0.500000000               0.312500000               0.000000000               0.110585458               0.073890841               0.000000000               0.134923867               0.092710163               0.000000000               0.159262276               0.111529486               0.000000000               0.183600685               0.130348808               0.000000000               0.207939094               0.149168131               0.000000000               0.232277503               0.167987453               0.000000000               0.256615912               0.186806776               0.000000000               0.280954320               0.205626098               0.000000000               0.305292729               0.224445420               0.000000000               0.329631138               0.243264743               0.000000000               0.353969547               0.262084065               0.000000000               0.378307956               0.280903388               0.000000000               0.402646365               0.299722710               0.000000000               0.426984773               0.318542033               0.000000000               0.451323182               0.337361355               0.000000000               0.475661591               0.356180678               0.000000000               0.500000000               0.375000000               0.000000000               0.102810390               0.084374307               0.000000000               0.127634741               0.106444663               0.000000000               0.152459092               0.128515018               0.000000000               0.177283442               0.150585374               0.000000000               0.202107793               0.172655730               0.000000000               0.226932143               0.194726086               0.000000000               0.251756494               0.216796442               0.000000000               0.276580845               0.238866798               0.000000000               0.301405195               0.260937153               0.000000000               0.326229546               0.283007509               0.000000000               0.351053896               0.305077865               0.000000000               0.375878247               0.327148221               0.000000000               0.400702598               0.349218577               0.000000000               0.425526948               0.371288933               0.000000000               0.450351299               0.393359288               0.000000000               0.475175649               0.415429644               0.000000000               0.500000000               0.437500000               0.000000000               0.094045202               0.094045202               0.000000000               0.119417377               0.119417377               0.000000000               0.144789552               0.144789552               0.000000000               0.170161727               0.170161727               0.000000000               0.195533901               0.195533901               0.000000000               0.220906076               0.220906076               0.000000000               0.246278251               0.246278251               0.000000000               0.271650426               0.271650426               0.000000000               0.297022601               0.297022601               0.000000000               0.322394776               0.322394776               0.000000000               0.347766951               0.347766951               0.000000000               0.373139126               0.373139126               0.000000000               0.398511300               0.398511300               0.000000000               0.423883475               0.423883475               0.000000000               0.449255650               0.449255650               0.000000000               0.474627825               0.474627825               0.000000000               0.500000000               0.500000000               0.000000000               0.084374307               0.102810390               0.000000000               0.106444663               0.127634741               0.000000000               0.128515018               0.152459092               0.000000000               0.150585374               0.177283442               0.000000000               0.172655730               0.202107793               0.000000000               0.194726086               0.226932143               0.000000000               0.216796442               0.251756494               0.000000000               0.238866798               0.276580845               0.000000000               0.260937153               0.301405195               0.000000000               0.283007509               0.326229546               0.000000000               0.305077865               0.351053896               0.000000000               0.327148221               0.375878247               0.000000000               0.349218577               0.400702598               0.000000000               0.371288933               0.425526948               0.000000000               0.393359288               0.450351299               0.000000000               0.415429644               0.475175649               0.000000000               0.437500000               0.500000000               0.000000000               0.073890841               0.110585458               0.000000000               0.092710163               0.134923867               0.000000000               0.111529486               0.159262276               0.000000000               0.130348808               0.183600685               0.000000000               0.149168131               0.207939094               0.000000000               0.167987453               0.232277503               0.000000000               0.186806776               0.256615912               0.000000000               0.205626098               0.280954320               0.000000000               0.224445420               0.305292729               0.000000000               0.243264743               0.329631138               0.000000000               0.262084065               0.353969547               0.000000000               0.280903388               0.378307956               0.000000000               0.299722710               0.402646365               0.000000000               0.318542033               0.426984773               0.000000000               0.337361355               0.451323182               0.000000000               0.356180678               0.475661591               0.000000000               0.375000000               0.500000000               0.000000000               0.062695766               0.117295528               0.000000000               0.078308531               0.141214558               0.000000000               0.093921295               0.165133587               0.000000000               0.109534060               0.189052617               0.000000000               0.125146824               0.212971646               0.000000000               0.140759589               0.236890676               0.000000000               0.156372354               0.260809705               0.000000000               0.171985118               0.284728735               0.000000000               0.187597883               0.308647764               0.000000000               0.203210648               0.332566794               0.000000000               0.218823412               0.356485823               0.000000000               0.234436177               0.380404853               0.000000000               0.250048941               0.404323882               0.000000000               0.265661706               0.428242912               0.000000000               0.281274471               0.452161941               0.000000000               0.296887235               0.476080971               0.000000000               0.312500000               0.500000000               0.000000000               0.050896897               0.122875978               0.000000000               0.063340840               0.146446229               0.000000000               0.075784784               0.170016481               0.000000000               0.088228728               0.193586732               0.000000000               0.100672672               0.217156983               0.000000000               0.113116616               0.240727235               0.000000000               0.125560560               0.264297486               0.000000000               0.138004504               0.287867738               0.000000000               0.150448448               0.311437989               0.000000000               0.162892392               0.335008240               0.000000000               0.175336336               0.358578492               0.000000000               0.187780280               0.382148743               0.000000000               0.200224224               0.405718994               0.000000000               0.212668168               0.429289246               0.000000000               0.225112112               0.452859497               0.000000000               0.237556056               0.476429749               0.000000000               0.250000000               0.500000000               0.000000000               0.038607862               0.127273065               0.000000000               0.047913621               0.150568498               0.000000000               0.057219379               0.173863932               0.000000000               0.066525138               0.197159365               0.000000000               0.075830897               0.220454798               0.000000000               0.085136655               0.243750232               0.000000000               0.094442414               0.267045665               0.000000000               0.103748172               0.290341099               0.000000000               0.113053931               0.313636532               0.000000000               0.122359690               0.336931966               0.000000000               0.131665448               0.360227399               0.000000000               0.140971207               0.383522833               0.000000000               0.150276966               0.406818266               0.000000000               0.159582724               0.430113700               0.000000000               0.168888483               0.453409133               0.000000000               0.178194241               0.476704567               0.000000000               0.187500000               0.500000000               0.000000000               0.025947013               0.130444442               0.000000000               0.032137825               0.153541665               0.000000000               0.038328636               0.176638887               0.000000000               0.044519448               0.199736109               0.000000000               0.050710260               0.222833332               0.000000000               0.056901071               0.245930554               0.000000000               0.063091883               0.269027776               0.000000000               0.069282695               0.292124999               0.000000000               0.075473506               0.315222221               0.000000000               0.081664318               0.338319444               0.000000000               0.087855130               0.361416666               0.000000000               0.094045942               0.384513888               0.000000000               0.100236753               0.407611111               0.000000000               0.106427565               0.430708333               0.000000000               0.112618377               0.453805555               0.000000000               0.118809188               0.476902778               0.000000000               0.125000000               0.500000000               0.000000000               0.013036280               0.132359569               0.000000000               0.016127762               0.155337096               0.000000000               0.019219245               0.178314623               0.000000000               0.022310727               0.201292150               0.000000000               0.025402210               0.224269676               0.000000000               0.028493692               0.247247203               0.000000000               0.031585175               0.270224730               0.000000000               0.034676657               0.293202257               0.000000000               0.037768140               0.316179784               0.000000000               0.040859622               0.339157311               0.000000000               0.043951105               0.362134838               0.000000000               0.047042587               0.385112365               0.000000000               0.050134070               0.408089892               0.000000000               0.053225552               0.431067419               0.000000000               0.056317035               0.454044946               0.000000000               0.059408517               0.477022473               0.000000000               0.062500000               0.500000000               0.000000000               0.000000000               0.133000000               0.000000000               0.000000000               0.155937500               0.000000000               0.000000000               0.178875000               0.000000000               0.000000000               0.201812500               0.000000000               0.000000000               0.224750000               0.000000000               0.000000000               0.247687500               0.000000000               0.000000000               0.270625000               0.000000000               0.000000000               0.293562500               0.000000000               0.000000000               0.316500000               0.000000000               0.000000000               0.339437500               0.000000000               0.000000000               0.362375000               0.000000000               0.000000000               0.385312500               0.000000000               0.000000000               0.408250000               0.000000000               0.000000000               0.431187500               0.000000000               0.000000000               0.454125000               0.000000000               0.000000000               0.477062500               0.000000000               0.000000000               0.500000000               0.000000000               0.133000000               0.000000000               0.000000000               0.155937500               0.000000000               0.000000000               0.178875000               0.000000000               0.000000000               0.201812500               0.000000000               0.000000000               0.224750000               0.000000000               0.000000000               0.247687500               0.000000000               0.000000000               0.270625000               0.000000000               0.000000000               0.293562500               0.000000000               0.000000000               0.316500000               0.000000000               0.000000000               0.339437500               0.000000000               0.000000000               0.362375000               0.000000000               0.000000000               0.385312500               0.000000000               0.000000000               0.408250000               0.000000000               0.000000000               0.431187500               0.000000000               0.000000000               0.454125000               0.000000000               0.000000000               0.477062500               0.000000000               0.000000000               0.500000000               0.000000000               0.000000000               0.132359569              -0.013036280               0.000000000               0.155337096              -0.016127762               0.000000000               0.178314623              -0.019219245               0.000000000               0.201292150              -0.022310727               0.000000000               0.224269676              -0.025402210               0.000000000               0.247247203              -0.028493692               0.000000000               0.270224730              -0.031585175               0.000000000               0.293202257              -0.034676657               0.000000000               0.316179784              -0.037768140               0.000000000               0.339157311              -0.040859622               0.000000000               0.362134838              -0.043951105               0.000000000               0.385112365              -0.047042587               0.000000000               0.408089892              -0.050134070               0.000000000               0.431067419              -0.053225552               0.000000000               0.454044946              -0.056317035               0.000000000               0.477022473              -0.059408517               0.000000000               0.500000000              -0.062500000               0.000000000               0.130444442              -0.025947013               0.000000000               0.153541665              -0.032137825               0.000000000               0.176638887              -0.038328636               0.000000000               0.199736109              -0.044519448               0.000000000               0.222833332              -0.050710260               0.000000000               0.245930554              -0.056901071               0.000000000               0.269027776              -0.063091883               0.000000000               0.292124999              -0.069282695               0.000000000               0.315222221              -0.075473506               0.000000000               0.338319444              -0.081664318               0.000000000               0.361416666              -0.087855130               0.000000000               0.384513888              -0.094045942               0.000000000               0.407611111              -0.100236753               0.000000000               0.430708333              -0.106427565               0.000000000               0.453805555              -0.112618377               0.000000000               0.476902778              -0.118809188               0.000000000               0.500000000              -0.125000000               0.000000000               0.127273065              -0.038607862               0.000000000               0.150568498              -0.047913621               0.000000000               0.173863932              -0.057219379               0.000000000               0.197159365              -0.066525138               0.000000000               0.220454798              -0.075830897               0.000000000               0.243750232              -0.085136655               0.000000000               0.267045665              -0.094442414               0.000000000               0.290341099              -0.103748172               0.000000000               0.313636532              -0.113053931               0.000000000               0.336931966              -0.122359690               0.000000000               0.360227399              -0.131665448               0.000000000               0.383522833              -0.140971207               0.000000000               0.406818266              -0.150276966               0.000000000               0.430113700              -0.159582724               0.000000000               0.453409133              -0.168888483               0.000000000               0.476704567              -0.178194241               0.000000000               0.500000000              -0.187500000               0.000000000               0.122875978              -0.050896897               0.000000000               0.146446229              -0.063340840               0.000000000               0.170016481              -0.075784784               0.000000000               0.193586732              -0.088228728               0.000000000               0.217156983              -0.100672672               0.000000000               0.240727235              -0.113116616               0.000000000               0.264297486              -0.125560560               0.000000000               0.287867738              -0.138004504               0.000000000               0.311437989              -0.150448448               0.000000000               0.335008240              -0.162892392               0.000000000               0.358578492              -0.175336336               0.000000000               0.382148743              -0.187780280               0.000000000               0.405718994              -0.200224224               0.000000000               0.429289246              -0.212668168               0.000000000               0.452859497              -0.225112112               0.000000000               0.476429749              -0.237556056               0.000000000               0.500000000              -0.250000000               0.000000000               0.117295528              -0.062695766               0.000000000               0.141214558              -0.078308531               0.000000000               0.165133587              -0.093921295               0.000000000               0.189052617              -0.109534060               0.000000000               0.212971646              -0.125146824               0.000000000               0.236890676              -0.140759589               0.000000000               0.260809705              -0.156372354               0.000000000               0.284728735              -0.171985118               0.000000000               0.308647764              -0.187597883               0.000000000               0.332566794              -0.203210648               0.000000000               0.356485823              -0.218823412               0.000000000               0.380404853              -0.234436177               0.000000000               0.404323882              -0.250048941               0.000000000               0.428242912              -0.265661706               0.000000000               0.452161941              -0.281274471               0.000000000               0.476080971              -0.296887235               0.000000000               0.500000000              -0.312500000               0.000000000               0.110585458              -0.073890841               0.000000000               0.134923867              -0.092710163               0.000000000               0.159262276              -0.111529486               0.000000000               0.183600685              -0.130348808               0.000000000               0.207939094              -0.149168131               0.000000000               0.232277503              -0.167987453               0.000000000               0.256615912              -0.186806776               0.000000000               0.280954320              -0.205626098               0.000000000               0.305292729              -0.224445420               0.000000000               0.329631138              -0.243264743               0.000000000               0.353969547              -0.262084065               0.000000000               0.378307956              -0.280903388               0.000000000               0.402646365              -0.299722710               0.000000000               0.426984773              -0.318542033               0.000000000               0.451323182              -0.337361355               0.000000000               0.475661591              -0.356180678               0.000000000               0.500000000              -0.375000000               0.000000000               0.102810390              -0.084374307               0.000000000               0.127634741              -0.106444663               0.000000000               0.152459092              -0.128515018               0.000000000               0.177283442              -0.150585374               0.000000000               0.202107793              -0.172655730               0.000000000               0.226932143              -0.194726086               0.000000000               0.251756494              -0.216796442               0.000000000               0.276580845              -0.238866798               0.000000000               0.301405195              -0.260937153               0.000000000               0.326229546              -0.283007509               0.000000000               0.351053896              -0.305077865               0.000000000               0.375878247              -0.327148221               0.000000000               0.400702598              -0.349218577               0.000000000               0.425526948              -0.371288933               0.000000000               0.450351299              -0.393359288               0.000000000               0.475175649              -0.415429644               0.000000000               0.500000000              -0.437500000               0.000000000               0.094045202              -0.094045202               0.000000000               0.119417377              -0.119417377               0.000000000               0.144789552              -0.144789552               0.000000000               0.170161727              -0.170161727               0.000000000               0.195533901              -0.195533901               0.000000000               0.220906076              -0.220906076               0.000000000               0.246278251              -0.246278251               0.000000000               0.271650426              -0.271650426               0.000000000               0.297022601              -0.297022601               0.000000000               0.322394776              -0.322394776               0.000000000               0.347766951              -0.347766951               0.000000000               0.373139126              -0.373139126               0.000000000               0.398511300              -0.398511300               0.000000000               0.423883475              -0.423883475               0.000000000               0.449255650              -0.449255650               0.000000000               0.474627825              -0.474627825               0.000000000               0.500000000              -0.500000000               0.000000000               0.084374307              -0.102810390               0.000000000               0.106444663              -0.127634741               0.000000000               0.128515018              -0.152459092               0.000000000               0.150585374              -0.177283442               0.000000000               0.172655730              -0.202107793               0.000000000               0.194726086              -0.226932143               0.000000000               0.216796442              -0.251756494               0.000000000               0.238866798              -0.276580845               0.000000000               0.260937153              -0.301405195               0.000000000               0.283007509              -0.326229546               0.000000000               0.305077865              -0.351053896               0.000000000               0.327148221              -0.375878247               0.000000000               0.349218577              -0.400702598               0.000000000               0.371288933              -0.425526948               0.000000000               0.393359288              -0.450351299               0.000000000               0.415429644              -0.475175649               0.000000000               0.437500000              -0.500000000               0.000000000               0.073890841              -0.110585458               0.000000000               0.092710163              -0.134923867               0.000000000               0.111529486              -0.159262276               0.000000000               0.130348808              -0.183600685               0.000000000               0.149168131              -0.207939094               0.000000000               0.167987453              -0.232277503               0.000000000               0.186806776              -0.256615912               0.000000000               0.205626098              -0.280954320               0.000000000               0.224445420              -0.305292729               0.000000000               0.243264743              -0.329631138               0.000000000               0.262084065              -0.353969547               0.000000000               0.280903388              -0.378307956               0.000000000               0.299722710              -0.402646365               0.000000000               0.318542033              -0.426984773               0.000000000               0.337361355              -0.451323182               0.000000000               0.356180678              -0.475661591               0.000000000               0.375000000              -0.500000000               0.000000000               0.062695766              -0.117295528               0.000000000               0.078308531              -0.141214558               0.000000000               0.093921295              -0.165133587               0.000000000               0.109534060              -0.189052617               0.000000000               0.125146824              -0.212971646               0.000000000               0.140759589              -0.236890676               0.000000000               0.156372354              -0.260809705               0.000000000               0.171985118              -0.284728735               0.000000000               0.187597883              -0.308647764               0.000000000               0.203210648              -0.332566794               0.000000000               0.218823412              -0.356485823               0.000000000               0.234436177              -0.380404853               0.000000000               0.250048941              -0.404323882               0.000000000               0.265661706              -0.428242912               0.000000000               0.281274471              -0.452161941               0.000000000               0.296887235              -0.476080971               0.000000000               0.312500000              -0.500000000               0.000000000               0.050896897              -0.122875978               0.000000000               0.063340840              -0.146446229               0.000000000               0.075784784              -0.170016481               0.000000000               0.088228728              -0.193586732               0.000000000               0.100672672              -0.217156983               0.000000000               0.113116616              -0.240727235               0.000000000               0.125560560              -0.264297486               0.000000000               0.138004504              -0.287867738               0.000000000               0.150448448              -0.311437989               0.000000000               0.162892392              -0.335008240               0.000000000               0.175336336              -0.358578492               0.000000000               0.187780280              -0.382148743               0.000000000               0.200224224              -0.405718994               0.000000000               0.212668168              -0.429289246               0.000000000               0.225112112              -0.452859497               0.000000000               0.237556056              -0.476429749               0.000000000               0.250000000              -0.500000000               0.000000000               0.038607862              -0.127273065               0.000000000               0.047913621              -0.150568498               0.000000000               0.057219379              -0.173863932               0.000000000               0.066525138              -0.197159365               0.000000000               0.075830897              -0.220454798               0.000000000               0.085136655              -0.243750232               0.000000000               0.094442414              -0.267045665               0.000000000               0.103748172              -0.290341099               0.000000000               0.113053931              -0.313636532               0.000000000               0.122359690              -0.336931966               0.000000000               0.131665448              -0.360227399               0.000000000               0.140971207              -0.383522833               0.000000000               0.150276966              -0.406818266               0.000000000               0.159582724              -0.430113700               0.000000000               0.168888483              -0.453409133               0.000000000               0.178194241              -0.476704567               0.000000000               0.187500000              -0.500000000               0.000000000               0.025947013              -0.130444442               0.000000000               0.032137825              -0.153541665               0.000000000               0.038328636              -0.176638887               0.000000000               0.044519448              -0.199736109               0.000000000               0.050710260              -0.222833332               0.000000000               0.056901071              -0.245930554               0.000000000               0.063091883              -0.269027776               0.000000000               0.069282695              -0.292124999               0.000000000               0.075473506              -0.315222221               0.000000000               0.081664318              -0.338319444               0.000000000               0.087855130              -0.361416666               0.000000000               0.094045942              -0.384513888               0.000000000               0.100236753              -0.407611111               0.000000000               0.106427565              -0.430708333               0.000000000               0.112618377              -0.453805555               0.000000000               0.118809188              -0.476902778               0.000000000               0.125000000              -0.500000000               0.000000000               0.013036280              -0.132359569               0.000000000               0.016127762              -0.155337096               0.000000000               0.019219245              -0.178314623               0.000000000               0.022310727              -0.201292150               0.000000000               0.025402210              -0.224269676               0.000000000               0.028493692              -0.247247203               0.000000000               0.031585175              -0.270224730               0.000000000               0.034676657              -0.293202257               0.000000000               0.037768140              -0.316179784               0.000000000               0.040859622              -0.339157311               0.000000000               0.043951105              -0.362134838               0.000000000               0.047042587              -0.385112365               0.000000000               0.050134070              -0.408089892               0.000000000               0.053225552              -0.431067419               0.000000000               0.056317035              -0.454044946               0.000000000               0.059408517              -0.477022473               0.000000000               0.062500000              -0.500000000               0.000000000               0.000000000              -0.133000000               0.000000000               0.000000000              -0.155937500               0.000000000               0.000000000              -0.178875000               0.000000000               0.000000000              -0.201812500               0.000000000               0.000000000              -0.224750000               0.000000000               0.000000000              -0.247687500               0.000000000               0.000000000              -0.270625000               0.000000000               0.000000000              -0.293562500               0.000000000               0.000000000              -0.316500000               0.000000000               0.000000000              -0.339437500               0.000000000               0.000000000              -0.362375000               0.000000000               0.000000000              -0.385312500               0.000000000               0.000000000              -0.408250000               0.000000000               0.000000000              -0.431187500               0.000000000               0.000000000              -0.454125000               0.000000000               0.000000000              -0.477062500               0.000000000               0.000000000              -0.500000000               0.000000000              -0.133000000               0.000000000               0.000000000              -0.155937500               0.000000000               0.000000000              -0.178875000               0.000000000               0.000000000              -0.201812500               0.000000000               0.000000000              -0.224750000               0.000000000               0.000000000              -0.247687500               0.000000000               0.000000000              -0.270625000               0.000000000               0.000000000              -0.293562500               0.000000000               0.000000000              -0.316500000               0.000000000               0.000000000              -0.339437500               0.000000000               0.000000000              -0.362375000               0.000000000               0.000000000              -0.385312500               0.000000000               0.000000000              -0.408250000               0.000000000               0.000000000              -0.431187500               0.000000000               0.000000000              -0.454125000               0.000000000               0.000000000              -0.477062500               0.000000000               0.000000000              -0.500000000               0.000000000               0.000000000              -0.132359569              -0.013036280               0.000000000              -0.155337096              -0.016127762               0.000000000              -0.178314623              -0.019219245               0.000000000              -0.201292150              -0.022310727               0.000000000              -0.224269676              -0.025402210               0.000000000              -0.247247203              -0.028493692               0.000000000              -0.270224730              -0.031585175               0.000000000              -0.293202257              -0.034676657               0.000000000              -0.316179784              -0.037768140               0.000000000              -0.339157311              -0.040859622               0.000000000              -0.362134838              -0.043951105               0.000000000              -0.385112365              -0.047042587               0.000000000              -0.408089892              -0.050134070               0.000000000              -0.431067419              -0.053225552               0.000000000              -0.454044946              -0.056317035               0.000000000              -0.477022473              -0.059408517               0.000000000              -0.500000000              -0.062500000               0.000000000              -0.130444442              -0.025947013               0.000000000              -0.153541665              -0.032137825               0.000000000              -0.176638887              -0.038328636               0.000000000              -0.199736109              -0.044519448               0.000000000              -0.222833332              -0.050710260               0.000000000              -0.245930554              -0.056901071               0.000000000              -0.269027776              -0.063091883               0.000000000              -0.292124999              -0.069282695               0.000000000              -0.315222221              -0.075473506               0.000000000              -0.338319444              -0.081664318               0.000000000              -0.361416666              -0.087855130               0.000000000              -0.384513888              -0.094045942               0.000000000              -0.407611111              -0.100236753               0.000000000              -0.430708333              -0.106427565               0.000000000              -0.453805555              -0.112618377               0.000000000              -0.476902778              -0.118809188               0.000000000              -0.500000000              -0.125000000               0.000000000              -0.127273065              -0.038607862               0.000000000              -0.150568498              -0.047913621               0.000000000              -0.173863932              -0.057219379               0.000000000              -0.197159365              -0.066525138               0.000000000              -0.220454798              -0.075830897               0.000000000              -0.243750232              -0.085136655               0.000000000              -0.267045665              -0.094442414               0.000000000              -0.290341099              -0.103748172               0.000000000              -0.313636532              -0.113053931               0.000000000              -0.336931966              -0.122359690               0.000000000              -0.360227399              -0.131665448               0.000000000              -0.383522833              -0.140971207               0.000000000              -0.406818266              -0.150276966               0.000000000              -0.430113700              -0.159582724               0.000000000              -0.453409133              -0.168888483               0.000000000              -0.476704567              -0.178194241               0.000000000              -0.500000000              -0.187500000               0.000000000              -0.122875978              -0.050896897               0.000000000              -0.146446229              -0.063340840               0.000000000              -0.170016481              -0.075784784               0.000000000              -0.193586732              -0.088228728               0.000000000              -0.217156983              -0.100672672               0.000000000              -0.240727235              -0.113116616               0.000000000              -0.264297486              -0.125560560               0.000000000              -0.287867738              -0.138004504               0.000000000              -0.311437989              -0.150448448               0.000000000              -0.335008240              -0.162892392               0.000000000              -0.358578492              -0.175336336               0.000000000              -0.382148743              -0.187780280               0.000000000              -0.405718994              -0.200224224               0.000000000              -0.429289246              -0.212668168               0.000000000              -0.452859497              -0.225112112               0.000000000              -0.476429749              -0.237556056               0.000000000              -0.500000000              -0.250000000               0.000000000              -0.117295528              -0.062695766               0.000000000              -0.141214558              -0.078308531               0.000000000              -0.165133587              -0.093921295               0.000000000              -0.189052617              -0.109534060               0.000000000              -0.212971646              -0.125146824               0.000000000              -0.236890676              -0.140759589               0.000000000              -0.260809705              -0.156372354               0.000000000              -0.284728735              -0.171985118               0.000000000              -0.308647764              -0.187597883               0.000000000              -0.332566794              -0.203210648               0.000000000              -0.356485823              -0.218823412               0.000000000              -0.380404853              -0.234436177               0.000000000              -0.404323882              -0.250048941               0.000000000              -0.428242912              -0.265661706               0.000000000              -0.452161941              -0.281274471               0.000000000              -0.476080971              -0.296887235               0.000000000              -0.500000000              -0.312500000               0.000000000              -0.110585458              -0.073890841               0.000000000              -0.134923867              -0.092710163               0.000000000              -0.159262276              -0.111529486               0.000000000              -0.183600685              -0.130348808               0.000000000              -0.207939094              -0.149168131               0.000000000              -0.232277503              -0.167987453               0.000000000              -0.256615912              -0.186806776               0.000000000              -0.280954320              -0.205626098               0.000000000              -0.305292729              -0.224445420               0.000000000              -0.329631138              -0.243264743               0.000000000              -0.353969547              -0.262084065               0.000000000              -0.378307956              -0.280903388               0.000000000              -0.402646365              -0.299722710               0.000000000              -0.426984773              -0.318542033               0.000000000              -0.451323182              -0.337361355               0.000000000              -0.475661591              -0.356180678               0.000000000              -0.500000000              -0.375000000               0.000000000              -0.102810390              -0.084374307               0.000000000              -0.127634741              -0.106444663               0.000000000              -0.152459092              -0.128515018               0.000000000              -0.177283442              -0.150585374               0.000000000              -0.202107793              -0.172655730               0.000000000              -0.226932143              -0.194726086               0.000000000              -0.251756494              -0.216796442               0.000000000              -0.276580845              -0.238866798               0.000000000              -0.301405195              -0.260937153               0.000000000              -0.326229546              -0.283007509               0.000000000              -0.351053896              -0.305077865               0.000000000              -0.375878247              -0.327148221               0.000000000              -0.400702598              -0.349218577               0.000000000              -0.425526948              -0.371288933               0.000000000              -0.450351299              -0.393359288               0.000000000              -0.475175649              -0.415429644               0.000000000              -0.500000000              -0.437500000               0.000000000              -0.094045202              -0.094045202               0.000000000              -0.119417377              -0.119417377               0.000000000              -0.144789552              -0.144789552               0.000000000              -0.170161727              -0.170161727               0.000000000              -0.195533901              -0.195533901               0.000000000              -0.220906076              -0.220906076               0.000000000              -0.246278251              -0.246278251               0.000000000              -0.271650426              -0.271650426               0.000000000              -0.297022601              -0.297022601               0.000000000              -0.322394776              -0.322394776               0.000000000              -0.347766951              -0.347766951               0.000000000              -0.373139126              -0.373139126               0.000000000              -0.398511300              -0.398511300               0.000000000              -0.423883475              -0.423883475               0.000000000              -0.449255650              -0.449255650               0.000000000              -0.474627825              -0.474627825               0.000000000              -0.500000000              -0.500000000               0.000000000              -0.084374307              -0.102810390               0.000000000              -0.106444663              -0.127634741               0.000000000              -0.128515018              -0.152459092               0.000000000              -0.150585374              -0.177283442               0.000000000              -0.172655730              -0.202107793               0.000000000              -0.194726086              -0.226932143               0.000000000              -0.216796442              -0.251756494               0.000000000              -0.238866798              -0.276580845               0.000000000              -0.260937153              -0.301405195               0.000000000              -0.283007509              -0.326229546               0.000000000              -0.305077865              -0.351053896               0.000000000              -0.327148221              -0.375878247               0.000000000              -0.349218577              -0.400702598               0.000000000              -0.371288933              -0.425526948               0.000000000              -0.393359288              -0.450351299               0.000000000              -0.415429644              -0.475175649               0.000000000              -0.437500000              -0.500000000               0.000000000              -0.073890841              -0.110585458               0.000000000              -0.092710163              -0.134923867               0.000000000              -0.111529486              -0.159262276               0.000000000              -0.130348808              -0.183600685               0.000000000              -0.149168131              -0.207939094               0.000000000              -0.167987453              -0.232277503               0.000000000              -0.186806776              -0.256615912               0.000000000              -0.205626098              -0.280954320               0.000000000              -0.224445420              -0.305292729               0.000000000              -0.243264743              -0.329631138               0.000000000              -0.262084065              -0.353969547               0.000000000              -0.280903388              -0.378307956               0.000000000              -0.299722710              -0.402646365               0.000000000              -0.318542033              -0.426984773               0.000000000              -0.337361355              -0.451323182               0.000000000              -0.356180678              -0.475661591               0.000000000              -0.375000000              -0.500000000               0.000000000              -0.062695766              -0.117295528               0.000000000              -0.078308531              -0.141214558               0.000000000              -0.093921295              -0.165133587               0.000000000              -0.109534060              -0.189052617               0.000000000              -0.125146824              -0.212971646               0.000000000              -0.140759589              -0.236890676               0.000000000              -0.156372354              -0.260809705               0.000000000              -0.171985118              -0.284728735               0.000000000              -0.187597883              -0.308647764               0.000000000              -0.203210648              -0.332566794               0.000000000              -0.218823412              -0.356485823               0.000000000              -0.234436177              -0.380404853               0.000000000              -0.250048941              -0.404323882               0.000000000              -0.265661706              -0.428242912               0.000000000              -0.281274471              -0.452161941               0.000000000              -0.296887235              -0.476080971               0.000000000              -0.312500000              -0.500000000               0.000000000              -0.050896897              -0.122875978               0.000000000              -0.063340840              -0.146446229               0.000000000              -0.075784784              -0.170016481               0.000000000              -0.088228728              -0.193586732               0.000000000              -0.100672672              -0.217156983               0.000000000              -0.113116616              -0.240727235               0.000000000              -0.125560560              -0.264297486               0.000000000              -0.138004504              -0.287867738               0.000000000              -0.150448448              -0.311437989               0.000000000              -0.162892392              -0.335008240               0.000000000              -0.175336336              -0.358578492               0.000000000              -0.187780280              -0.382148743               0.000000000              -0.200224224              -0.405718994               0.000000000              -0.212668168              -0.429289246               0.000000000              -0.225112112              -0.452859497               0.000000000              -0.237556056              -0.476429749               0.000000000              -0.250000000              -0.500000000               0.000000000              -0.038607862              -0.127273065               0.000000000              -0.047913621              -0.150568498               0.000000000              -0.057219379              -0.173863932               0.000000000              -0.066525138              -0.197159365               0.000000000              -0.075830897              -0.220454798               0.000000000              -0.085136655              -0.243750232               0.000000000              -0.094442414              -0.267045665               0.000000000              -0.103748172              -0.290341099               0.000000000              -0.113053931              -0.313636532               0.000000000              -0.122359690              -0.336931966               0.000000000              -0.131665448              -0.360227399               0.000000000              -0.140971207              -0.383522833               0.000000000              -0.150276966              -0.406818266               0.000000000              -0.159582724              -0.430113700               0.000000000              -0.168888483              -0.453409133               0.000000000              -0.178194241              -0.476704567               0.000000000              -0.187500000              -0.500000000               0.000000000              -0.025947013              -0.130444442               0.000000000              -0.032137825              -0.153541665               0.000000000              -0.038328636              -0.176638887               0.000000000              -0.044519448              -0.199736109               0.000000000              -0.050710260              -0.222833332               0.000000000              -0.056901071              -0.245930554               0.000000000              -0.063091883              -0.269027776               0.000000000              -0.069282695              -0.292124999               0.000000000              -0.075473506              -0.315222221               0.000000000              -0.081664318              -0.338319444               0.000000000              -0.087855130              -0.361416666               0.000000000              -0.094045942              -0.384513888               0.000000000              -0.100236753              -0.407611111               0.000000000              -0.106427565              -0.430708333               0.000000000              -0.112618377              -0.453805555               0.000000000              -0.118809188              -0.476902778               0.000000000              -0.125000000              -0.500000000               0.000000000              -0.013036280              -0.132359569               0.000000000              -0.016127762              -0.155337096               0.000000000              -0.019219245              -0.178314623               0.000000000              -0.022310727              -0.201292150               0.000000000              -0.025402210              -0.224269676               0.000000000              -0.028493692              -0.247247203               0.000000000              -0.031585175              -0.270224730               0.000000000              -0.034676657              -0.293202257               0.000000000              -0.037768140              -0.316179784               0.000000000              -0.040859622              -0.339157311               0.000000000              -0.043951105              -0.362134838               0.000000000              -0.047042587              -0.385112365               0.000000000              -0.050134070              -0.408089892               0.000000000              -0.053225552              -0.431067419               0.000000000              -0.056317035              -0.454044946               0.000000000              -0.059408517              -0.477022473               0.000000000              -0.062500000              -0.500000000               0.000000000               0.000000000              -0.133000000               0.000000000               0.000000000              -0.155937500               0.000000000               0.000000000              -0.178875000               0.000000000               0.000000000              -0.201812500               0.000000000               0.000000000              -0.224750000               0.000000000               0.000000000              -0.247687500               0.000000000               0.000000000              -0.270625000               0.000000000               0.000000000              -0.293562500               0.000000000               0.000000000              -0.316500000               0.000000000               0.000000000              -0.339437500               0.000000000               0.000000000              -0.362375000               0.000000000               0.000000000              -0.385312500               0.000000000               0.000000000              -0.408250000               0.000000000               0.000000000              -0.431187500               0.000000000               0.000000000              -0.454125000               0.000000000               0.000000000              -0.477062500               0.000000000               0.000000000              -0.500000000               0.000000000              -0.133000000               0.000000000               0.000000000              -0.155937500               0.000000000               0.000000000              -0.178875000               0.000000000               0.000000000              -0.201812500               0.000000000               0.000000000              -0.224750000               0.000000000               0.000000000              -0.247687500               0.000000000               0.000000000              -0.270625000               0.000000000               0.000000000              -0.293562500               0.000000000               0.000000000              -0.316500000               0.000000000               0.000000000              -0.339437500               0.000000000               0.000000000              -0.362375000               0.000000000               0.000000000              -0.385312500               0.000000000               0.000000000              -0.408250000               0.000000000               0.000000000              -0.431187500               0.000000000               0.000000000              -0.454125000               0.000000000               0.000000000              -0.477062500               0.000000000               0.000000000              -0.500000000               0.000000000               0.000000000              -0.132359569               0.013036280               0.000000000              -0.155337096               0.016127762               0.000000000              -0.178314623               0.019219245               0.000000000              -0.201292150               0.022310727               0.000000000              -0.224269676               0.025402210               0.000000000              -0.247247203               0.028493692               0.000000000              -0.270224730               0.031585175               0.000000000              -0.293202257               0.034676657               0.000000000              -0.316179784               0.037768140               0.000000000              -0.339157311               0.040859622               0.000000000              -0.362134838               0.043951105               0.000000000              -0.385112365               0.047042587               0.000000000              -0.408089892               0.050134070               0.000000000              -0.431067419               0.053225552               0.000000000              -0.454044946               0.056317035               0.000000000              -0.477022473               0.059408517               0.000000000              -0.500000000               0.062500000               0.000000000              -0.130444442               0.025947013               0.000000000              -0.153541665               0.032137825               0.000000000              -0.176638887               0.038328636               0.000000000              -0.199736109               0.044519448               0.000000000              -0.222833332               0.050710260               0.000000000              -0.245930554               0.056901071               0.000000000              -0.269027776               0.063091883               0.000000000              -0.292124999               0.069282695               0.000000000              -0.315222221               0.075473506               0.000000000              -0.338319444               0.081664318               0.000000000              -0.361416666               0.087855130               0.000000000              -0.384513888               0.094045942               0.000000000              -0.407611111               0.100236753               0.000000000              -0.430708333               0.106427565               0.000000000              -0.453805555               0.112618377               0.000000000              -0.476902778               0.118809188               0.000000000              -0.500000000               0.125000000               0.000000000              -0.127273065               0.038607862               0.000000000              -0.150568498               0.047913621               0.000000000              -0.173863932               0.057219379               0.000000000              -0.197159365               0.066525138               0.000000000              -0.220454798               0.075830897               0.000000000              -0.243750232               0.085136655               0.000000000              -0.267045665               0.094442414               0.000000000              -0.290341099               0.103748172               0.000000000              -0.313636532               0.113053931               0.000000000              -0.336931966               0.122359690               0.000000000              -0.360227399               0.131665448               0.000000000              -0.383522833               0.140971207               0.000000000              -0.406818266               0.150276966               0.000000000              -0.430113700               0.159582724               0.000000000              -0.453409133               0.168888483               0.000000000              -0.476704567               0.178194241               0.000000000              -0.500000000               0.187500000               0.000000000              -0.122875978               0.050896897               0.000000000              -0.146446229               0.063340840               0.000000000              -0.170016481               0.075784784               0.000000000              -0.193586732               0.088228728               0.000000000              -0.217156983               0.100672672               0.000000000              -0.240727235               0.113116616               0.000000000              -0.264297486               0.125560560               0.000000000              -0.287867738               0.138004504               0.000000000              -0.311437989               0.150448448               0.000000000              -0.335008240               0.162892392               0.000000000              -0.358578492               0.175336336               0.000000000              -0.382148743               0.187780280               0.000000000              -0.405718994               0.200224224               0.000000000              -0.429289246               0.212668168               0.000000000              -0.452859497               0.225112112               0.000000000              -0.476429749               0.237556056               0.000000000              -0.500000000               0.250000000               0.000000000              -0.117295528               0.062695766               0.000000000              -0.141214558               0.078308531               0.000000000              -0.165133587               0.093921295               0.000000000              -0.189052617               0.109534060               0.000000000              -0.212971646               0.125146824               0.000000000              -0.236890676               0.140759589               0.000000000              -0.260809705               0.156372354               0.000000000              -0.284728735               0.171985118               0.000000000              -0.308647764               0.187597883               0.000000000              -0.332566794               0.203210648               0.000000000              -0.356485823               0.218823412               0.000000000              -0.380404853               0.234436177               0.000000000              -0.404323882               0.250048941               0.000000000              -0.428242912               0.265661706               0.000000000              -0.452161941               0.281274471               0.000000000              -0.476080971               0.296887235               0.000000000              -0.500000000               0.312500000               0.000000000              -0.110585458               0.073890841               0.000000000              -0.134923867               0.092710163               0.000000000              -0.159262276               0.111529486               0.000000000              -0.183600685               0.130348808               0.000000000              -0.207939094               0.149168131               0.000000000              -0.232277503               0.167987453               0.000000000              -0.256615912               0.186806776               0.000000000              -0.280954320               0.205626098               0.000000000              -0.305292729               0.224445420               0.000000000              -0.329631138               0.243264743               0.000000000              -0.353969547               0.262084065               0.000000000              -0.378307956               0.280903388               0.000000000              -0.402646365               0.299722710               0.000000000              -0.426984773               0.318542033               0.000000000              -0.451323182               0.337361355               0.000000000              -0.475661591               0.356180678               0.000000000              -0.500000000               0.375000000               0.000000000              -0.102810390               0.084374307               0.000000000              -0.127634741               0.106444663               0.000000000              -0.152459092               0.128515018               0.000000000              -0.177283442               0.150585374               0.000000000              -0.202107793               0.172655730               0.000000000              -0.226932143               0.194726086               0.000000000              -0.251756494               0.216796442               0.000000000              -0.276580845               0.238866798               0.000000000              -0.301405195               0.260937153               0.000000000              -0.326229546               0.283007509               0.000000000              -0.351053896               0.305077865               0.000000000              -0.375878247               0.327148221               0.000000000              -0.400702598               0.349218577               0.000000000              -0.425526948               0.371288933               0.000000000              -0.450351299               0.393359288               0.000000000              -0.475175649               0.415429644               0.000000000              -0.500000000               0.437500000               0.000000000              -0.094045202               0.094045202               0.000000000              -0.119417377               0.119417377               0.000000000              -0.144789552               0.144789552               0.000000000              -0.170161727               0.170161727               0.000000000              -0.195533901               0.195533901               0.000000000              -0.220906076               0.220906076               0.000000000              -0.246278251               0.246278251               0.000000000              -0.271650426               0.271650426               0.000000000              -0.297022601               0.297022601               0.000000000              -0.322394776               0.322394776               0.000000000              -0.347766951               0.347766951               0.000000000              -0.373139126               0.373139126               0.000000000              -0.398511300               0.398511300               0.000000000              -0.423883475               0.423883475               0.000000000              -0.449255650               0.449255650               0.000000000              -0.474627825               0.474627825               0.000000000              -0.500000000               0.500000000               0.000000000              -0.084374307               0.102810390               0.000000000              -0.106444663               0.127634741               0.000000000              -0.128515018               0.152459092               0.000000000              -0.150585374               0.177283442               0.000000000              -0.172655730               0.202107793               0.000000000              -0.194726086               0.226932143               0.000000000              -0.216796442               0.251756494               0.000000000              -0.238866798               0.276580845               0.000000000              -0.260937153               0.301405195               0.000000000              -0.283007509               0.326229546               0.000000000              -0.305077865               0.351053896               0.000000000              -0.327148221               0.375878247               0.000000000              -0.349218577               0.400702598               0.000000000              -0.371288933               0.425526948               0.000000000              -0.393359288               0.450351299               0.000000000              -0.415429644               0.475175649               0.000000000              -0.437500000               0.500000000               0.000000000              -0.073890841               0.110585458               0.000000000              -0.092710163               0.134923867               0.000000000              -0.111529486               0.159262276               0.000000000              -0.130348808               0.183600685               0.000000000              -0.149168131               0.207939094               0.000000000              -0.167987453               0.232277503               0.000000000              -0.186806776               0.256615912               0.000000000              -0.205626098               0.280954320               0.000000000              -0.224445420               0.305292729               0.000000000              -0.243264743               0.329631138               0.000000000              -0.262084065               0.353969547               0.000000000              -0.280903388               0.378307956               0.000000000              -0.299722710               0.402646365               0.000000000              -0.318542033               0.426984773               0.000000000              -0.337361355               0.451323182               0.000000000              -0.356180678               0.475661591               0.000000000              -0.375000000               0.500000000               0.000000000              -0.062695766               0.117295528               0.000000000              -0.078308531               0.141214558               0.000000000              -0.093921295               0.165133587               0.000000000              -0.109534060               0.189052617               0.000000000              -0.125146824               0.212971646               0.000000000              -0.140759589               0.236890676               0.000000000              -0.156372354               0.260809705               0.000000000              -0.171985118               0.284728735               0.000000000              -0.187597883               0.308647764               0.000000000              -0.203210648               0.332566794               0.000000000              -0.218823412               0.356485823               0.000000000              -0.234436177               0.380404853               0.000000000              -0.250048941               0.404323882               0.000000000              -0.265661706               0.428242912               0.000000000              -0.281274471               0.452161941               0.000000000              -0.296887235               0.476080971               0.000000000              -0.312500000               0.500000000               0.000000000              -0.050896897               0.122875978               0.000000000              -0.063340840               0.146446229               0.000000000              -0.075784784               0.170016481               0.000000000              -0.088228728               0.193586732               0.000000000              -0.100672672               0.217156983               0.000000000              -0.113116616               0.240727235               0.000000000              -0.125560560               0.264297486               0.000000000              -0.138004504               0.287867738               0.000000000              -0.150448448               0.311437989               0.000000000              -0.162892392               0.335008240               0.000000000              -0.175336336               0.358578492               0.000000000              -0.187780280               0.382148743               0.000000000              -0.200224224               0.405718994               0.000000000              -0.212668168               0.429289246               0.000000000              -0.225112112               0.452859497               0.000000000              -0.237556056               0.476429749               0.000000000              -0.250000000               0.500000000               0.000000000              -0.038607862               0.127273065               0.000000000              -0.047913621               0.150568498               0.000000000              -0.057219379               0.173863932               0.000000000              -0.066525138               0.197159365               0.000000000              -0.075830897               0.220454798               0.000000000              -0.085136655               0.243750232               0.000000000              -0.094442414               0.267045665               0.000000000              -0.103748172               0.290341099               0.000000000              -0.113053931               0.313636532               0.000000000              -0.122359690               0.336931966               0.000000000              -0.131665448               0.360227399               0.000000000              -0.140971207               0.383522833               0.000000000              -0.150276966               0.406818266               0.000000000              -0.159582724               0.430113700               0.000000000              -0.168888483               0.453409133               0.000000000              -0.178194241               0.476704567               0.000000000              -0.187500000               0.500000000               0.000000000              -0.025947013               0.130444442               0.000000000              -0.032137825               0.153541665               0.000000000              -0.038328636               0.176638887               0.000000000              -0.044519448               0.199736109               0.000000000              -0.050710260               0.222833332               0.000000000              -0.056901071               0.245930554               0.000000000              -0.063091883               0.269027776               0.000000000              -0.069282695               0.292124999               0.000000000              -0.075473506               0.315222221               0.000000000              -0.081664318               0.338319444               0.000000000              -0.087855130               0.361416666               0.000000000              -0.094045942               0.384513888               0.000000000              -0.100236753               0.407611111               0.000000000              -0.106427565               0.430708333               0.000000000              -0.112618377               0.453805555               0.000000000              -0.118809188               0.476902778               0.000000000              -0.125000000               0.500000000               0.000000000              -0.013036280               0.132359569               0.000000000              -0.016127762               0.155337096               0.000000000              -0.019219245               0.178314623               0.000000000              -0.022310727               0.201292150               0.000000000              -0.025402210               0.224269676               0.000000000              -0.028493692               0.247247203               0.000000000              -0.031585175               0.270224730               0.000000000              -0.034676657               0.293202257               0.000000000              -0.037768140               0.316179784               0.000000000              -0.040859622               0.339157311               0.000000000              -0.043951105               0.362134838               0.000000000              -0.047042587               0.385112365               0.000000000              -0.050134070               0.408089892               0.000000000              -0.053225552               0.431067419               0.000000000              -0.056317035               0.454044946               0.000000000              -0.059408517               0.477022473               0.000000000              -0.062500000               0.500000000               0.000000000               0.000000000               0.133000000               0.000000000               0.000000000               0.155937500               0.000000000               0.000000000               0.178875000               0.000000000               0.000000000               0.201812500               0.000000000               0.000000000               0.224750000               0.000000000               0.000000000               0.247687500               0.000000000               0.000000000               0.270625000               0.000000000               0.000000000               0.293562500               0.000000000               0.000000000               0.316500000               0.000000000               0.000000000               0.339437500               0.000000000               0.000000000               0.362375000               0.000000000               0.000000000               0.385312500               0.000000000               0.000000000               0.408250000               0.000000000               0.000000000               0.431187500               0.000000000               0.000000000               0.454125000               0.000000000               0.000000000               0.477062500               0.000000000               0.000000000               0.500000000               0.000000000 </DataArray>
</Points>
<Cells>
<DataArray type="Int32"                                    Name="connectivity"                                                      NumberOfComponents=" 1" format="ascii">
         0          1         18         17          1          2         19         18          2          3         20         19          3          4         21         20          4          5         22         21          5          6         23         22          6          7         24         23          7          8         25         24          8          9         26         25          9         10         27         26         10         11         28         27         11         12         29         28         12         13         30         29         13         14         31         30         14         15         32         31         15         16         33         32         17         18         35         34         18         19         36         35         19         20         37         36         20         21         38         37         21         22         39         38         22         23         40         39         23         24         41         40         24         25         42         41         25         26         43         42         26         27         44         43         27         28         45         44         28         29         46         45         29         30         47         46         30         31         48         47         31         32         49         48         32         33         50         49         34         35         52         51         35         36         53         52         36         37         54         53         37         38         55         54         38         39         56         55         39         40         57         56         40         41         58         57         41         42         59         58         42         43         60         59         43         44         61         60         44         45         62         61         45         46         63         62         46         47         64         63         47         48         65         64         48         49         66         65         49         50         67         66         51         52         69         68         52         53         70         69         53         54         71         70         54         55         72         71         55         56         73         72         56         57         74         73         57         58         75         74         58         59         76         75         59         60         77         76         60         61         78         77         61         62         79         78         62         63         80         79         63         64         81         80         64         65         82         81         65         66         83         82         66         67         84         83         68         69         86         85         69         70         87         86         70         71         88         87         71         72         89         88         72         73         90         89         73         74         91         90         74         75         92         91         75         76         93         92         76         77         94         93         77         78         95         94         78         79         96         95         79         80         97         96         80         81         98         97         81         82         99         98         82         83        100         99         83         84        101        100         85         86        103        102         86         87        104        103         87         88        105        104         88         89        106        105         89         90        107        106         90         91        108        107         91         92        109        108         92         93        110        109         93         94        111        110         94         95        112        111         95         96        113        112         96         97        114        113         97         98        115        114         98         99        116        115         99        100        117        116        100        101        118        117        102        103        120        119        103        104        121        120        104        105        122        121        105        106        123        122        106        107        124        123        107        108        125        124        108        109        126        125        109        110        127        126        110        111        128        127        111        112        129        128        112        113        130        129        113        114        131        130        114        115        132        131        115        116        133        132        116        117        134        133        117        118        135        134        119        120        137        136        120        121        138        137        121        122        139        138        122        123        140        139        123        124        141        140        124        125        142        141        125        126        143        142        126        127        144        143        127        128        145        144        128        129        146        145        129        130        147        146        130        131        148        147        131        132        149        148        132        133        150        149        133        134        151        150        134        135        152        151        136        137        154        153        137        138        155        154        138        139        156        155        139        140        157        156        140        141        158        157        141        142        159        158        142        143        160        159        143        144        161        160        144        145        162        161        145        146        163        162        146        147        164        163        147        148        165        164        148        149        166        165        149        150        167        166        150        151        168        167        151        152        169        168        153        154        171        170        154        155        172        171        155        156        173        172        156        157        174        173        157        158        175        174        158        159        176        175        159        160        177        176        160        161        178        177        161        162        179        178        162        163        180        179        163        164        181        180        164        165        182        181        165        166        183        182        166        167        184        183        167        168        185        184        168        169        186        185        170        171        188        187        171        172        189        188        172        173        190        189        173        174        191        190        174        175        192        191        175        176        193        192        176        177        194        193        177        178        195        194        178        179        196        195        179        180        197        196        180        181        198        197        181        182        199        198        182        183        200        199        183        184        201        200        184        185        202        201        185        186        203        202        187        188        205        204        188        189        206        205        189        190        207        206        190        191        208        207        191        192        209        208        192        193        210        209        193        194        211        210        194        195        212        211        195        196        213        212        196        197        214        213        197        198        215        214        198        199        216        215        199        200        217        216        200        201        218        217        201        202        219        218        202        203        220        219        204        205        222        221        205        206        223        222        206        207        224        223        207        208        225        224        208        209        226        225        209        210        227        226        210        211        228        227        211        212        229        228        212        213        230        229        213        214        231        230        214        215        232        231        215        216        233        232        216        217        234        233        217        218        235        234        218        219        236        235        219        220        237        236        221        222        239        238        222        223        240        239        223        224        241        240        224        225        242        241        225        226        243        242        226        227        244        243        227        228        245        244        228        229        246        245        229        230        247        246        230        231        248        247        231        232        249        248        232        233        250        249        233        234        251        250        234        235        252        251        235        236        253        252        236        237        254        253        238        239        256        255        239        240        257        256        240        241        258        257        241        242        259        258        242        243        260        259        243        244        261        260        244        245        262        261        245        246        263        262        246        247        264        263        247        248        265        264        248        249        266        265        249        250        267        266        250        251        268        267        251        252        269        268        252        253        270        269        253        254        271        270        255        256        273        272        256        257        274        273        257        258        275        274        258        259        276        275        259        260        277        276        260        261        278        277        261        262        279        278        262        263        280        279        263        264        281        280        264        265        282        281        265        266        283        282        266        267        284        283        267        268        285        284        268        269        286        285        269        270        287        286        270        271        288        287        306        307          1          0        307        308          2          1        308        309          3          2        309        310          4          3        310        311          5          4        311        312          6          5        312        313          7          6        313        314          8          7        314        315          9          8        315        316         10          9        316        317         11         10        317        318         12         11        318        319         13         12        319        320         14         13        320        321         15         14        321        322         16         15        323        324        307        306        324        325        308        307        325        326        309        308        326        327        310        309        327        328        311        310        328        329        312        311        329        330        313        312        330        331        314        313        331        332        315        314        332        333        316        315        333        334        317        316        334        335        318        317        335        336        319        318        336        337        320        319        337        338        321        320        338        339        322        321        340        341        324        323        341        342        325        324        342        343        326        325        343        344        327        326        344        345        328        327        345        346        329        328        346        347        330        329        347        348        331        330        348        349        332        331        349        350        333        332        350        351        334        333        351        352        335        334        352        353        336        335        353        354        337        336        354        355        338        337        355        356        339        338        357        358        341        340        358        359        342        341        359        360        343        342        360        361        344        343        361        362        345        344        362        363        346        345        363        364        347        346        364        365        348        347        365        366        349        348        366        367        350        349        367        368        351        350        368        369        352        351        369        370        353        352        370        371        354        353        371        372        355        354        372        373        356        355        374        375        358        357        375        376        359        358        376        377        360        359        377        378        361        360        378        379        362        361        379        380        363        362        380        381        364        363        381        382        365        364        382        383        366        365        383        384        367        366        384        385        368        367        385        386        369        368        386        387        370        369        387        388        371        370        388        389        372        371        389        390        373        372        391        392        375        374        392        393        376        375        393        394        377        376        394        395        378        377        395        396        379        378        396        397        380        379        397        398        381        380        398        399        382        381        399        400        383        382        400        401        384        383        401        402        385        384        402        403        386        385        403        404        387        386        404        405        388        387        405        406        389        388        406        407        390        389        408        409        392        391        409        410        393        392        410        411        394        393        411        412        395        394        412        413        396        395        413        414        397        396        414        415        398        397        415        416        399        398        416        417        400        399        417        418        401        400        418        419        402        401        419        420        403        402        420        421        404        403        421        422        405        404        422        423        406        405        423        424        407        406        425        426        409        408        426        427        410        409        427        428        411        410        428        429        412        411        429        430        413        412        430        431        414        413        431        432        415        414        432        433        416        415        433        434        417        416        434        435        418        417        435        436        419        418        436        437        420        419        437        438        421        420        438        439        422        421        439        440        423        422        440        441        424        423        442        443        426        425        443        444        427        426        444        445        428        427        445        446        429        428        446        447        430        429        447        448        431        430        448        449        432        431        449        450        433        432        450        451        434        433        451        452        435        434        452        453        436        435        453        454        437        436        454        455        438        437        455        456        439        438        456        457        440        439        457        458        441        440        459        460        443        442        460        461        444        443        461        462        445        444        462        463        446        445        463        464        447        446        464        465        448        447        465        466        449        448        466        467        450        449        467        468        451        450        468        469        452        451        469        470        453        452        470        471        454        453        471        472        455        454        472        473        456        455        473        474        457        456        474        475        458        457        476        477        460        459        477        478        461        460        478        479        462        461        479        480        463        462        480        481        464        463        481        482        465        464        482        483        466        465        483        484        467        466        484        485        468        467        485        486        469        468        486        487        470        469        487        488        471        470        488        489        472        471        489        490        473        472        490        491        474        473        491        492        475        474        493        494        477        476        494        495        478        477        495        496        479        478        496        497        480        479        497        498        481        480        498        499        482        481        499        500        483        482        500        501        484        483        501        502        485        484        502        503        486        485        503        504        487        486        504        505        488        487        505        506        489        488        506        507        490        489        507        508        491        490        508        509        492        491        510        511        494        493        511        512        495        494        512        513        496        495        513        514        497        496        514        515        498        497        515        516        499        498        516        517        500        499        517        518        501        500        518        519        502        501        519        520        503        502        520        521        504        503        521        522        505        504        522        523        506        505        523        524        507        506        524        525        508        507        525        526        509        508        527        528        511        510        528        529        512        511        529        530        513        512        530        531        514        513        531        532        515        514        532        533        516        515        533        534        517        516        534        535        518        517        535        536        519        518        536        537        520        519        537        538        521        520        538        539        522        521        539        540        523        522        540        541        524        523        541        542        525        524        542        543        526        525        544        545        528        527        545        546        529        528        546        547        530        529        547        548        531        530        548        549        532        531        549        550        533        532        550        551        534        533        551        552        535        534        552        553        536        535        553        554        537        536        554        555        538        537        555        556        539        538        556        557        540        539        557        558        541        540        558        559        542        541        559        560        543        542        561        562        545        544        562        563        546        545        563        564        547        546        564        565        548        547        565        566        549        548        566        567        550        549        567        568        551        550        568        569        552        551        569        570        553        552        570        571        554        553        571        572        555        554        572        573        556        555        573        574        557        556        574        575        558        557        575        576        559        558        576        577        560        559        578        579        596        595        579        580        597        596        580        581        598        597        581        582        599        598        582        583        600        599        583        584        601        600        584        585        602        601        585        586        603        602        586        587        604        603        587        588        605        604        588        589        606        605        589        590        607        606        590        591        608        607        591        592        609        608        592        593        610        609        593        594        611        610        595        596        613        612        596        597        614        613        597        598        615        614        598        599        616        615        599        600        617        616        600        601        618        617        601        602        619        618        602        603        620        619        603        604        621        620        604        605        622        621        605        606        623        622        606        607        624        623        607        608        625        624        608        609        626        625        609        610        627        626        610        611        628        627        612        613        630        629        613        614        631        630        614        615        632        631        615        616        633        632        616        617        634        633        617        618        635        634        618        619        636        635        619        620        637        636        620        621        638        637        621        622        639        638        622        623        640        639        623        624        641        640        624        625        642        641        625        626        643        642        626        627        644        643        627        628        645        644        629        630        647        646        630        631        648        647        631        632        649        648        632        633        650        649        633        634        651        650        634        635        652        651        635        636        653        652        636        637        654        653        637        638        655        654        638        639        656        655        639        640        657        656        640        641        658        657        641        642        659        658        642        643        660        659        643        644        661        660        644        645        662        661        646        647        664        663        647        648        665        664        648        649        666        665        649        650        667        666        650        651        668        667        651        652        669        668        652        653        670        669        653        654        671        670        654        655        672        671        655        656        673        672        656        657        674        673        657        658        675        674        658        659        676        675        659        660        677        676        660        661        678        677        661        662        679        678        663        664        681        680        664        665        682        681        665        666        683        682        666        667        684        683        667        668        685        684        668        669        686        685        669        670        687        686        670        671        688        687        671        672        689        688        672        673        690        689        673        674        691        690        674        675        692        691        675        676        693        692        676        677        694        693        677        678        695        694        678        679        696        695        680        681        698        697        681        682        699        698        682        683        700        699        683        684        701        700        684        685        702        701        685        686        703        702        686        687        704        703        687        688        705        704        688        689        706        705        689        690        707        706        690        691        708        707        691        692        709        708        692        693        710        709        693        694        711        710        694        695        712        711        695        696        713        712        697        698        715        714        698        699        716        715        699        700        717        716        700        701        718        717        701        702        719        718        702        703        720        719        703        704        721        720        704        705        722        721        705        706        723        722        706        707        724        723        707        708        725        724        708        709        726        725        709        710        727        726        710        711        728        727        711        712        729        728        712        713        730        729        714        715        732        731        715        716        733        732        716        717        734        733        717        718        735        734        718        719        736        735        719        720        737        736        720        721        738        737        721        722        739        738        722        723        740        739        723        724        741        740        724        725        742        741        725        726        743        742        726        727        744        743        727        728        745        744        728        729        746        745        729        730        747        746        731        732        749        748        732        733        750        749        733        734        751        750        734        735        752        751        735        736        753        752        736        737        754        753        737        738        755        754        738        739        756        755        739        740        757        756        740        741        758        757        741        742        759        758        742        743        760        759        743        744        761        760        744        745        762        761        745        746        763        762        746        747        764        763        748        749        766        765        749        750        767        766        750        751        768        767        751        752        769        768        752        753        770        769        753        754        771        770        754        755        772        771        755        756        773        772        756        757        774        773        757        758        775        774        758        759        776        775        759        760        777        776        760        761        778        777        761        762        779        778        762        763        780        779        763        764        781        780        765        766        783        782        766        767        784        783        767        768        785        784        768        769        786        785        769        770        787        786        770        771        788        787        771        772        789        788        772        773        790        789        773        774        791        790        774        775        792        791        775        776        793        792        776        777        794        793        777        778        795        794        778        779        796        795        779        780        797        796        780        781        798        797        782        783        800        799        783        784        801        800        784        785        802        801        785        786        803        802        786        787        804        803        787        788        805        804        788        789        806        805        789        790        807        806        790        791        808        807        791        792        809        808        792        793        810        809        793        794        811        810        794        795        812        811        795        796        813        812        796        797        814        813        797        798        815        814        799        800        817        816        800        801        818        817        801        802        819        818        802        803        820        819        803        804        821        820        804        805        822        821        805        806        823        822        806        807        824        823        807        808        825        824        808        809        826        825        809        810        827        826        810        811        828        827        811        812        829        828        812        813        830        829        813        814        831        830        814        815        832        831        816        817        834        833        817        818        835        834        818        819        836        835        819        820        837        836        820        821        838        837        821        822        839        838        822        823        840        839        823        824        841        840        824        825        842        841        825        826        843        842        826        827        844        843        827        828        845        844        828        829        846        845        829        830        847        846        830        831        848        847        831        832        849        848        833        834        562        561        834        835        563        562        835        836        564        563        836        837        565        564        837        838        566        565        838        839        567        566        839        840        568        567        840        841        569        568        841        842        570        569        842        843        571        570        843        844        572        571        844        845        573        572        845        846        574        573        846        847        575        574        847        848        576        575        848        849        577        576        884        885        579        578        885        886        580        579        886        887        581        580        887        888        582        581        888        889        583        582        889        890        584        583        890        891        585        584        891        892        586        585        892        893        587        586        893        894        588        587        894        895        589        588        895        896        590        589        896        897        591        590        897        898        592        591        898        899        593        592        899        900        594        593        901        902        885        884        902        903        886        885        903        904        887        886        904        905        888        887        905        906        889        888        906        907        890        889        907        908        891        890        908        909        892        891        909        910        893        892        910        911        894        893        911        912        895        894        912        913        896        895        913        914        897        896        914        915        898        897        915        916        899        898        916        917        900        899        918        919        902        901        919        920        903        902        920        921        904        903        921        922        905        904        922        923        906        905        923        924        907        906        924        925        908        907        925        926        909        908        926        927        910        909        927        928        911        910        928        929        912        911        929        930        913        912        930        931        914        913        931        932        915        914        932        933        916        915        933        934        917        916        935        936        919        918        936        937        920        919        937        938        921        920        938        939        922        921        939        940        923        922        940        941        924        923        941        942        925        924        942        943        926        925        943        944        927        926        944        945        928        927        945        946        929        928        946        947        930        929        947        948        931        930        948        949        932        931        949        950        933        932        950        951        934        933        952        953        936        935        953        954        937        936        954        955        938        937        955        956        939        938        956        957        940        939        957        958        941        940        958        959        942        941        959        960        943        942        960        961        944        943        961        962        945        944        962        963        946        945        963        964        947        946        964        965        948        947        965        966        949        948        966        967        950        949        967        968        951        950        969        970        953        952        970        971        954        953        971        972        955        954        972        973        956        955        973        974        957        956        974        975        958        957        975        976        959        958        976        977        960        959        977        978        961        960        978        979        962        961        979        980        963        962        980        981        964        963        981        982        965        964        982        983        966        965        983        984        967        966        984        985        968        967        986        987        970        969        987        988        971        970        988        989        972        971        989        990        973        972        990        991        974        973        991        992        975        974        992        993        976        975        993        994        977        976        994        995        978        977        995        996        979        978        996        997        980        979        997        998        981        980        998        999        982        981        999       1000        983        982       1000       1001        984        983       1001       1002        985        984       1003       1004        987        986       1004       1005        988        987       1005       1006        989        988       1006       1007        990        989       1007       1008        991        990       1008       1009        992        991       1009       1010        993        992       1010       1011        994        993       1011       1012        995        994       1012       1013        996        995       1013       1014        997        996       1014       1015        998        997       1015       1016        999        998       1016       1017       1000        999       1017       1018       1001       1000       1018       1019       1002       1001       1020       1021       1004       1003       1021       1022       1005       1004       1022       1023       1006       1005       1023       1024       1007       1006       1024       1025       1008       1007       1025       1026       1009       1008       1026       1027       1010       1009       1027       1028       1011       1010       1028       1029       1012       1011       1029       1030       1013       1012       1030       1031       1014       1013       1031       1032       1015       1014       1032       1033       1016       1015       1033       1034       1017       1016       1034       1035       1018       1017       1035       1036       1019       1018       1037       1038       1021       1020       1038       1039       1022       1021       1039       1040       1023       1022       1040       1041       1024       1023       1041       1042       1025       1024       1042       1043       1026       1025       1043       1044       1027       1026       1044       1045       1028       1027       1045       1046       1029       1028       1046       1047       1030       1029       1047       1048       1031       1030       1048       1049       1032       1031       1049       1050       1033       1032       1050       1051       1034       1033       1051       1052       1035       1034       1052       1053       1036       1035       1054       1055       1038       1037       1055       1056       1039       1038       1056       1057       1040       1039       1057       1058       1041       1040       1058       1059       1042       1041       1059       1060       1043       1042       1060       1061       1044       1043       1061       1062       1045       1044       1062       1063       1046       1045       1063       1064       1047       1046       1064       1065       1048       1047       1065       1066       1049       1048       1066       1067       1050       1049       1067       1068       1051       1050       1068       1069       1052       1051       1069       1070       1053       1052       1071       1072       1055       1054       1072       1073       1056       1055       1073       1074       1057       1056       1074       1075       1058       1057       1075       1076       1059       1058       1076       1077       1060       1059       1077       1078       1061       1060       1078       1079       1062       1061       1079       1080       1063       1062       1080       1081       1064       1063       1081       1082       1065       1064       1082       1083       1066       1065       1083       1084       1067       1066       1084       1085       1068       1067       1085       1086       1069       1068       1086       1087       1070       1069       1088       1089       1072       1071       1089       1090       1073       1072       1090       1091       1074       1073       1091       1092       1075       1074       1092       1093       1076       1075       1093       1094       1077       1076       1094       1095       1078       1077       1095       1096       1079       1078       1096       1097       1080       1079       1097       1098       1081       1080       1098       1099       1082       1081       1099       1100       1083       1082       1100       1101       1084       1083       1101       1102       1085       1084       1102       1103       1086       1085       1103       1104       1087       1086       1105       1106       1089       1088       1106       1107       1090       1089       1107       1108       1091       1090       1108       1109       1092       1091       1109       1110       1093       1092       1110       1111       1094       1093       1111       1112       1095       1094       1112       1113       1096       1095       1113       1114       1097       1096       1114       1115       1098       1097       1115       1116       1099       1098       1116       1117       1100       1099       1117       1118       1101       1100       1118       1119       1102       1101       1119       1120       1103       1102       1120       1121       1104       1103       1122       1123       1106       1105       1123       1124       1107       1106       1124       1125       1108       1107       1125       1126       1109       1108       1126       1127       1110       1109       1127       1128       1111       1110       1128       1129       1112       1111       1129       1130       1113       1112       1130       1131       1114       1113       1131       1132       1115       1114       1132       1133       1116       1115       1133       1134       1117       1116       1134       1135       1118       1117       1135       1136       1119       1118       1136       1137       1120       1119       1137       1138       1121       1120        272        273       1123       1122        273        274       1124       1123        274        275       1125       1124        275        276       1126       1125        276        277       1127       1126        277        278       1128       1127        278        279       1129       1128        279        280       1130       1129        280        281       1131       1130        281        282       1132       1131        282        283       1133       1132        283        284       1134       1133        284        285       1135       1134        285        286       1136       1135        286        287       1137       1136        287        288       1138       1137 </DataArray>
<DataArray type="Int32"                                    Name="offsets"                                                      NumberOfComponents=" 1" format="ascii">
         4          8         12         16         20         24         28         32         36         40         44         48         52         56         60         64         68         72         76         80         84         88         92         96        100        104        108        112        116        120        124        128        132        136        140        144        148        152        156        160        164        168        172        176        180        184        188        192        196        200        204        208        212        216        220        224        228        232        236        240        244        248        252        256        260        264        268        272        276        280        284        288        292        296        300        304        308        312        316        320        324        328        332        336        340        344        348        352        356        360        364        368        372        376        380        384        388        392        396        400        404        408        412        416        420        424        428        432        436        440        444        448        452        456        460        464        468        472        476        480        484        488        492        496        500        504        508        512        516        520        524        528        532        536        540        544        548        552        556        560        564        568        572        576        580        584        588        592        596        600        604        608        612        616        620        624        628        632        636        640        644        648        652        656        660        664        668        672        676        680        684        688        692        696        700        704        708        712        716        720        724        728        732        736        740        744        748        752        756        760        764        768        772        776        780        784        788        792        796        800        804        808        812        816        820        824        828        832        836        840        844        848        852        856        860        864        868        872        876        880        884        888        892        896        900        904        908        912        916        920        924        928        932        936        940        944        948        952        956        960        964        968        972        976        980        984        988        992        996       1000       1004       1008       1012       1016       1020       1024       1028       1032       1036       1040       1044       1048       1052       1056       1060       1064       1068       1072       1076       1080       1084       1088       1092       1096       1100       1104       1108       1112       1116       1120       1124       1128       1132       1136       1140       1144       1148       1152       1156       1160       1164       1168       1172       1176       1180       1184       1188       1192       1196       1200       1204       1208       1212       1216       1220       1224       1228       1232       1236       1240       1244       1248       1252       1256       1260       1264       1268       1272       1276       1280       1284       1288       1292       1296       1300       1304       1308       1312       1316       1320       1324       1328       1332       1336       1340       1344       1348       1352       1356       1360       1364       1368       1372       1376       1380       1384       1388       1392       1396       1400       1404       1408       1412       1416       1420       1424       1428       1432       1436       1440       1444       1448       1452       1456       1460       1464       1468       1472       1476       1480       1484       1488       1492       1496       1500       1504       1508       1512       1516       1520       1524       1528       1532       1536       1540       1544       1548       1552       1556       1560       1564       1568       1572       1576       1580       1584       1588       1592       1596       1600       1604       1608       1612       1616       1620       1624       1628       1632       1636       1640       1644       1648       1652       1656       1660       1664       1668       1672       1676       1680       1684       1688       1692       1696       1700       1704       1708       1712       1716       1720       1724       1728       1732       1736       1740       1744       1748       1752       1756       1760       1764       1768       1772       1776       1780       1784       1788       1792       1796       1800       1804       1808       1812       1816       1820       1824       1828       1832       1836       1840       1844       1848       1852       1856       1860       1864       1868       1872       1876       1880       1884       1888       1892       1896       1900       1904       1908       1912       1916       1920       1924       1928       1932       1936       1940       1944       1948       1952       1956       1960       1964       1968       1972       1976       1980       1984       1988       1992       1996       2000       2004       2008       2012       2016       2020       2024       2028       2032       2036       2040       2044       2048       2052       2056       2060       2064       2068       2072       2076       2080       2084       2088       2092       2096       2100       2104       2108       2112       2116       2120       2124       2128       2132       2136       2140       2144       2148       2152       2156       2160       2164       2168       2172       2176       2180       2184       2188       2192       2196       2200       2204       2208       2212       2216       2220       2224       2228       2232       2236       2240       2244       2248       2252       2256       2260       2264       2268       2272       2276       2280       2284       2288       2292       2296       2300       2304       2308       2312       2316       2320       2324       2328       2332       2336       2340       2344       2348       2352       2356       2360       2364       2368       2372       2376       2380       2384       2388       2392       2396       2400       2404       2408       2412       2416       2420       2424       2428       2432       2436       2440       2444       2448       2452       2456       2460       2464       2468       2472       2476       2480       2484       2488       2492       2496       2500       2504       2508       2512       2516       2520       2524       2528       2532       2536       2540       2544       2548       2552       2556       2560       2564       2568       2572       2576       2580       2584       2588       2592       2596       2600       2604       2608       2612       2616       2620       2624       2628       2632       2636       2640       2644       2648       2652       2656       2660       2664       2668       2672       2676       2680       2684       2688       2692       2696       2700       2704       2708       2712       2716       2720       2724       2728       2732       2736       2740       2744       2748       2752       2756       2760       2764       2768       2772       2776       2780       2784       2788       2792       2796       2800       2804       2808       2812       2816       2820       2824       2828       2832       2836       2840       2844       2848       2852       2856       2860       2864       2868       2872       2876       2880       2884       2888       2892       2896       2900       2904       2908       2912       2916       2920       2924       2928       2932       2936       2940       2944       2948       2952       2956       2960       2964       2968       2972       2976       2980       2984       2988       2992       2996       3000       3004       3008       3012       3016       3020       3024       3028       3032       3036       3040       3044       3048       3052       3056       3060       3064       3068       3072       3076       3080       3084       3088       3092       3096       3100       3104       3108       3112       3116       3120       3124       3128       3132       3136       3140       3144       3148       3152       3156       3160       3164       3168       3172       3176       3180       3184       3188       3192       3196       3200       3204       3208       3212       3216       3220       3224       3228       3232       3236       3240       3244       3248       3252       3256       3260       3264       3268       3272       3276       3280       3284       3288       3292       3296       3300       3304       3308       3312       3316       3320       3324       3328       3332       3336       3340       3344       3348       3352       3356       3360       3364       3368       3372       3376       3380       3384       3388       3392       3396       3400       3404       3408       3412       3416       3420       3424       3428       3432       3436       3440       3444       3448       3452       3456       3460       3464       3468       3472       3476       3480       3484       3488       3492       3496       3500       3504       3508       3512       3516       3520       3524       3528       3532       3536       3540       3544       3548       3552       3556       3560       3564       3568       3572       3576       3580       3584       3588       3592       3596       3600       3604       3608       3612       3616       3620       3624       3628       3632       3636       3640       3644       3648       3652       3656       3660       3664       3668       3672       3676       3680       3684       3688       3692       3696       3700       3704       3708       3712       3716       3720       3724       3728       3732       3736       3740       3744       3748       3752       3756       3760       3764       3768       3772       3776       3780       3784       3788       3792       3796       3800       3804       3808       3812       3816       3820       3824       3828       3832       3836       3840       3844       3848       3852       3856       3860       3864       3868       3872       3876       3880       3884       3888       3892       3896       3900       3904       3908       3912       3916       3920       3924       3928       3932       3936       3940       3944       3948       3952       3956       3960       3964       3968       3972       3976       3980       3984       3988       3992       3996       4000       4004       4008       4012       4016       4020       4024       4028       4032       4036       4040       4044       4048       4052       4056       4060       4064       4068       4072       4076       4080       4084       4088       4092       4096 </DataArray>
<DataArray type="UInt8"                                    Name="types"                                                      NumberOfComponents=" 1" format="ascii">
         9          9          9          9          9          9          9          9          9          9          9          9          9          9          9          9          9          9          9          9          9          9          9          9          9          9          9          9          9          9          9          9          9          9          9          9          9          9          9          9          9          9          9          9          9          9          9          9          9          9          9          9          9          9          9          9          9          9          9          9          9          9          9          9          9          9          9          9          9          9          9          9          9          9          9          9          9          9          9          9          9          9          9          9          9          9          9          9          9          9          9          9          9          9          9          9          9          9          9          9          9          9          9          9          9          9          9          9          9          9          9          9          9          9          9          9          9          9          9          9          9          9          9          9          9          9          9          9          9          9          9          9          9          9          9          9          9          9          9          9          9          9          9          9          9          9          9          9          9          9          9          9          9          9          9          9          9          9          9          9          9          9          9          9          9          9          9          9          9          9          9          9          9          9          9          9          9          9          9          9          9          9          9          9          9          9          9          9          9          9          9          9          9          9          9          9          9          9          9          9          9          9          9          9          9          9          9          9          9          9          9          9          9          9          9          9          9          9          9          9          9          9          9          9          9          9          9          9          9          9          9          9          9          9          9          9          9          9          9          9          9          9          9          9          9          9          9          9          9          9          9          9          9          9          9          9          9          9          9          9          9          9          9          9          9          9          9          9          9          9          9          9          9          9          9          9          9          9          9          9          9          9          9          9          9          9          9          9          9          9          9          9          9          9          9          9          9          9          9          9          9          9          9          9          9          9          9          9          9          9          9          9          9          9          9          9          9          9          9          9          9          9          9          9          9          9          9          9          9          9          9          9          9          9          9          9          9          9          9          9          9          9          9          9          9          9          9          9          9          9          9          9          9          9          9          9          9          9          9          9          9          9          9          9          9          9          9          9          9          9          9          9          9          9          9          9          9          9          9          9          9          9          9          9          9          9          9          9          9          9          9          9          9          9          9          9          9          9          9          9          9          9          9          9          9          9          9          9          9          9          9          9          9          9          9          9          9          9          9          9          9          9          9          9          9          9          9          9          9          9          9          9          9          9          9          9          9          9          9          9          9          9          9          9          9          9          9          9          9          9          9          9          9          9          9          9          9          9          9          9          9          9          9          9          9          9          9          9          9          9          9          9          9          9          9          9          9          9          9          9          9          9          9          9          9          9          9          9          9          9          9          9          9          9          9          9          9          9          9          9          9          9          9          9          9          9          9          9          9          9          9          9          9          9          9          9          9          9          9          9          9          9          9          9          9          9          9          9          9          9          9          9          9          9          9          9          9          9          9          9          9          9          9          9          9          9          9          9          9          9          9          9          9          9          9          9          9          9          9          9          9          9          9          9          9          9          9          9          9          9          9          9          9          9          9          9          9          9          9          9          9          9          9          9          9          9          9          9          9          9          9          9          9          9          9          9          9          9          9          9          9          9          9          9          9          9          9          9          9          9          9          9          9          9          9          9          9          9          9          9          9          9          9          9          9          9          9          9          9          9          9          9          9          9          9          9          9          9          9          9          9          9          9          9          9          9          9          9          9          9          9          9          9          9          9          9          9          9          9          9          9          9          9          9          9          9          9          9          9          9          9          9          9          9          9          9          9          9          9          9          9          9          9          9          9          9          9          9          9          9          9          9          9          9          9          9          9          9          9          9          9          9          9          9          9          9          9          9          9          9          9          9          9          9          9          9          9          9          9          9          9          9          9          9          9          9          9          9          9          9          9          9          9          9          9          9          9          9          9          9          9          9          9          9          9          9          9          9          9          9          9          9          9          9          9          9          9          9          9          9          9          9          9          9          9          9          9          9          9          9          9          9          9          9          9          9          9          9          9          9          9          9          9          9          9          9          9          9          9          9          9          9          9          9          9          9          9          9          9          9          9          9          9          9          9          9          9          9          9          9          9          9          9          9          9          9          9          9          9          9          9          9          9          9          9          9          9          9          9          9          9          9          9          9          9          9          9          9          9          9          9          9          9          9          9          9          9          9          9          9          9          9          9          9          9          9          9          9          9          9          9          9          9          9          9          9          9          9          9          9          9          9          9          9          9          9          9          9          9          9          9          9          9          9          9          9          9          9          9          9          9          9          9          9          9          9          9          9          9          9          9          9          9          9          9          9          9          9          9          9          9          9          9          9          9          9          9          9          9          9          9          9          9          9          9          9          9          9          9          9          9          9          9          9          9          9          9          9          9          9          9          9          9          9          9          9          9          9          9          9          9          9          9          9          9          9          9          9          9          9          9          9          9          9          9          9          9          9          9          9          9          9          9          9          9          9          9          9          9          9          9          9          9          9          9          9          9          9          9          9          9          9          9          9          9          9          9          9          9          9          9          9          9          9          9          9          9          9          9          9          9          9          9          9          9          9          9          9          9          9          9          9          9          9 </DataArray>
</Cells>
<CellData>
<DataArray type="Int32"                                    Name="material"                                                      NumberOfComponents=" 1" format="ascii">
         1          1          1          1          1          1          1          1          1          1          1          1          1          1          1          1          1          1          1          1          1          1          1          1          1          1          1          1          1          1          1          1          1          1          1          1          1          1          1          1          1          1          1          1          1          1          1          1          1          1          1          1          1          1          1          1          1          1          1          1          1          1          1          1          1          1          1          1          1          1          1          1          1          1          1          1          1          1          1          1          1          1          1          1          1          1          1          1          1          1          1          1          1          1          1          1          1          1          1          1          1          1          1          1          1          1          1          1          1          1          1          1          1          1          1          1          1          1          1          1          1          1          1          1          1          1          1          1          1          1          1          1          1          1          1          1          1          1          1          1          1          1          1          1          1          1          1          1          1          1          1          1          1          1          1          1          1          1          1          1          1          1          1          1          1          1          1          1          1          1          1          1          1          1          1          1          1          1          1          1          1          1          1          1          1          1          1          1          1          1          1          1          1          1          1          1          1          1          1          1          1          1          1          1          1          1          1          1          1          1          1          1          1          1          1          1          1          1          1          1          1          1          1          1          1          1          1          1          1          1          1          1          1          1          1          1          1          1          1          1          1          1          1          1          1          1          1          1          1          1          1          1          1          1          1          1          1          1          1          1          1          1          1          1          1          1          1          1          1          1          1          1          1          1          1          1          1          1          1          1          1          1          1          1          1          1          1          1          1          1          1          1          1          1          1          1          1          1          1          1          1          1          1          1          1          1          1          1          1          1          1          1          1          1          1          1          1          1          1          1          1          1          1          1          1          1          1          1          1          1          1          1          1          1          1          1          1          1          1          1          1          1          1          1          1          1          1          1          1          1          1          1          1          1          1          1          1          1          1          1          1          1          1          1          1          1          1          1          1          1          1          1          1          1          1          1          1          1          1          1          1          1          1          1          1          1          1          1          1          1          1          1          1          1          1          1          1          1          1          1          1          1          1          1          1          1          1          1          1          1          1          1          1          1          1          1          1          1          1          1          1          1          1          1          1          1          1          1          1          1          1          1          1          1          1          1          1          1          1          1          1          1          1          1          1          1          1          1          1          1          1          1          1          1          1          1          1          1          1          1          1          1          1          1          1          1          1          1          1          1          1          1          1          1          1          1          1          1          1          1          1          1          1          1          1          1          1          1          1          1          1          1          1          1          1          1          1          1          1          1          1          1          1          1          1          1          1          1          1          1          1          1          1          1          1          1          1          1          1          1          1          1          1          1          1          1          1          1          1          1          1          1          1          1          1          1          1          1          1          1          1          1          1          1          1          1          1          1          1          1          1          1          1          1          1          1          1          1          1          1          1          1          1          1          1          1          1          1          1          1          1          1          1          1          1          1          1          1          1          1          1          1          1          1          1          1          1          1          1          1          1          1          1          1          1          1          1          1          1          1          1          1          1          1          1          1          1          1          1          1          1          1          1          1          1          1          1          1          1          1          1          1          1          1          1          1          1          1          1          1          1          1          1          1          1          1          1          1          1          1          1          1          1          1          1          1          1          1          1          1          1          1          1          1          1          1          1          1          1          1          1          1          1          1          1          1          1          1          1          1          1          1          1          1          1          1          1          1          1          1          1          1          1          1          1          1          1          1          1          1          1          1          1          1          1          1          1          1          1          1          1          1          1          1          1          1          1          1          1          1          1          1          1          1          1          1          1          1          1          1          1          1          1          1          1          1          1          1          1          1          1          1          1          1          1          1          1          1          1          1          1          1          1          1          1          1          1          1          1          1          1          1          1          1          1          1          1          1          1          1          1          1          1          1          1          1          1          1          1          1          1          1          1          1          1          1          1          1          1          1          1          1          1          1          1          1          1          1          1          1          1          1          1          1          1          1          1          1          1          1          1          1          1          1          1          1          1          1          1          1          1          1          1          1          1          1          1          1          1          1          1          1          1          1          1          1          1          1          1          1          1          1          1          1          1          1          1          1          1          1          1          1          1          1          1          1          1          1          1          1          1          1          1          1          1          1          1          1          1          1          1          1          1          1          1          1          1          1          1          1          1          1          1          1          1          1          1          1          1          1          1          1          1          1          1          1          1          1          1          1          1          1          1          1          1          1          1          1          1          1          1          1          1          1          1          1          1          1          1          1          1          1          1          1          1          1          1          1          1          1          1          1          1          1          1          1          1          1          1          1          1          1          1          1          1          1          1          1          1          1          1          1          1          1          1          1          1          1          1          1          1          1          1          1          1          1          1          1          1          1          1          1          1          1          1          1          1          1          1          1          1          1          1          1          1          1          1          1          1          1          1          1          1          1          1          1          1          1          1          1          1          1          1          1          1          1          1          1          1          1          1          1          1          1          1          1          1          1          1          1          1          1          1          1          1          1          1          1          1          1          1          1          1          1 </DataArray>
</CellData>
<PointData>
<DataArray type="Float64"                                    Name="u"                                                      NumberOfComponents=" 3" format="ascii">
             -0.000922681               0.000000000               0.999999986              -0.000971243               0.000000000               0.999999986              -0.000991088              -0.000000000               0.999999986              -0.001001613              -0.000000000               0.999999986              -0.001009768              -0.000000000               0.999999986              -0.001018097              -0.000000000               0.999999986              -0.001027324               0.000000000               0.999999986              -0.001037501               0.000000000               0.999999986              -0.001048377               0.000000000               0.999999986              -0.001059597               0.000000000               0.999999987              -0.001070811              -0.000000000               0.999999987              -0.001081715               0.000000000               0.999999987              -0.001092015              -0.000000000               0.999999987              -0.001101170               0.000000000               0.999999987              -0.001108623              -0.000000000               0.999999987              -0.001113689              -0.000000000               0.999999987              -0.001115544               0.000000000               0.999999987              -0.000917507               0.000127718               0.999999986              -0.000961763               0.000100475               0.999999986              -0.000978859               0.000087826               0.999999986              -0.000987560               0.000082309               0.999999986              -0.000994501               0.000080250               0.999999986              -0.001001905               0.000079758               0.999999986              -0.001010261               0.000079668               0.999999986              -0.001019548               0.000079389               0.999999986              -0.001029369               0.000078417               0.999999986              -0.001039324               0.000076304               0.999999987              -0.001049129               0.000073072               0.999999987              -0.001058386               0.000068237               0.999999987              -0.001066670               0.000061324               0.999999987              -0.001073555               0.000051675               0.999999987              -0.001078500               0.000038516               0.999999987              -0.001080879               0.000021211               0.999999987              -0.001080151              -0.000001236               0.999999987              -0.000901968               0.000254173               0.999999986              -0.000933627               0.000200627               0.999999986              -0.000943029               0.000176729               0.999999986              -0.000946946               0.000166826               0.999999986              -0.000950695               0.000163626               0.999999986              -0.000955666               0.000163131               0.999999986              -0.000961732               0.000163333               0.999999986              -0.000968426               0.000162976               0.999999986              -0.000975271               0.000161007               0.999999986              -0.000981865               0.000157034               0.999999987              -0.000987579               0.000150626               0.999999987              -0.000991875               0.000141125               0.999999987              -0.000994409               0.000127599               0.999999987              -0.000994765               0.000109300               0.999999987              -0.000992757               0.000084898               0.999999987              -0.000988117               0.000053431               0.999999987              -0.000980688               0.000013748               0.999999987              -0.000876292               0.000378199               0.999999986              -0.000888298               0.000300319               0.999999986              -0.000886624               0.000267721               0.999999986              -0.000884203               0.000255461               0.999999986              -0.000883931               0.000252446               0.999999986              -0.000885517               0.000252833               0.999999986              -0.000888273               0.000253711               0.999999986              -0.000891277               0.000253537               0.999999986              -0.000893741               0.000250897               0.999999987              -0.000894895               0.000245120               0.999999987              -0.000894031               0.000235607               0.999999987              -0.000890743               0.000221515               0.999999987              -0.000884735               0.000202143               0.999999987              -0.000875858               0.000176667               0.999999987              -0.000864136               0.000144097               0.999999987              -0.000849862               0.000103886               0.999999987              -0.000833656               0.000055691               0.999999987              -0.000841126               0.000498660               0.999999986              -0.000828335               0.000399554               0.999999986              -0.000814447               0.000361320               0.999999986              -0.000805616               0.000348910               0.999999986              -0.000801324               0.000347360               0.999999986              -0.000799577               0.000349309               0.999999986              -0.000798739               0.000351338               0.999999986              -0.000797248               0.000351472               0.999999986              -0.000794047               0.000348086               0.999999987              -0.000788253               0.000340397               0.999999987              -0.000779440               0.000327806               0.999999987              -0.000767223               0.000309676               0.999999987              -0.000751520               0.000285339               0.999999987              -0.000732447               0.000254570               0.999999987              -0.000710589               0.000217427               0.999999987              -0.000686823               0.000173982               0.999999987              -0.000662004               0.000125284               0.999999987              -0.000797453               0.000614380               0.999999986              -0.000756965               0.000498351               0.999999986              -0.000731743               0.000457648               0.999999986              -0.000718045               0.000446685               0.999999986              -0.000710797               0.000447406               0.999999986              -0.000706128               0.000451453               0.999999986              -0.000701445               0.000454822               0.999999986              -0.000694936               0.000455062               0.999999987              -0.000685394               0.000450742               0.999999987              -0.000672129               0.000441118               0.999999987              -0.000654737               0.000425582               0.999999987              -0.000633039               0.000403947               0.999999987              -0.000607413               0.000375872               0.999999987              -0.000578454               0.000341995               0.999999987              -0.000547055               0.000303343               0.999999987              -0.000514346               0.000260961               0.999999987              -0.000481148               0.000215994               0.999999987              -0.000746036               0.000724350               0.999999986              -0.000677689               0.000596798               0.999999986              -0.000643928               0.000556162               0.999999986              -0.000627681               0.000547628               0.999999986              -0.000618928               0.000550816               0.999999986              -0.000611917               0.000556876               0.999999986              -0.000603423               0.000561372               0.999999986              -0.000591589               0.000561460               0.999999987              -0.000575313               0.000556109               0.999999987              -0.000553959               0.000544534               0.999999987              -0.000527295               0.000526465               0.999999987              -0.000495728               0.000502093               0.999999987              -0.000459836               0.000471985               0.999999987              -0.000420904               0.000437036               0.999999987              -0.000380008               0.000399326               0.999999987              -0.000338120               0.000359680               0.999999987              -0.000295623               0.000318784               0.999999987              -0.000687963               0.000827424               0.999999986              -0.000594230               0.000694698               0.999999986              -0.000555864               0.000655869               0.999999986              -0.000539820               0.000649849               0.999999986              -0.000530729               0.000655249               0.999999986              -0.000521790               0.000662865               0.999999986              -0.000509457               0.000668019               0.999999987              -0.000491922               0.000667850               0.999999987              -0.000468192               0.000661462               0.999999987              -0.000437842               0.000648138               0.999999987              -0.000401179               0.000627933               0.999999987              -0.000358775               0.000601791               0.999999987              -0.000312015               0.000570779               0.999999987              -0.000262372               0.000536731               0.999999987              -0.000210918               0.000501369               0.999999987              -0.000158397               0.000465129               0.999999987              -0.000105234               0.000428229               0.999999987              -0.000625098               0.000921731               0.999999986              -0.000509547               0.000791794               0.999999986              -0.000471989               0.000755152               0.999999986              -0.000457955               0.000751212               0.999999986              -0.000449301               0.000758354               0.999999986              -0.000438386               0.000767127               0.999999986              -0.000421794               0.000772671               0.999999987              -0.000397799               0.000772288               0.999999987              -0.000365617               0.000764791               0.999999987              -0.000325134               0.000749861               0.999999987              -0.000276866               0.000728162               0.999999987              -0.000222272               0.000701177               0.999999987              -0.000163181               0.000670825               0.999999987              -0.000101384               0.000639025               0.999999987              -0.000038053               0.000606931               0.999999987               0.000025983               0.000574913               0.999999987               0.000089997               0.000543051               0.999999987              -0.000560024               0.001010999               0.999999986              -0.000438397               0.000900952               0.999999986              -0.000398612               0.000861200               0.999999986              -0.000384440               0.000853122               0.999999986              -0.000376933               0.000858180               0.999999986              -0.000368432               0.000867408               0.999999986              -0.000355126               0.000876220               0.999999987              -0.000335600               0.000881876               0.999999987              -0.000308956               0.000882539               0.999999987              -0.000274411               0.000877492               0.999999987              -0.000231750               0.000866528               0.999999987              -0.000181765               0.000850452               0.999999987              -0.000125742               0.000830269               0.999999987              -0.000065126               0.000807736               0.999999987              -0.000001592               0.000784263               0.999999987               0.000063310               0.000760885               0.999999987               0.000128119               0.000737955               0.999999987              -0.000489318               0.001092211               0.999999986              -0.000369791               0.001006594               0.999999986              -0.000327973               0.000970001               0.999999986              -0.000312832               0.000960040               0.999999986              -0.000305656               0.000963831               0.999999986              -0.000298758               0.000973765               0.999999986              -0.000288115               0.000985312               0.999999987              -0.000272479               0.000995932               0.999999987              -0.000250808               0.001003813               0.999999987              -0.000221961               0.001007812               0.999999987              -0.000185271               0.001007199               0.999999987              -0.000140922               0.001001825               0.999999987              -0.000089445               0.000992261               0.999999987              -0.000031885               0.000979293               0.999999987               0.000030605               0.000964386               0.999999987               0.000096421               0.000948930               0.999999987               0.000163481               0.000933911               0.999999987              -0.000414404               0.001163444               0.999999986              -0.000303667               0.001105454               0.999999986              -0.000261631               0.001076574               0.999999986              -0.000245348               0.001068074               0.999999986              -0.000237914               0.001072041               0.999999986              -0.000231870               0.001083013               0.999999987              -0.000223406               0.001097230               0.999999987              -0.000210890               0.001112303               0.999999987              -0.000193486               0.001126495               0.999999987              -0.000169948               0.001138556               0.999999987              -0.000139429               0.001147512               0.999999987              -0.000101521               0.001152655               0.999999987              -0.000055995               0.001153862               0.999999987              -0.000003213               0.001151484               0.999999987               0.000056140               0.001146220               0.999999987               0.000121426               0.001139252               0.999999987               0.000190761               0.001131969               0.999999987              -0.000335973               0.001223540               0.999999986              -0.000239961               0.001193442               0.999999986              -0.000200392               0.001175530               0.999999986              -0.000183841               0.001171262               0.999999986              -0.000176083               0.001177345               0.999999987              -0.000170504               0.001190321               0.999999987              -0.000163578               0.001207373               0.999999987              -0.000153592               0.001226609               0.999999987              -0.000139799               0.001246486               0.999999987              -0.000121214               0.001265790               0.999999987              -0.000096761               0.001283358               0.999999987              -0.000065673               0.001298431               0.999999987              -0.000027379               0.001310423               0.999999987               0.000018440               0.001319147               0.999999987               0.000072060               0.001324695               0.999999987               0.000133569               0.001327694               0.999999987               0.000202846               0.001329134               0.999999987              -0.000254630               0.001271451               0.999999986              -0.000178326               0.001266572               0.999999986              -0.000144504               0.001260818               0.999999986              -0.000129261               0.001262739               0.999999987              -0.000121814               0.001272414               0.999999987              -0.000116749               0.001288330               0.999999987              -0.000111045               0.001308635               0.999999987              -0.000103323               0.001331744               0.999999987              -0.000092921               0.001356488               0.999999987              -0.000079063               0.001381831               0.999999987              -0.000060473               0.001406896               0.999999987              -0.000036591               0.001430819               0.999999987              -0.000006612               0.001452815               0.999999987               0.000030097               0.001472156               0.999999987               0.000074430               0.001488638               0.999999987               0.000127551               0.001502356               0.999999987               0.000190523               0.001513581               0.999999987              -0.000171034               0.001306226               0.999999986              -0.000118171               0.001321446               0.999999986              -0.000093343               0.001326740               0.999999987              -0.000081524               0.001334936               0.999999987              -0.000075537               0.001348723               0.999999987              -0.000071406               0.001367858               0.999999987              -0.000067208               0.001391318               0.999999987              -0.000061789               0.001417913               0.999999987              -0.000054671               0.001446744               0.999999987              -0.000045294               0.001477037               0.999999987              -0.000032861               0.001507936               0.999999987              -0.000016719               0.001538608               0.999999987               0.000003858               0.001568476               0.999999987               0.000029595               0.001596860               0.999999987               0.000061402               0.001623033               0.999999987               0.000100818               0.001646538               0.999999987               0.000149738               0.001667138               0.999999987              -0.000085906               0.001327350               0.999999987              -0.000058865               0.001355487               0.999999987              -0.000045706               0.001368574               0.999999987              -0.000039248               0.001381354               0.999999987              -0.000035841               0.001398225               0.999999987              -0.000033583               0.001419868               0.999999987              -0.000031307               0.001445637               0.999999987              -0.000028464               0.001474826               0.999999987              -0.000024699               0.001506525               0.999999987              -0.000019975               0.001540076               0.999999987              -0.000013849               0.001574891               0.999999987              -0.000005762               0.001610215               0.999999987               0.000004880               0.001645429               0.999999987               0.000018258               0.001679896               0.999999987               0.000034762               0.001712895               0.999999987               0.000055870               0.001743613               0.999999987               0.000083097               0.001771193               0.999999987               0.000000000               0.001334519               0.999999987              -0.000000000               0.001367041               0.999999987               0.000000000               0.001382870               0.999999987              -0.000000000               0.001397473               0.999999987              -0.000000000               0.001415473               0.999999987              -0.000000000               0.001437988               0.999999987              -0.000000000               0.001464589               0.999999987               0.000000000               0.001494634               0.999999987              -0.000000000               0.001527460               0.999999987               0.000000000               0.001562251               0.999999987              -0.000000000               0.001598349               0.999999987              -0.000000000               0.001635361               0.999999987              -0.000000000               0.001672654               0.999999987               0.000000000               0.001709323               0.999999987              -0.000000000               0.001744800               0.999999987              -0.000000000               0.001778122               0.999999987              -0.000000000               0.001808193               0.999999987              -0.000922681               0.000000000               0.999999986              -0.000971243               0.000000000               0.999999986              -0.000991088              -0.000000000               0.999999986              -0.001001613              -0.000000000               0.999999986              -0.001009768              -0.000000000               0.999999986              -0.001018097              -0.000000000               0.999999986              -0.001027324               0.000000000               0.999999986              -0.001037501               0.000000000               0.999999986              -0.001048377               0.000000000               0.999999986              -0.001059597               0.000000000               0.999999987              -0.001070811              -0.000000000               0.999999987              -0.001081715               0.000000000               0.999999987              -0.001092015              -0.000000000               0.999999987              -0.001101170               0.000000000               0.999999987              -0.001108623              -0.000000000               0.999999987              -0.001113689              -0.000000000               0.999999987              -0.001115544               0.000000000               0.999999987              -0.000917507              -0.000127718               0.999999986              -0.000961763              -0.000100475               0.999999986              -0.000978859              -0.000087826               0.999999986              -0.000987560              -0.000082309               0.999999986              -0.000994501              -0.000080250               0.999999986              -0.001001905              -0.000079758               0.999999986              -0.001010261              -0.000079668               0.999999986              -0.001019548              -0.000079389               0.999999986              -0.001029369              -0.000078417               0.999999986              -0.001039324              -0.000076304               0.999999987              -0.001049129              -0.000073072               0.999999987              -0.001058386              -0.000068237               0.999999987              -0.001066670              -0.000061324               0.999999987              -0.001073555              -0.000051675               0.999999987              -0.001078500              -0.000038516               0.999999987              -0.001080879              -0.000021211               0.999999987              -0.001080151               0.000001236               0.999999987              -0.000901968              -0.000254173               0.999999986              -0.000933627              -0.000200627               0.999999986              -0.000943029              -0.000176729               0.999999986              -0.000946946              -0.000166826               0.999999986              -0.000950695              -0.000163626               0.999999986              -0.000955666              -0.000163131               0.999999986              -0.000961732              -0.000163333               0.999999986              -0.000968426              -0.000162976               0.999999986              -0.000975271              -0.000161007               0.999999986              -0.000981865              -0.000157034               0.999999987              -0.000987579              -0.000150626               0.999999987              -0.000991875              -0.000141125               0.999999987              -0.000994409              -0.000127599               0.999999987              -0.000994765              -0.000109300               0.999999987              -0.000992757              -0.000084898               0.999999987              -0.000988117              -0.000053431               0.999999987              -0.000980688              -0.000013748               0.999999987              -0.000876292              -0.000378199               0.999999986              -0.000888298              -0.000300319               0.999999986              -0.000886624              -0.000267721               0.999999986              -0.000884203              -0.000255461               0.999999986              -0.000883931              -0.000252446               0.999999986              -0.000885517              -0.000252833               0.999999986              -0.000888273              -0.000253711               0.999999986              -0.000891277              -0.000253537               0.999999986              -0.000893741              -0.000250897               0.999999987              -0.000894895              -0.000245120               0.999999987              -0.000894031              -0.000235607               0.999999987              -0.000890743              -0.000221515               0.999999987              -0.000884735              -0.000202143               0.999999987              -0.000875858              -0.000176667               0.999999987              -0.000864136              -0.000144097               0.999999987              -0.000849862              -0.000103886               0.999999987              -0.000833656              -0.000055691               0.999999987              -0.000841126              -0.000498660               0.999999986              -0.000828335              -0.000399554               0.999999986              -0.000814447              -0.000361320               0.999999986              -0.000805616              -0.000348910               0.999999986              -0.000801324              -0.000347360               0.999999986              -0.000799577              -0.000349309               0.999999986              -0.000798739              -0.000351338               0.999999986              -0.000797248              -0.000351472               0.999999986              -0.000794047              -0.000348086               0.999999987              -0.000788253              -0.000340397               0.999999987              -0.000779440              -0.000327806               0.999999987              -0.000767223              -0.000309676               0.999999987              -0.000751520              -0.000285339               0.999999987              -0.000732447              -0.000254570               0.999999987              -0.000710589              -0.000217427               0.999999987              -0.000686823              -0.000173982               0.999999987              -0.000662004              -0.000125284               0.999999987              -0.000797453              -0.000614380               0.999999986              -0.000756965              -0.000498351               0.999999986              -0.000731743              -0.000457648               0.999999986              -0.000718045              -0.000446685               0.999999986              -0.000710797              -0.000447406               0.999999986              -0.000706128              -0.000451453               0.999999986              -0.000701445              -0.000454822               0.999999986              -0.000694936              -0.000455062               0.999999987              -0.000685394              -0.000450742               0.999999987              -0.000672129              -0.000441118               0.999999987              -0.000654737              -0.000425582               0.999999987              -0.000633039              -0.000403947               0.999999987              -0.000607413              -0.000375872               0.999999987              -0.000578454              -0.000341995               0.999999987              -0.000547055              -0.000303343               0.999999987              -0.000514346              -0.000260961               0.999999987              -0.000481148              -0.000215994               0.999999987              -0.000746036              -0.000724350               0.999999986              -0.000677689              -0.000596798               0.999999986              -0.000643928              -0.000556162               0.999999986              -0.000627681              -0.000547628               0.999999986              -0.000618928              -0.000550816               0.999999986              -0.000611917              -0.000556876               0.999999986              -0.000603423              -0.000561372               0.999999986              -0.000591589              -0.000561460               0.999999987              -0.000575313              -0.000556109               0.999999987              -0.000553959              -0.000544534               0.999999987              -0.000527295              -0.000526465               0.999999987              -0.000495728              -0.000502093               0.999999987              -0.000459836              -0.000471985               0.999999987              -0.000420904              -0.000437036               0.999999987              -0.000380008              -0.000399326               0.999999987              -0.000338120              -0.000359680               0.999999987              -0.000295623              -0.000318784               0.999999987              -0.000687963              -0.000827424               0.999999986              -0.000594230              -0.000694698               0.999999986              -0.000555864              -0.000655869               0.999999986              -0.000539820              -0.000649849               0.999999986              -0.000530729              -0.000655249               0.999999986              -0.000521790              -0.000662865               0.999999986              -0.000509457              -0.000668019               0.999999987              -0.000491922              -0.000667850               0.999999987              -0.000468192              -0.000661462               0.999999987              -0.000437842              -0.000648138               0.999999987              -0.000401179              -0.000627933               0.999999987              -0.000358775              -0.000601791               0.999999987              -0.000312015              -0.000570779               0.999999987              -0.000262372              -0.000536731               0.999999987              -0.000210918              -0.000501369               0.999999987              -0.000158397              -0.000465129               0.999999987              -0.000105234              -0.000428229               0.999999987              -0.000625098              -0.000921731               0.999999986              -0.000509547              -0.000791794               0.999999986              -0.000471989              -0.000755152               0.999999986              -0.000457955              -0.000751212               0.999999986              -0.000449301              -0.000758354               0.999999986              -0.000438386              -0.000767127               0.999999986              -0.000421794              -0.000772671               0.999999987              -0.000397799              -0.000772288               0.999999987              -0.000365617              -0.000764791               0.999999987              -0.000325134              -0.000749861               0.999999987              -0.000276866              -0.000728162               0.999999987              -0.000222272              -0.000701177               0.999999987              -0.000163181              -0.000670825               0.999999987              -0.000101384              -0.000639025               0.999999987              -0.000038053              -0.000606931               0.999999987               0.000025983              -0.000574913               0.999999987               0.000089997              -0.000543051               0.999999987              -0.000560024              -0.001010999               0.999999986              -0.000438397              -0.000900952               0.999999986              -0.000398612              -0.000861200               0.999999986              -0.000384440              -0.000853122               0.999999986              -0.000376933              -0.000858180               0.999999986              -0.000368432              -0.000867408               0.999999986              -0.000355126              -0.000876220               0.999999987              -0.000335600              -0.000881876               0.999999987              -0.000308956              -0.000882539               0.999999987              -0.000274411              -0.000877492               0.999999987              -0.000231750              -0.000866528               0.999999987              -0.000181765              -0.000850452               0.999999987              -0.000125742              -0.000830269               0.999999987              -0.000065126              -0.000807736               0.999999987              -0.000001592              -0.000784263               0.999999987               0.000063310              -0.000760885               0.999999987               0.000128119              -0.000737955               0.999999987              -0.000489318              -0.001092211               0.999999986              -0.000369791              -0.001006594               0.999999986              -0.000327973              -0.000970001               0.999999986              -0.000312832              -0.000960040               0.999999986              -0.000305656              -0.000963831               0.999999986              -0.000298758              -0.000973765               0.999999986              -0.000288115              -0.000985312               0.999999987              -0.000272479              -0.000995932               0.999999987              -0.000250808              -0.001003813               0.999999987              -0.000221961              -0.001007812               0.999999987              -0.000185271              -0.001007199               0.999999987              -0.000140922              -0.001001825               0.999999987              -0.000089445              -0.000992261               0.999999987              -0.000031885              -0.000979293               0.999999987               0.000030605              -0.000964386               0.999999987               0.000096421              -0.000948930               0.999999987               0.000163481              -0.000933911               0.999999987              -0.000414404              -0.001163444               0.999999986              -0.000303667              -0.001105454               0.999999986              -0.000261631              -0.001076574               0.999999986              -0.000245348              -0.001068074               0.999999986              -0.000237914              -0.001072041               0.999999986              -0.000231870              -0.001083013               0.999999987              -0.000223406              -0.001097230               0.999999987              -0.000210890              -0.001112303               0.999999987              -0.000193486              -0.001126495               0.999999987              -0.000169948              -0.001138556               0.999999987              -0.000139429              -0.001147512               0.999999987              -0.000101521              -0.001152655               0.999999987              -0.000055995              -0.001153862               0.999999987              -0.000003213              -0.001151484               0.999999987               0.000056140              -0.001146220               0.999999987               0.000121426              -0.001139252               0.999999987               0.000190761              -0.001131969               0.999999987              -0.000335973              -0.001223540               0.999999986              -0.000239961              -0.001193442               0.999999986              -0.000200392              -0.001175530               0.999999986              -0.000183841              -0.001171262               0.999999986              -0.000176083              -0.001177345               0.999999987              -0.000170504              -0.001190321               0.999999987              -0.000163578              -0.001207373               0.999999987              -0.000153592              -0.001226609               0.999999987              -0.000139799              -0.001246486               0.999999987              -0.000121214              -0.001265790               0.999999987              -0.000096761              -0.001283358               0.999999987              -0.000065673              -0.001298431               0.999999987              -0.000027379              -0.001310423               0.999999987               0.000018440              -0.001319147               0.999999987               0.000072060              -0.001324695               0.999999987               0.000133569              -0.001327694               0.999999987               0.000202846              -0.001329134               0.999999987              -0.000254630              -0.001271451               0.999999986              -0.000178326              -0.001266572               0.999999986              -0.000144504              -0.001260818               0.999999986              -0.000129261              -0.001262739               0.999999987              -0.000121814              -0.001272414               0.999999987              -0.000116749              -0.001288330               0.999999987              -0.000111045              -0.001308635               0.999999987              -0.000103323              -0.001331744               0.999999987              -0.000092921              -0.001356488               0.999999987              -0.000079063              -0.001381831               0.999999987              -0.000060473              -0.001406896               0.999999987              -0.000036591              -0.001430819               0.999999987              -0.000006612              -0.001452815               0.999999987               0.000030097              -0.001472156               0.999999987               0.000074430              -0.001488638               0.999999987               0.000127551              -0.001502356               0.999999987               0.000190523              -0.001513581               0.999999987              -0.000171034              -0.001306226               0.999999986              -0.000118171              -0.001321446               0.999999986              -0.000093343              -0.001326740               0.999999987              -0.000081524              -0.001334936               0.999999987              -0.000075537              -0.001348723               0.999999987              -0.000071406              -0.001367858               0.999999987              -0.000067208              -0.001391318               0.999999987              -0.000061789              -0.001417913               0.999999987              -0.000054671              -0.001446744               0.999999987              -0.000045294              -0.001477037               0.999999987              -0.000032861              -0.001507936               0.999999987              -0.000016719              -0.001538608               0.999999987               0.000003858              -0.001568476               0.999999987               0.000029595              -0.001596860               0.999999987               0.000061402              -0.001623033               0.999999987               0.000100818              -0.001646538               0.999999987               0.000149738              -0.001667138               0.999999987              -0.000085906              -0.001327350               0.999999987              -0.000058865              -0.001355487               0.999999987              -0.000045706              -0.001368574               0.999999987              -0.000039248              -0.001381354               0.999999987              -0.000035841              -0.001398225               0.999999987              -0.000033583              -0.001419868               0.999999987              -0.000031307              -0.001445637               0.999999987              -0.000028464              -0.001474826               0.999999987              -0.000024699              -0.001506525               0.999999987              -0.000019975              -0.001540076               0.999999987              -0.000013849              -0.001574891               0.999999987              -0.000005762              -0.001610215               0.999999987               0.000004880              -0.001645429               0.999999987               0.000018258              -0.001679896               0.999999987               0.000034762              -0.001712895               0.999999987               0.000055870              -0.001743613               0.999999987               0.000083097              -0.001771193               0.999999987               0.000000000              -0.001334519               0.999999987              -0.000000000              -0.001367041               0.999999987               0.000000000              -0.001382870               0.999999987              -0.000000000              -0.001397473               0.999999987              -0.000000000              -0.001415473               0.999999987              -0.000000000              -0.001437988               0.999999987              -0.000000000              -0.001464589               0.999999987              -0.000000000              -0.001494634               0.999999987               0.000000000              -0.001527460               0.999999987              -0.000000000              -0.001562251               0.999999987              -0.000000000              -0.001598349               0.999999987               0.000000000              -0.001635361               0.999999987               0.000000000              -0.001672654               0.999999987               0.000000000              -0.001709323               0.999999987               0.000000000              -0.001744800               0.999999987               0.000000000              -0.001778122               0.999999987               0.000000000              -0.001808193               0.999999987               0.000922681              -0.000000000               0.999999986               0.000971243              -0.000000000               0.999999986               0.000991088               0.000000000               0.999999986               0.001001613              -0.000000000               0.999999986               0.001009768               0.000000000               0.999999986               0.001018097               0.000000000               0.999999986               0.001027324               0.000000000               0.999999986               0.001037501               0.000000000               0.999999986               0.001048377              -0.000000000               0.999999986               0.001059597               0.000000000               0.999999987               0.001070811              -0.000000000               0.999999987               0.001081715               0.000000000               0.999999987               0.001092015              -0.000000000               0.999999987               0.001101170              -0.000000000               0.999999987               0.001108623              -0.000000000               0.999999987               0.001113689              -0.000000000               0.999999987               0.001115544              -0.000000000               0.999999987               0.000917507              -0.000127718               0.999999986               0.000961763              -0.000100475               0.999999986               0.000978859              -0.000087826               0.999999986               0.000987560              -0.000082309               0.999999986               0.000994501              -0.000080250               0.999999986               0.001001905              -0.000079758               0.999999986               0.001010261              -0.000079668               0.999999986               0.001019548              -0.000079389               0.999999986               0.001029369              -0.000078417               0.999999986               0.001039324              -0.000076304               0.999999987               0.001049129              -0.000073072               0.999999987               0.001058386              -0.000068237               0.999999987               0.001066670              -0.000061324               0.999999987               0.001073555              -0.000051675               0.999999987               0.001078500              -0.000038516               0.999999987               0.001080879              -0.000021211               0.999999987               0.001080151               0.000001236               0.999999987               0.000901968              -0.000254173               0.999999986               0.000933627              -0.000200627               0.999999986               0.000943029              -0.000176729               0.999999986               0.000946946              -0.000166826               0.999999986               0.000950695              -0.000163626               0.999999986               0.000955666              -0.000163131               0.999999986               0.000961732              -0.000163333               0.999999986               0.000968426              -0.000162976               0.999999986               0.000975271              -0.000161007               0.999999986               0.000981865              -0.000157034               0.999999987               0.000987579              -0.000150626               0.999999987               0.000991875              -0.000141125               0.999999987               0.000994409              -0.000127599               0.999999987               0.000994765              -0.000109300               0.999999987               0.000992757              -0.000084898               0.999999987               0.000988117              -0.000053431               0.999999987               0.000980688              -0.000013748               0.999999987               0.000876292              -0.000378199               0.999999986               0.000888298              -0.000300319               0.999999986               0.000886624              -0.000267721               0.999999986               0.000884203              -0.000255461               0.999999986               0.000883931              -0.000252446               0.999999986               0.000885517              -0.000252833               0.999999986               0.000888273              -0.000253711               0.999999986               0.000891277              -0.000253537               0.999999986               0.000893741              -0.000250897               0.999999987               0.000894895              -0.000245120               0.999999987               0.000894031              -0.000235607               0.999999987               0.000890743              -0.000221515               0.999999987               0.000884735              -0.000202143               0.999999987               0.000875858              -0.000176667               0.999999987               0.000864136              -0.000144097               0.999999987               0.000849862              -0.000103886               0.999999987               0.000833656              -0.000055691               0.999999987               0.000841126              -0.000498660               0.999999986               0.000828335              -0.000399554               0.999999986               0.000814447              -0.000361320               0.999999986               0.000805616              -0.000348910               0.999999986               0.000801324              -0.000347360               0.999999986               0.000799577              -0.000349309               0.999999986               0.000798739              -0.000351338               0.999999986               0.000797248              -0.000351472               0.999999986               0.000794047              -0.000348086               0.999999987               0.000788253              -0.000340397               0.999999987               0.000779440              -0.000327806               0.999999987               0.000767223              -0.000309676               0.999999987               0.000751520              -0.000285339               0.999999987               0.000732447              -0.000254570               0.999999987               0.000710589              -0.000217427               0.999999987               0.000686823              -0.000173982               0.999999987               0.000662004              -0.000125284               0.999999987               0.000797453              -0.000614380               0.999999986               0.000756965              -0.000498351               0.999999986               0.000731743              -0.000457648               0.999999986               0.000718045              -0.000446685               0.999999986               0.000710797              -0.000447406               0.999999986               0.000706128              -0.000451453               0.999999986               0.000701445              -0.000454822               0.999999986               0.000694936              -0.000455062               0.999999987               0.000685394              -0.000450742               0.999999987               0.000672129              -0.000441118               0.999999987               0.000654737              -0.000425582               0.999999987               0.000633039              -0.000403947               0.999999987               0.000607413              -0.000375872               0.999999987               0.000578454              -0.000341995               0.999999987               0.000547055              -0.000303343               0.999999987               0.000514346              -0.000260961               0.999999987               0.000481148              -0.000215994               0.999999987               0.000746036              -0.000724350               0.999999986               0.000677689              -0.000596798               0.999999986               0.000643928              -0.000556162               0.999999986               0.000627681              -0.000547628               0.999999986               0.000618928              -0.000550816               0.999999986               0.000611917              -0.000556876               0.999999986               0.000603423              -0.000561372               0.999999986               0.000591589              -0.000561460               0.999999987               0.000575313              -0.000556109               0.999999987               0.000553959              -0.000544534               0.999999987               0.000527295              -0.000526465               0.999999987               0.000495728              -0.000502093               0.999999987               0.000459836              -0.000471985               0.999999987               0.000420904              -0.000437036               0.999999987               0.000380008              -0.000399326               0.999999987               0.000338120              -0.000359680               0.999999987               0.000295623              -0.000318784               0.999999987               0.000687963              -0.000827424               0.999999986               0.000594230              -0.000694698               0.999999986               0.000555864              -0.000655869               0.999999986               0.000539820              -0.000649849               0.999999986               0.000530729              -0.000655249               0.999999986               0.000521790              -0.000662865               0.999999986               0.000509457              -0.000668019               0.999999987               0.000491922              -0.000667850               0.999999987               0.000468192              -0.000661462               0.999999987               0.000437842              -0.000648138               0.999999987               0.000401179              -0.000627933               0.999999987               0.000358775              -0.000601791               0.999999987               0.000312015              -0.000570779               0.999999987               0.000262372              -0.000536731               0.999999987               0.000210918              -0.000501369               0.999999987               0.000158397              -0.000465129               0.999999987               0.000105234              -0.000428229               0.999999987               0.000625098              -0.000921731               0.999999986               0.000509547              -0.000791794               0.999999986               0.000471989              -0.000755152               0.999999986               0.000457955              -0.000751212               0.999999986               0.000449301              -0.000758354               0.999999986               0.000438386              -0.000767127               0.999999986               0.000421794              -0.000772671               0.999999987               0.000397799              -0.000772288               0.999999987               0.000365617              -0.000764791               0.999999987               0.000325134              -0.000749861               0.999999987               0.000276866              -0.000728162               0.999999987               0.000222272              -0.000701177               0.999999987               0.000163181              -0.000670825               0.999999987               0.000101384              -0.000639025               0.999999987               0.000038053              -0.000606931               0.999999987              -0.000025983              -0.000574913               0.999999987              -0.000089997              -0.000543051               0.999999987               0.000560024              -0.001010999               0.999999986               0.000438397              -0.000900952               0.999999986               0.000398612              -0.000861200               0.999999986               0.000384440              -0.000853122               0.999999986               0.000376933              -0.000858180               0.999999986               0.000368432              -0.000867408               0.999999986               0.000355126              -0.000876220               0.999999987               0.000335600              -0.000881876               0.999999987               0.000308956              -0.000882539               0.999999987               0.000274411              -0.000877492               0.999999987               0.000231750              -0.000866528               0.999999987               0.000181765              -0.000850452               0.999999987               0.000125742              -0.000830269               0.999999987               0.000065126              -0.000807736               0.999999987               0.000001592              -0.000784263               0.999999987              -0.000063310              -0.000760885               0.999999987              -0.000128119              -0.000737955               0.999999987               0.000489318              -0.001092211               0.999999986               0.000369791              -0.001006594               0.999999986               0.000327973              -0.000970001               0.999999986               0.000312832              -0.000960040               0.999999986               0.000305656              -0.000963831               0.999999986               0.000298758              -0.000973765               0.999999986               0.000288115              -0.000985312               0.999999987               0.000272479              -0.000995932               0.999999987               0.000250808              -0.001003813               0.999999987               0.000221961              -0.001007812               0.999999987               0.000185271              -0.001007199               0.999999987               0.000140922              -0.001001825               0.999999987               0.000089445              -0.000992261               0.999999987               0.000031885              -0.000979293               0.999999987              -0.000030605              -0.000964386               0.999999987              -0.000096421              -0.000948930               0.999999987              -0.000163481              -0.000933911               0.999999987               0.000414404              -0.001163444               0.999999986               0.000303667              -0.001105454               0.999999986               0.000261631              -0.001076574               0.999999986               0.000245348              -0.001068074               0.999999986               0.000237914              -0.001072041               0.999999986               0.000231870              -0.001083013               0.999999987               0.000223406              -0.001097230               0.999999987               0.000210890              -0.001112303               0.999999987               0.000193486              -0.001126495               0.999999987               0.000169948              -0.001138556               0.999999987               0.000139429              -0.001147512               0.999999987               0.000101521              -0.001152655               0.999999987               0.000055995              -0.001153862               0.999999987               0.000003213              -0.001151484               0.999999987              -0.000056140              -0.001146220               0.999999987              -0.000121426              -0.001139252               0.999999987              -0.000190761              -0.001131969               0.999999987               0.000335973              -0.001223540               0.999999986               0.000239961              -0.001193442               0.999999986               0.000200392              -0.001175530               0.999999986               0.000183841              -0.001171262               0.999999986               0.000176083              -0.001177345               0.999999987               0.000170504              -0.001190321               0.999999987               0.000163578              -0.001207373               0.999999987               0.000153592              -0.001226609               0.999999987               0.000139799              -0.001246486               0.999999987               0.000121214              -0.001265790               0.999999987               0.000096761              -0.001283358               0.999999987               0.000065673              -0.001298431               0.999999987               0.000027379              -0.001310423               0.999999987              -0.000018440              -0.001319147               0.999999987              -0.000072060              -0.001324695               0.999999987              -0.000133569              -0.001327694               0.999999987              -0.000202846              -0.001329134               0.999999987               0.000254630              -0.001271451               0.999999986               0.000178326              -0.001266572               0.999999986               0.000144504              -0.001260818               0.999999986               0.000129261              -0.001262739               0.999999987               0.000121814              -0.001272414               0.999999987               0.000116749              -0.001288330               0.999999987               0.000111045              -0.001308635               0.999999987               0.000103323              -0.001331744               0.999999987               0.000092921              -0.001356488               0.999999987               0.000079063              -0.001381831               0.999999987               0.000060473              -0.001406896               0.999999987               0.000036591              -0.001430819               0.999999987               0.000006612              -0.001452815               0.999999987              -0.000030097              -0.001472156               0.999999987              -0.000074430              -0.001488638               0.999999987              -0.000127551              -0.001502356               0.999999987              -0.000190523              -0.001513581               0.999999987               0.000171034              -0.001306226               0.999999986               0.000118171              -0.001321446               0.999999986               0.000093343              -0.001326740               0.999999987               0.000081524              -0.001334936               0.999999987               0.000075537              -0.001348723               0.999999987               0.000071406              -0.001367858               0.999999987               0.000067208              -0.001391318               0.999999987               0.000061789              -0.001417913               0.999999987               0.000054671              -0.001446744               0.999999987               0.000045294              -0.001477037               0.999999987               0.000032861              -0.001507936               0.999999987               0.000016719              -0.001538608               0.999999987              -0.000003858              -0.001568476               0.999999987              -0.000029595              -0.001596860               0.999999987              -0.000061402              -0.001623033               0.999999987              -0.000100818              -0.001646538               0.999999987              -0.000149738              -0.001667138               0.999999987               0.000085906              -0.001327350               0.999999987               0.000058865              -0.001355487               0.999999987               0.000045706              -0.001368574               0.999999987               0.000039248              -0.001381354               0.999999987               0.000035841              -0.001398225               0.999999987               0.000033583              -0.001419868               0.999999987               0.000031307              -0.001445637               0.999999987               0.000028464              -0.001474826               0.999999987               0.000024699              -0.001506525               0.999999987               0.000019975              -0.001540076               0.999999987               0.000013849              -0.001574891               0.999999987               0.000005762              -0.001610215               0.999999987              -0.000004880              -0.001645429               0.999999987              -0.000018258              -0.001679896               0.999999987              -0.000034762              -0.001712895               0.999999987              -0.000055870              -0.001743613               0.999999987              -0.000083097              -0.001771193               0.999999987               0.000000000              -0.001334519               0.999999987              -0.000000000              -0.001367041               0.999999987               0.000000000              -0.001382870               0.999999987              -0.000000000              -0.001397473               0.999999987              -0.000000000              -0.001415473               0.999999987              -0.000000000              -0.001437988               0.999999987              -0.000000000              -0.001464589               0.999999987              -0.000000000              -0.001494634               0.999999987               0.000000000              -0.001527460               0.999999987              -0.000000000              -0.001562251               0.999999987              -0.000000000              -0.001598349               0.999999987               0.000000000              -0.001635361               0.999999987               0.000000000              -0.001672654               0.999999987               0.000000000              -0.001709323               0.999999987               0.000000000              -0.001744800               0.999999987               0.000000000              -0.001778122               0.999999987               0.000000000              -0.001808193               0.999999987               0.000922681              -0.000000000               0.999999986               0.000971243              -0.000000000               0.999999986               0.000991088               0.000000000               0.999999986               0.001001613              -0.000000000               0.999999986               0.001009768               0.000000000               0.999999986               0.001018097               0.000000000               0.999999986               0.001027324               0.000000000               0.999999986               0.001037501               0.000000000               0.999999986               0.001048377              -0.000000000               0.999999986               0.001059597               0.000000000               0.999999987               0.001070811              -0.000000000               0.999999987               0.001081715               0.000000000               0.999999987               0.001092015              -0.000000000               0.999999987               0.001101170              -0.000000000               0.999999987               0.001108623              -0.000000000               0.999999987               0.001113689              -0.000000000               0.999999987               0.001115544              -0.000000000               0.999999987               0.000917507               0.000127718               0.999999986               0.000961763               0.000100475               0.999999986               0.000978859               0.000087826               0.999999986               0.000987560               0.000082309               0.999999986               0.000994501               0.000080250               0.999999986               0.001001905               0.000079758               0.999999986               0.001010261               0.000079668               0.999999986               0.001019548               0.000079389               0.999999986               0.001029369               0.000078417               0.999999986               0.001039324               0.000076304               0.999999987               0.001049129               0.000073072               0.999999987               0.001058386               0.000068237               0.999999987               0.001066670               0.000061324               0.999999987               0.001073555               0.000051675               0.999999987               0.001078500               0.000038516               0.999999987               0.001080879               0.000021211               0.999999987               0.001080151              -0.000001236               0.999999987               0.000901968               0.000254173               0.999999986               0.000933627               0.000200627               0.999999986               0.000943029               0.000176729               0.999999986               0.000946946               0.000166826               0.999999986               0.000950695               0.000163626               0.999999986               0.000955666               0.000163131               0.999999986               0.000961732               0.000163333               0.999999986               0.000968426               0.000162976               0.999999986               0.000975271               0.000161007               0.999999986               0.000981865               0.000157034               0.999999987               0.000987579               0.000150626               0.999999987               0.000991875               0.000141125               0.999999987               0.000994409               0.000127599               0.999999987               0.000994765               0.000109300               0.999999987               0.000992757               0.000084898               0.999999987               0.000988117               0.000053431               0.999999987               0.000980688               0.000013748               0.999999987               0.000876292               0.000378199               0.999999986               0.000888298               0.000300319               0.999999986               0.000886624               0.000267721               0.999999986               0.000884203               0.000255461               0.999999986               0.000883931               0.000252446               0.999999986               0.000885517               0.000252833               0.999999986               0.000888273               0.000253711               0.999999986               0.000891277               0.000253537               0.999999986               0.000893741               0.000250897               0.999999987               0.000894895               0.000245120               0.999999987               0.000894031               0.000235607               0.999999987               0.000890743               0.000221515               0.999999987               0.000884735               0.000202143               0.999999987               0.000875858               0.000176667               0.999999987               0.000864136               0.000144097               0.999999987               0.000849862               0.000103886               0.999999987               0.000833656               0.000055691               0.999999987               0.000841126               0.000498660               0.999999986               0.000828335               0.000399554               0.999999986               0.000814447               0.000361320               0.999999986               0.000805616               0.000348910               0.999999986               0.000801324               0.000347360               0.999999986               0.000799577               0.000349309               0.999999986               0.000798739               0.000351338               0.999999986               0.000797248               0.000351472               0.999999986               0.000794047               0.000348086               0.999999987               0.000788253               0.000340397               0.999999987               0.000779440               0.000327806               0.999999987               0.000767223               0.000309676               0.999999987               0.000751520               0.000285339               0.999999987               0.000732447               0.000254570               0.999999987               0.000710589               0.000217427               0.999999987               0.000686823               0.000173982               0.999999987               0.000662004               0.000125284               0.999999987               0.000797453               0.000614380               0.999999986               0.000756965               0.000498351               0.999999986               0.000731743               0.000457648               0.999999986               0.000718045               0.000446685               0.999999986               0.000710797               0.000447406               0.999999986               0.000706128               0.000451453               0.999999986               0.000701445               0.000454822               0.999999986               0.000694936               0.000455062               0.999999987               0.000685394               0.000450742               0.999999987               0.000672129               0.000441118               0.999999987               0.000654737               0.000425582               0.999999987               0.000633039               0.000403947               0.999999987               0.000607413               0.000375872               0.999999987               0.000578454               0.000341995               0.999999987               0.000547055               0.000303343               0.999999987               0.000514346               0.000260961               0.999999987               0.000481148               0.000215994               0.999999987               0.000746036               0.000724350               0.999999986               0.000677689               0.000596798               0.999999986               0.000643928               0.000556162               0.999999986               0.000627681               0.000547628               0.999999986               0.000618928               0.000550816               0.999999986               0.000611917               0.000556876               0.999999986               0.000603423               0.000561372               0.999999986               0.000591589               0.000561460               0.999999987               0.000575313               0.000556109               0.999999987               0.000553959               0.000544534               0.999999987               0.000527295               0.000526465               0.999999987               0.000495728               0.000502093               0.999999987               0.000459836               0.000471985               0.999999987               0.000420904               0.000437036               0.999999987               0.000380008               0.000399326               0.999999987               0.000338120               0.000359680               0.999999987               0.000295623               0.000318784               0.999999987               0.000687963               0.000827424               0.999999986               0.000594230               0.000694698               0.999999986               0.000555864               0.000655869               0.999999986               0.000539820               0.000649849               0.999999986               0.000530729               0.000655249               0.999999986               0.000521790               0.000662865               0.999999986               0.000509457               0.000668019               0.999999987               0.000491922               0.000667850               0.999999987               0.000468192               0.000661462               0.999999987               0.000437842               0.000648138               0.999999987               0.000401179               0.000627933               0.999999987               0.000358775               0.000601791               0.999999987               0.000312015               0.000570779               0.999999987               0.000262372               0.000536731               0.999999987               0.000210918               0.000501369               0.999999987               0.000158397               0.000465129               0.999999987               0.000105234               0.000428229               0.999999987               0.000625098               0.000921731               0.999999986               0.000509547               0.000791794               0.999999986               0.000471989               0.000755152               0.999999986               0.000457955               0.000751212               0.999999986               0.000449301               0.000758354               0.999999986               0.000438386               0.000767127               0.999999986               0.000421794               0.000772671               0.999999987               0.000397799               0.000772288               0.999999987               0.000365617               0.000764791               0.999999987               0.000325134               0.000749861               0.999999987               0.000276866               0.000728162               0.999999987               0.000222272               0.000701177               0.999999987               0.000163181               0.000670825               0.999999987               0.000101384               0.000639025               0.999999987               0.000038053               0.000606931               0.999999987              -0.000025983               0.000574913               0.999999987              -0.000089997               0.000543051               0.999999987               0.000560024               0.001010999               0.999999986               0.000438397               0.000900952               0.999999986               0.000398612               0.000861200               0.999999986               0.000384440               0.000853122               0.999999986               0.000376933               0.000858180               0.999999986               0.000368432               0.000867408               0.999999986               0.000355126               0.000876220               0.999999987               0.000335600               0.000881876               0.999999987               0.000308956               0.000882539               0.999999987               0.000274411               0.000877492               0.999999987               0.000231750               0.000866528               0.999999987               0.000181765               0.000850452               0.999999987               0.000125742               0.000830269               0.999999987               0.000065126               0.000807736               0.999999987               0.000001592               0.000784263               0.999999987              -0.000063310               0.000760885               0.999999987              -0.000128119               0.000737955               0.999999987               0.000489318               0.001092211               0.999999986               0.000369791               0.001006594               0.999999986               0.000327973               0.000970001               0.999999986               0.000312832               0.000960040               0.999999986               0.000305656               0.000963831               0.999999986               0.000298758               0.000973765               0.999999986               0.000288115               0.000985312               0.999999987               0.000272479               0.000995932               0.999999987               0.000250808               0.001003813               0.999999987               0.000221961               0.001007812               0.999999987               0.000185271               0.001007199               0.999999987               0.000140922               0.001001825               0.999999987               0.000089445               0.000992261               0.999999987               0.000031885               0.000979293               0.999999987              -0.000030605               0.000964386               0.999999987              -0.000096421               0.000948930               0.999999987              -0.000163481               0.000933911               0.999999987               0.000414404               0.001163444               0.999999986               0.000303667               0.001105454               0.999999986               0.000261631               0.001076574               0.999999986               0.000245348               0.001068074               0.999999986               0.000237914               0.001072041               0.999999986               0.000231870               0.001083013               0.999999987               0.000223406               0.001097230               0.999999987               0.000210890               0.001112303               0.999999987               0.000193486               0.001126495               0.999999987               0.000169948               0.001138556               0.999999987               0.000139429               0.001147512               0.999999987               0.000101521               0.001152655               0.999999987               0.000055995               0.001153862               0.999999987               0.000003213               0.001151484               0.999999987              -0.000056140               0.001146220               0.999999987              -0.000121426               0.001139252               0.999999987              -0.000190761               0.001131969               0.999999987               0.000335973               0.001223540               0.999999986               0.000239961               0.001193442               0.999999986               0.000200392               0.001175530               0.999999986               0.000183841               0.001171262               0.999999986               0.000176083               0.001177345               0.999999987               0.000170504               0.001190321               0.999999987               0.000163578               0.001207373               0.999999987               0.000153592               0.001226609               0.999999987               0.000139799               0.001246486               0.999999987               0.000121214               0.001265790               0.999999987               0.000096761               0.001283358               0.999999987               0.000065673               0.001298431               0.999999987               0.000027379               0.001310423               0.999999987              -0.000018440               0.001319147               0.999999987              -0.000072060               0.001324695               0.999999987              -0.000133569               0.001327694               0.999999987              -0.000202846               0.001329134               0.999999987               0.000254630               0.001271451               0.999999986               0.000178326               0.001266572               0.999999986               0.000144504               0.001260818               0.999999986               0.000129261               0.001262739               0.999999987               0.000121814               0.001272414               0.999999987               0.000116749               0.001288330               0.999999987               0.000111045               0.001308635               0.999999987               0.000103323               0.001331744               0.999999987               0.000092921               0.001356488               0.999999987               0.000079063               0.001381831               0.999999987               0.000060473               0.001406896               0.999999987               0.000036591               0.001430819               0.999999987               0.000006612               0.001452815               0.999999987              -0.000030097               0.001472156               0.999999987              -0.000074430               0.001488638               0.999999987              -0.000127551               0.001502356               0.999999987              -0.000190523               0.001513581               0.999999987               0.000171034               0.001306226               0.999999986               0.000118171               0.001321446               0.999999986               0.000093343               0.001326740               0.999999987               0.000081524               0.001334936               0.999999987               0.000075537               0.001348723               0.999999987               0.000071406               0.001367858               0.999999987               0.000067208               0.001391318               0.999999987               0.000061789               0.001417913               0.999999987               0.000054671               0.001446744               0.999999987               0.000045294               0.001477037               0.999999987               0.000032861               0.001507936               0.999999987               0.000016719               0.001538608               0.999999987              -0.000003858               0.001568476               0.999999987              -0.000029595               0.001596860               0.999999987              -0.000061402               0.001623033               0.999999987              -0.000100818               0.001646538               0.999999987              -0.000149738               0.001667138               0.999999987               0.000085906               0.001327350               0.999999987               0.000058865               0.001355487               0.999999987               0.000045706               0.001368574               0.999999987               0.000039248               0.001381354               0.999999987               0.000035841               0.001398225               0.999999987               0.000033583               0.001419868               0.999999987               0.000031307               0.001445637               0.999999987               0.000028464               0.001474826               0.999999987               0.000024699               0.001506525               0.999999987               0.000019975               0.001540076               0.999999987               0.000013849               0.001574891               0.999999987               0.000005762               0.001610215               0.999999987              -0.000004880               0.001645429               0.999999987              -0.000018258               0.001679896               0.999999987              -0.000034762               0.001712895               0.999999987              -0.000055870               0.001743613               0.999999987              -0.000083097               0.001771193               0.999999987               0.000000000               0.001334519               0.999999987              -0.000000000               0.001367041               0.999999987               0.000000000               0.001382870               0.999999987              -0.000000000               0.001397473               0.999999987              -0.000000000               0.001415473               0.999999987              -0.000000000               0.001437988               0.999999987              -0.000000000               0.001464589               0.999999987               0.000000000               0.001494634               0.999999987              -0.000000000               0.001527460               0.999999987               0.000000000               0.001562251               0.999999987              -0.000000000               0.001598349               0.999999987              -0.000000000               0.001635361               0.999999987              -0.000000000               0.001672654               0.999999987               0.000000000               0.001709323               0.999999987              -0.000000000               0.001744800               0.999999987              -0.000000000               0.001778122               0.999999987              -0.000000000               0.001808193               0.999999987 </DataArray>
<DataArray type="Float64"                                    Name="defo"                                                      NumberOfComponents=" 3" format="ascii">
             -0.000922681               0.000000000               0.999999986              -0.000971243               0.000000000               0.999999986              -0.000991088              -0.000000000               0.999999986              -0.001001613              -0.000000000               0.999999986              -0.001009768              -0.000000000               0.999999986              -0.001018097              -0.000000000               0.999999986              -0.001027324               0.000000000               0.999999986              -0.001037501               0.000000000               0.999999986              -0.001048377               0.000000000               0.999999986              -0.001059597               0.000000000               0.999999987              -0.001070811              -0.000000000               0.999999987              -0.001081715               0.000000000               0.999999987              -0.001092015              -0.000000000               0.999999987              -0.001101170               0.000000000               0.999999987              -0.001108623              -0.000000000               0.999999987              -0.001113689              -0.000000000               0.999999987              -0.001115544               0.000000000               0.999999987              -0.000917507               0.000127718               0.999999986              -0.000961763               0.000100475               0.999999986              -0.000978859               0.000087826               0.999999986              -0.000987560               0.000082309               0.999999986              -0.000994501               0.000080250               0.999999986              -0.001001905               0.000079758               0.999999986              -0.001010261               0.000079668               0.999999986              -0.001019548               0.000079389               0.999999986              -0.001029369               0.000078417               0.999999986              -0.001039324               0.000076304               0.999999987              -0.001049129               0.000073072               0.999999987              -0.001058386               0.000068237               0.999999987              -0.001066670               0.000061324               0.999999987              -0.001073555               0.000051675               0.999999987              -0.001078500               0.000038516               0.999999987              -0.001080879               0.000021211               0.999999987              -0.001080151              -0.000001236               0.999999987              -0.000901968               0.000254173               0.999999986              -0.000933627               0.000200627               0.999999986              -0.000943029               0.000176729               0.999999986              -0.000946946               0.000166826               0.999999986              -0.000950695               0.000163626               0.999999986              -0.000955666               0.000163131               0.999999986              -0.000961732               0.000163333               0.999999986              -0.000968426               0.000162976               0.999999986              -0.000975271               0.000161007               0.999999986              -0.000981865               0.000157034               0.999999987              -0.000987579               0.000150626               0.999999987              -0.000991875               0.000141125               0.999999987              -0.000994409               0.000127599               0.999999987              -0.000994765               0.000109300               0.999999987              -0.000992757               0.000084898               0.999999987              -0.000988117               0.000053431               0.999999987              -0.000980688               0.000013748               0.999999987              -0.000876292               0.000378199               0.999999986              -0.000888298               0.000300319               0.999999986              -0.000886624               0.000267721               0.999999986              -0.000884203               0.000255461               0.999999986              -0.000883931               0.000252446               0.999999986              -0.000885517               0.000252833               0.999999986              -0.000888273               0.000253711               0.999999986              -0.000891277               0.000253537               0.999999986              -0.000893741               0.000250897               0.999999987              -0.000894895               0.000245120               0.999999987              -0.000894031               0.000235607               0.999999987              -0.000890743               0.000221515               0.999999987              -0.000884735               0.000202143               0.999999987              -0.000875858               0.000176667               0.999999987              -0.000864136               0.000144097               0.999999987              -0.000849862               0.000103886               0.999999987              -0.000833656               0.000055691               0.999999987              -0.000841126               0.000498660               0.999999986              -0.000828335               0.000399554               0.999999986              -0.000814447               0.000361320               0.999999986              -0.000805616               0.000348910               0.999999986              -0.000801324               0.000347360               0.999999986              -0.000799577               0.000349309               0.999999986              -0.000798739               0.000351338               0.999999986              -0.000797248               0.000351472               0.999999986              -0.000794047               0.000348086               0.999999987              -0.000788253               0.000340397               0.999999987              -0.000779440               0.000327806               0.999999987              -0.000767223               0.000309676               0.999999987              -0.000751520               0.000285339               0.999999987              -0.000732447               0.000254570               0.999999987              -0.000710589               0.000217427               0.999999987              -0.000686823               0.000173982               0.999999987              -0.000662004               0.000125284               0.999999987              -0.000797453               0.000614380               0.999999986              -0.000756965               0.000498351               0.999999986              -0.000731743               0.000457648               0.999999986              -0.000718045               0.000446685               0.999999986              -0.000710797               0.000447406               0.999999986              -0.000706128               0.000451453               0.999999986              -0.000701445               0.000454822               0.999999986              -0.000694936               0.000455062               0.999999987              -0.000685394               0.000450742               0.999999987              -0.000672129               0.000441118               0.999999987              -0.000654737               0.000425582               0.999999987              -0.000633039               0.000403947               0.999999987              -0.000607413               0.000375872               0.999999987              -0.000578454               0.000341995               0.999999987              -0.000547055               0.000303343               0.999999987              -0.000514346               0.000260961               0.999999987              -0.000481148               0.000215994               0.999999987              -0.000746036               0.000724350               0.999999986              -0.000677689               0.000596798               0.999999986              -0.000643928               0.000556162               0.999999986              -0.000627681               0.000547628               0.999999986              -0.000618928               0.000550816               0.999999986              -0.000611917               0.000556876               0.999999986              -0.000603423               0.000561372               0.999999986              -0.000591589               0.000561460               0.999999987              -0.000575313               0.000556109               0.999999987              -0.000553959               0.000544534               0.999999987              -0.000527295               0.000526465               0.999999987              -0.000495728               0.000502093               0.999999987              -0.000459836               0.000471985               0.999999987              -0.000420904               0.000437036               0.999999987              -0.000380008               0.000399326               0.999999987              -0.000338120               0.000359680               0.999999987              -0.000295623               0.000318784               0.999999987              -0.000687963               0.000827424               0.999999986              -0.000594230               0.000694698               0.999999986              -0.000555864               0.000655869               0.999999986              -0.000539820               0.000649849               0.999999986              -0.000530729               0.000655249               0.999999986              -0.000521790               0.000662865               0.999999986              -0.000509457               0.000668019               0.999999987              -0.000491922               0.000667850               0.999999987              -0.000468192               0.000661462               0.999999987              -0.000437842               0.000648138               0.999999987              -0.000401179               0.000627933               0.999999987              -0.000358775               0.000601791               0.999999987              -0.000312015               0.000570779               0.999999987              -0.000262372               0.000536731               0.999999987              -0.000210918               0.000501369               0.999999987              -0.000158397               0.000465129               0.999999987              -0.000105234               0.000428229               0.999999987              -0.000625098               0.000921731               0.999999986              -0.000509547               0.000791794               0.999999986              -0.000471989               0.000755152               0.999999986              -0.000457955               0.000751212               0.999999986              -0.000449301               0.000758354               0.999999986              -0.000438386               0.000767127               0.999999986              -0.000421794               0.000772671               0.999999987              -0.000397799               0.000772288               0.999999987              -0.000365617               0.000764791               0.999999987              -0.000325134               0.000749861               0.999999987              -0.000276866               0.000728162               0.999999987              -0.000222272               0.000701177               0.999999987              -0.000163181               0.000670825               0.999999987              -0.000101384               0.000639025               0.999999987              -0.000038053               0.000606931               0.999999987               0.000025983               0.000574913               0.999999987               0.000089997               0.000543051               0.999999987              -0.000560024               0.001010999               0.999999986              -0.000438397               0.000900952               0.999999986              -0.000398612               0.000861200               0.999999986              -0.000384440               0.000853122               0.999999986              -0.000376933               0.000858180               0.999999986              -0.000368432               0.000867408               0.999999986              -0.000355126               0.000876220               0.999999987              -0.000335600               0.000881876               0.999999987              -0.000308956               0.000882539               0.999999987              -0.000274411               0.000877492               0.999999987              -0.000231750               0.000866528               0.999999987              -0.000181765               0.000850452               0.999999987              -0.000125742               0.000830269               0.999999987              -0.000065126               0.000807736               0.999999987              -0.000001592               0.000784263               0.999999987               0.000063310               0.000760885               0.999999987               0.000128119               0.000737955               0.999999987              -0.000489318               0.001092211               0.999999986              -0.000369791               0.001006594               0.999999986              -0.000327973               0.000970001               0.999999986              -0.000312832               0.000960040               0.999999986              -0.000305656               0.000963831               0.999999986              -0.000298758               0.000973765               0.999999986              -0.000288115               0.000985312               0.999999987              -0.000272479               0.000995932               0.999999987              -0.000250808               0.001003813               0.999999987              -0.000221961               0.001007812               0.999999987              -0.000185271               0.001007199               0.999999987              -0.000140922               0.001001825               0.999999987              -0.000089445               0.000992261               0.999999987              -0.000031885               0.000979293               0.999999987               0.000030605               0.000964386               0.999999987               0.000096421               0.000948930               0.999999987               0.000163481               0.000933911               0.999999987              -0.000414404               0.001163444               0.999999986              -0.000303667               0.001105454               0.999999986              -0.000261631               0.001076574               0.999999986              -0.000245348               0.001068074               0.999999986              -0.000237914               0.001072041               0.999999986              -0.000231870               0.001083013               0.999999987              -0.000223406               0.001097230               0.999999987              -0.000210890               0.001112303               0.999999987              -0.000193486               0.001126495               0.999999987              -0.000169948               0.001138556               0.999999987              -0.000139429               0.001147512               0.999999987              -0.000101521               0.001152655               0.999999987              -0.000055995               0.001153862               0.999999987              -0.000003213               0.001151484               0.999999987               0.000056140               0.001146220               0.999999987               0.000121426               0.001139252               0.999999987               0.000190761               0.001131969               0.999999987              -0.000335973               0.001223540               0.999999986              -0.000239961               0.001193442               0.999999986              -0.000200392               0.001175530               0.999999986              -0.000183841               0.001171262               0.999999986              -0.000176083               0.001177345               0.999999987              -0.000170504               0.001190321               0.999999987              -0.000163578               0.001207373               0.999999987              -0.000153592               0.001226609               0.999999987              -0.000139799               0.001246486               0.999999987              -0.000121214               0.001265790               0.999999987              -0.000096761               0.001283358               0.999999987              -0.000065673               0.001298431               0.999999987              -0.000027379               0.001310423               0.999999987               0.000018440               0.001319147               0.999999987               0.000072060               0.001324695               0.999999987               0.000133569               0.001327694               0.999999987               0.000202846               0.001329134               0.999999987              -0.000254630               0.001271451               0.999999986              -0.000178326               0.001266572               0.999999986              -0.000144504               0.001260818               0.999999986              -0.000129261               0.001262739               0.999999987              -0.000121814               0.001272414               0.999999987              -0.000116749               0.001288330               0.999999987              -0.000111045               0.001308635               0.999999987              -0.000103323               0.001331744               0.999999987              -0.000092921               0.001356488               0.999999987              -0.000079063               0.001381831               0.999999987              -0.000060473               0.001406896               0.999999987              -0.000036591               0.001430819               0.999999987              -0.000006612               0.001452815               0.999999987               0.000030097               0.001472156               0.999999987               0.000074430               0.001488638               0.999999987               0.000127551               0.001502356               0.999999987               0.000190523               0.001513581               0.999999987              -0.000171034               0.001306226               0.999999986              -0.000118171               0.001321446               0.999999986              -0.000093343               0.001326740               0.999999987              -0.000081524               0.001334936               0.999999987              -0.000075537               0.001348723               0.999999987              -0.000071406               0.001367858               0.999999987              -0.000067208               0.001391318               0.999999987              -0.000061789               0.001417913               0.999999987              -0.000054671               0.001446744               0.999999987              -0.000045294               0.001477037               0.999999987              -0.000032861               0.001507936               0.999999987              -0.000016719               0.001538608               0.999999987               0.000003858               0.001568476               0.999999987               0.000029595               0.001596860               0.999999987               0.000061402               0.001623033               0.999999987               0.000100818               0.001646538               0.999999987               0.000149738               0.001667138               0.999999987              -0.000085906               0.001327350               0.999999987              -0.000058865               0.001355487               0.999999987              -0.000045706               0.001368574               0.999999987              -0.000039248               0.001381354               0.999999987              -0.000035841               0.001398225               0.999999987              -0.000033583               0.001419868               0.999999987              -0.000031307               0.001445637               0.999999987              -0.000028464               0.001474826               0.999999987              -0.000024699               0.001506525               0.999999987              -0.000019975               0.001540076               0.999999987              -0.000013849               0.001574891               0.999999987              -0.000005762               0.001610215               0.999999987               0.000004880               0.001645429               0.999999987               0.000018258               0.001679896               0.999999987               0.000034762               0.001712895               0.999999987               0.000055870               0.001743613               0.999999987               0.000083097               0.001771193               0.999999987               0.000000000               0.001334519               0.999999987              -0.000000000               0.001367041               0.999999987               0.000000000               0.001382870               0.999999987              -0.000000000               0.001397473               0.999999987              -0.000000000               0.001415473               0.999999987              -0.000000000               0.001437988               0.999999987              -0.000000000               0.001464589               0.999999987               0.000000000               0.001494634               0.999999987              -0.000000000               0.001527460               0.999999987               0.000000000               0.001562251               0.999999987              -0.000000000               0.001598349               0.999999987              -0.000000000               0.001635361               0.999999987              -0.000000000               0.001672654               0.999999987               0.000000000               0.001709323               0.999999987              -0.000000000               0.001744800               0.999999987              -0.000000000               0.001778122               0.999999987              -0.000000000               0.001808193               0.999999987              -0.000922681               0.000000000               0.999999986              -0.000971243               0.000000000               0.999999986              -0.000991088              -0.000000000               0.999999986              -0.001001613              -0.000000000               0.999999986              -0.001009768              -0.000000000               0.999999986              -0.001018097              -0.000000000               0.999999986              -0.001027324               0.000000000               0.999999986              -0.001037501               0.000000000               0.999999986              -0.001048377               0.000000000               0.999999986              -0.001059597               0.000000000               0.999999987              -0.001070811              -0.000000000               0.999999987              -0.001081715               0.000000000               0.999999987              -0.001092015              -0.000000000               0.999999987              -0.001101170               0.000000000               0.999999987              -0.001108623              -0.000000000               0.999999987              -0.001113689              -0.000000000               0.999999987              -0.001115544               0.000000000               0.999999987              -0.000917507              -0.000127718               0.999999986              -0.000961763              -0.000100475               0.999999986              -0.000978859              -0.000087826               0.999999986              -0.000987560              -0.000082309               0.999999986              -0.000994501              -0.000080250               0.999999986              -0.001001905              -0.000079758               0.999999986              -0.001010261              -0.000079668               0.999999986              -0.001019548              -0.000079389               0.999999986              -0.001029369              -0.000078417               0.999999986              -0.001039324              -0.000076304               0.999999987              -0.001049129              -0.000073072               0.999999987              -0.001058386              -0.000068237               0.999999987              -0.001066670              -0.000061324               0.999999987              -0.001073555              -0.000051675               0.999999987              -0.001078500              -0.000038516               0.999999987              -0.001080879              -0.000021211               0.999999987              -0.001080151               0.000001236               0.999999987              -0.000901968              -0.000254173               0.999999986              -0.000933627              -0.000200627               0.999999986              -0.000943029              -0.000176729               0.999999986              -0.000946946              -0.000166826               0.999999986              -0.000950695              -0.000163626               0.999999986              -0.000955666              -0.000163131               0.999999986              -0.000961732              -0.000163333               0.999999986              -0.000968426              -0.000162976               0.999999986              -0.000975271              -0.000161007               0.999999986              -0.000981865              -0.000157034               0.999999987              -0.000987579              -0.000150626               0.999999987              -0.000991875              -0.000141125               0.999999987              -0.000994409              -0.000127599               0.999999987              -0.000994765              -0.000109300               0.999999987              -0.000992757              -0.000084898               0.999999987              -0.000988117              -0.000053431               0.999999987              -0.000980688              -0.000013748               0.999999987              -0.000876292              -0.000378199               0.999999986              -0.000888298              -0.000300319               0.999999986              -0.000886624              -0.000267721               0.999999986              -0.000884203              -0.000255461               0.999999986              -0.000883931              -0.000252446               0.999999986              -0.000885517              -0.000252833               0.999999986              -0.000888273              -0.000253711               0.999999986              -0.000891277              -0.000253537               0.999999986              -0.000893741              -0.000250897               0.999999987              -0.000894895              -0.000245120               0.999999987              -0.000894031              -0.000235607               0.999999987              -0.000890743              -0.000221515               0.999999987              -0.000884735              -0.000202143               0.999999987              -0.000875858              -0.000176667               0.999999987              -0.000864136              -0.000144097               0.999999987              -0.000849862              -0.000103886               0.999999987              -0.000833656              -0.000055691               0.999999987              -0.000841126              -0.000498660               0.999999986              -0.000828335              -0.000399554               0.999999986              -0.000814447              -0.000361320               0.999999986              -0.000805616              -0.000348910               0.999999986              -0.000801324              -0.000347360               0.999999986              -0.000799577              -0.000349309               0.999999986              -0.000798739              -0.000351338               0.999999986              -0.000797248              -0.000351472               0.999999986              -0.000794047              -0.000348086               0.999999987              -0.000788253              -0.000340397               0.999999987              -0.000779440              -0.000327806               0.999999987              -0.000767223              -0.000309676               0.999999987              -0.000751520              -0.000285339               0.999999987              -0.000732447              -0.000254570               0.999999987              -0.000710589              -0.000217427               0.999999987              -0.000686823              -0.000173982               0.999999987              -0.000662004              -0.000125284               0.999999987              -0.000797453              -0.000614380               0.999999986              -0.000756965              -0.000498351               0.999999986              -0.000731743              -0.000457648               0.999999986              -0.000718045              -0.000446685               0.999999986              -0.000710797              -0.000447406               0.999999986              -0.000706128              -0.000451453               0.999999986              -0.000701445              -0.000454822               0.999999986              -0.000694936              -0.000455062               0.999999987              -0.000685394              -0.000450742               0.999999987              -0.000672129              -0.000441118               0.999999987              -0.000654737              -0.000425582               0.999999987              -0.000633039              -0.000403947               0.999999987              -0.000607413              -0.000375872               0.999999987              -0.000578454              -0.000341995               0.999999987              -0.000547055              -0.000303343               0.999999987              -0.000514346              -0.000260961               0.999999987              -0.000481148              -0.000215994               0.999999987              -0.000746036              -0.000724350               0.999999986              -0.000677689              -0.000596798               0.999999986              -0.000643928              -0.000556162               0.999999986              -0.000627681              -0.000547628               0.999999986              -0.000618928              -0.000550816               0.999999986              -0.000611917              -0.000556876               0.999999986              -0.000603423              -0.000561372               0.999999986              -0.000591589              -0.000561460               0.999999987              -0.000575313              -0.000556109               0.999999987              -0.000553959              -0.000544534               0.999999987              -0.000527295              -0.000526465               0.999999987              -0.000495728              -0.000502093               0.999999987              -0.000459836              -0.000471985               0.999999987              -0.000420904              -0.000437036               0.999999987              -0.000380008              -0.000399326               0.999999987              -0.000338120              -0.000359680               0.999999987              -0.000295623              -0.000318784               0.999999987              -0.000687963              -0.000827424               0.999999986              -0.000594230              -0.000694698               0.999999986              -0.000555864              -0.000655869               0.999999986              -0.000539820              -0.000649849               0.999999986              -0.000530729              -0.000655249               0.999999986              -0.000521790              -0.000662865               0.999999986              -0.000509457              -0.000668019               0.999999987              -0.000491922              -0.000667850               0.999999987              -0.000468192              -0.000661462               0.999999987              -0.000437842              -0.000648138               0.999999987              -0.000401179              -0.000627933               0.999999987              -0.000358775              -0.000601791               0.999999987              -0.000312015              -0.000570779               0.999999987              -0.000262372              -0.000536731               0.999999987              -0.000210918              -0.000501369               0.999999987              -0.000158397              -0.000465129               0.999999987              -0.000105234              -0.000428229               0.999999987              -0.000625098              -0.000921731               0.999999986              -0.000509547              -0.000791794               0.999999986              -0.000471989              -0.000755152               0.999999986              -0.000457955              -0.000751212               0.999999986              -0.000449301              -0.000758354               0.999999986              -0.000438386              -0.000767127               0.999999986              -0.000421794              -0.000772671               0.999999987              -0.000397799              -0.000772288               0.999999987              -0.000365617              -0.000764791               0.999999987              -0.000325134              -0.000749861               0.999999987              -0.000276866              -0.000728162               0.999999987              -0.000222272              -0.000701177               0.999999987              -0.000163181              -0.000670825               0.999999987              -0.000101384              -0.000639025               0.999999987              -0.000038053              -0.000606931               0.999999987               0.000025983              -0.000574913               0.999999987               0.000089997              -0.000543051               0.999999987              -0.000560024              -0.001010999               0.999999986              -0.000438397              -0.000900952               0.999999986              -0.000398612              -0.000861200               0.999999986              -0.000384440              -0.000853122               0.999999986              -0.000376933              -0.000858180               0.999999986              -0.000368432              -0.000867408               0.999999986              -0.000355126              -0.000876220               0.999999987              -0.000335600              -0.000881876               0.999999987              -0.000308956              -0.000882539               0.999999987              -0.000274411              -0.000877492               0.999999987              -0.000231750              -0.000866528               0.999999987              -0.000181765              -0.000850452               0.999999987              -0.000125742              -0.000830269               0.999999987              -0.000065126              -0.000807736               0.999999987              -0.000001592              -0.000784263               0.999999987               0.000063310              -0.000760885               0.999999987               0.000128119              -0.000737955               0.999999987              -0.000489318              -0.001092211               0.999999986              -0.000369791              -0.001006594               0.999999986              -0.000327973              -0.000970001               0.999999986              -0.000312832              -0.000960040               0.999999986              -0.000305656              -0.000963831               0.999999986              -0.000298758              -0.000973765               0.999999986              -0.000288115              -0.000985312               0.999999987              -0.000272479              -0.000995932               0.999999987              -0.000250808              -0.001003813               0.999999987              -0.000221961              -0.001007812               0.999999987              -0.000185271              -0.001007199               0.999999987              -0.000140922              -0.001001825               0.999999987              -0.000089445              -0.000992261               0.999999987              -0.000031885              -0.000979293               0.999999987               0.000030605              -0.000964386               0.999999987               0.000096421              -0.000948930               0.999999987               0.000163481              -0.000933911               0.999999987              -0.000414404              -0.001163444               0.999999986              -0.000303667              -0.001105454               0.999999986              -0.000261631              -0.001076574               0.999999986              -0.000245348              -0.001068074               0.999999986              -0.000237914              -0.001072041               0.999999986              -0.000231870              -0.001083013               0.999999987              -0.000223406              -0.001097230               0.999999987              -0.000210890              -0.001112303               0.999999987              -0.000193486              -0.001126495               0.999999987              -0.000169948              -0.001138556               0.999999987              -0.000139429              -0.001147512               0.999999987              -0.000101521              -0.001152655               0.999999987              -0.000055995              -0.001153862               0.999999987              -0.000003213              -0.001151484               0.999999987               0.000056140              -0.001146220               0.999999987               0.000121426              -0.001139252               0.999999987               0.000190761              -0.001131969               0.999999987              -0.000335973              -0.001223540               0.999999986              -0.000239961              -0.001193442               0.999999986              -0.000200392              -0.001175530               0.999999986              -0.000183841              -0.001171262               0.999999986              -0.000176083              -0.001177345               0.999999987              -0.000170504              -0.001190321               0.999999987              -0.000163578              -0.001207373               0.999999987              -0.000153592              -0.001226609               0.999999987              -0.000139799              -0.001246486               0.999999987              -0.000121214              -0.001265790               0.999999987              -0.000096761              -0.001283358               0.999999987              -0.000065673              -0.001298431               0.999999987              -0.000027379              -0.001310423               0.999999987               0.000018440              -0.001319147               0.999999987               0.000072060              -0.001324695               0.999999987               0.000133569              -0.001327694               0.999999987               0.000202846              -0.001329134               0.999999987              -0.000254630              -0.001271451               0.999999986              -0.000178326              -0.001266572               0.999999986              -0.000144504              -0.001260818               0.999999986              -0.000129261              -0.001262739               0.999999987              -0.000121814              -0.001272414               0.999999987              -0.000116749              -0.001288330               0.999999987              -0.000111045              -0.001308635               0.999999987              -0.000103323              -0.001331744               0.999999987              -0.000092921              -0.001356488               0.999999987              -0.000079063              -0.001381831               0.999999987              -0.000060473              -0.001406896               0.999999987              -0.000036591              -0.001430819               0.999999987              -0.000006612              -0.001452815               0.999999987               0.000030097              -0.001472156               0.999999987               0.000074430              -0.001488638               0.999999987               0.000127551              -0.001502356               0.999999987               0.000190523              -0.001513581               0.999999987              -0.000171034              -0.001306226               0.999999986              -0.000118171              -0.001321446               0.999999986              -0.000093343              -0.001326740               0.999999987              -0.000081524              -0.001334936               0.999999987              -0.000075537              -0.001348723               0.999999987              -0.000071406              -0.001367858               0.999999987              -0.000067208              -0.001391318               0.999999987              -0.000061789              -0.001417913               0.999999987              -0.000054671              -0.001446744               0.999999987              -0.000045294              -0.001477037               0.999999987              -0.000032861              -0.001507936               0.999999987              -0.000016719              -0.001538608               0.999999987               0.000003858              -0.001568476               0.999999987               0.000029595              -0.001596860               0.999999987               0.000061402              -0.001623033               0.999999987               0.000100818              -0.001646538               0.999999987               0.000149738              -0.001667138               0.999999987              -0.000085906              -0.001327350               0.999999987              -0.000058865              -0.001355487               0.999999987              -0.000045706              -0.001368574               0.999999987              -0.000039248              -0.001381354               0.999999987              -0.000035841              -0.001398225               0.999999987              -0.000033583              -0.001419868               0.999999987              -0.000031307              -0.001445637               0.999999987              -0.000028464              -0.001474826               0.999999987              -0.000024699              -0.001506525               0.999999987              -0.000019975              -0.001540076               0.999999987              -0.000013849              -0.001574891               0.999999987              -0.000005762              -0.001610215               0.999999987               0.000004880              -0.001645429               0.999999987               0.000018258              -0.001679896               0.999999987               0.000034762              -0.001712895               0.999999987               0.000055870              -0.001743613               0.999999987               0.000083097              -0.001771193               0.999999987               0.000000000              -0.001334519               0.999999987              -0.000000000              -0.001367041               0.999999987               0.000000000              -0.001382870               0.999999987              -0.000000000              -0.001397473               0.999999987              -0.000000000              -0.001415473               0.999999987              -0.000000000              -0.001437988               0.999999987              -0.000000000              -0.001464589               0.999999987              -0.000000000              -0.001494634               0.999999987               0.000000000              -0.001527460               0.999999987              -0.000000000              -0.001562251               0.999999987              -0.000000000              -0.001598349               0.999999987               0.000000000              -0.001635361               0.999999987               0.000000000              -0.001672654               0.999999987               0.000000000              -0.001709323               0.999999987               0.000000000              -0.001744800               0.999999987               0.000000000              -0.001778122               0.999999987               0.000000000              -0.001808193               0.999999987               0.000922681              -0.000000000               0.999999986               0.000971243              -0.000000000               0.999999986               0.000991088               0.000000000               0.999999986               0.001001613              -0.000000000               0.999999986               0.001009768               0.000000000               0.999999986               0.001018097               0.000000000               0.999999986               0.001027324               0.000000000               0.999999986               0.001037501               0.000000000               0.999999986               0.001048377              -0.000000000               0.999999986               0.001059597               0.000000000               0.999999987               0.001070811              -0.000000000               0.999999987               0.001081715               0.000000000               0.999999987               0.001092015              -0.000000000               0.999999987               0.001101170              -0.000000000               0.999999987               0.001108623              -0.000000000               0.999999987               0.001113689              -0.000000000               0.999999987               0.001115544              -0.000000000               0.999999987               0.000917507              -0.000127718               0.999999986               0.000961763              -0.000100475               0.999999986               0.000978859              -0.000087826               0.999999986               0.000987560              -0.000082309               0.999999986               0.000994501              -0.000080250               0.999999986               0.001001905              -0.000079758               0.999999986               0.001010261              -0.000079668               0.999999986               0.001019548              -0.000079389               0.999999986               0.001029369              -0.000078417               0.999999986               0.001039324              -0.000076304               0.999999987               0.001049129              -0.000073072               0.999999987               0.001058386              -0.000068237               0.999999987               0.001066670              -0.000061324               0.999999987               0.001073555              -0.000051675               0.999999987               0.001078500              -0.000038516               0.999999987               0.001080879              -0.000021211               0.999999987               0.001080151               0.000001236               0.999999987               0.000901968              -0.000254173               0.999999986               0.000933627              -0.000200627               0.999999986               0.000943029              -0.000176729               0.999999986               0.000946946              -0.000166826               0.999999986               0.000950695              -0.000163626               0.999999986               0.000955666              -0.000163131               0.999999986               0.000961732              -0.000163333               0.999999986               0.000968426              -0.000162976               0.999999986               0.000975271              -0.000161007               0.999999986               0.000981865              -0.000157034               0.999999987               0.000987579              -0.000150626               0.999999987               0.000991875              -0.000141125               0.999999987               0.000994409              -0.000127599               0.999999987               0.000994765              -0.000109300               0.999999987               0.000992757              -0.000084898               0.999999987               0.000988117              -0.000053431               0.999999987               0.000980688              -0.000013748               0.999999987               0.000876292              -0.000378199               0.999999986               0.000888298              -0.000300319               0.999999986               0.000886624              -0.000267721               0.999999986               0.000884203              -0.000255461               0.999999986               0.000883931              -0.000252446               0.999999986               0.000885517              -0.000252833               0.999999986               0.000888273              -0.000253711               0.999999986               0.000891277              -0.000253537               0.999999986               0.000893741              -0.000250897               0.999999987               0.000894895              -0.000245120               0.999999987               0.000894031              -0.000235607               0.999999987               0.000890743              -0.000221515               0.999999987               0.000884735              -0.000202143               0.999999987               0.000875858              -0.000176667               0.999999987               0.000864136              -0.000144097               0.999999987               0.000849862              -0.000103886               0.999999987               0.000833656              -0.000055691               0.999999987               0.000841126              -0.000498660               0.999999986               0.000828335              -0.000399554               0.999999986               0.000814447              -0.000361320               0.999999986               0.000805616              -0.000348910               0.999999986               0.000801324              -0.000347360               0.999999986               0.000799577              -0.000349309               0.999999986               0.000798739              -0.000351338               0.999999986               0.000797248              -0.000351472               0.999999986               0.000794047              -0.000348086               0.999999987               0.000788253              -0.000340397               0.999999987               0.000779440              -0.000327806               0.999999987               0.000767223              -0.000309676               0.999999987               0.000751520              -0.000285339               0.999999987               0.000732447              -0.000254570               0.999999987               0.000710589              -0.000217427               0.999999987               0.000686823              -0.000173982               0.999999987               0.000662004              -0.000125284               0.999999987               0.000797453              -0.000614380               0.999999986               0.000756965              -0.000498351               0.999999986               0.000731743              -0.000457648               0.999999986               0.000718045              -0.000446685               0.999999986               0.000710797              -0.000447406               0.999999986               0.000706128              -0.000451453               0.999999986               0.000701445              -0.000454822               0.999999986               0.000694936              -0.000455062               0.999999987               0.000685394              -0.000450742               0.999999987               0.000672129              -0.000441118               0.999999987               0.000654737              -0.000425582               0.999999987               0.000633039              -0.000403947               0.999999987               0.000607413              -0.000375872               0.999999987               0.000578454              -0.000341995               0.999999987               0.000547055              -0.000303343               0.999999987               0.000514346              -0.000260961               0.999999987               0.000481148              -0.000215994               0.999999987               0.000746036              -0.000724350               0.999999986               0.000677689              -0.000596798               0.999999986               0.000643928              -0.000556162               0.999999986               0.000627681              -0.000547628               0.999999986               0.000618928              -0.000550816               0.999999986               0.000611917              -0.000556876               0.999999986               0.000603423              -0.000561372               0.999999986               0.000591589              -0.000561460               0.999999987               0.000575313              -0.000556109               0.999999987               0.000553959              -0.000544534               0.999999987               0.000527295              -0.000526465               0.999999987               0.000495728              -0.000502093               0.999999987               0.000459836              -0.000471985               0.999999987               0.000420904              -0.000437036               0.999999987               0.000380008              -0.000399326               0.999999987               0.000338120              -0.000359680               0.999999987               0.000295623              -0.000318784               0.999999987               0.000687963              -0.000827424               0.999999986               0.000594230              -0.000694698               0.999999986               0.000555864              -0.000655869               0.999999986               0.000539820              -0.000649849               0.999999986               0.000530729              -0.000655249               0.999999986               0.000521790              -0.000662865               0.999999986               0.000509457              -0.000668019               0.999999987               0.000491922              -0.000667850               0.999999987               0.000468192              -0.000661462               0.999999987               0.000437842              -0.000648138               0.999999987               0.000401179              -0.000627933               0.999999987               0.000358775              -0.000601791               0.999999987               0.000312015              -0.000570779               0.999999987               0.000262372              -0.000536731               0.999999987               0.000210918              -0.000501369               0.999999987               0.000158397              -0.000465129               0.999999987               0.000105234              -0.000428229               0.999999987               0.000625098              -0.000921731               0.999999986               0.000509547              -0.000791794               0.999999986               0.000471989              -0.000755152               0.999999986               0.000457955              -0.000751212               0.999999986               0.000449301              -0.000758354               0.999999986               0.000438386              -0.000767127               0.999999986               0.000421794              -0.000772671               0.999999987               0.000397799              -0.000772288               0.999999987               0.000365617              -0.000764791               0.999999987               0.000325134              -0.000749861               0.999999987               0.000276866              -0.000728162               0.999999987               0.000222272              -0.000701177               0.999999987               0.000163181              -0.000670825               0.999999987               0.000101384              -0.000639025               0.999999987               0.000038053              -0.000606931               0.999999987              -0.000025983              -0.000574913               0.999999987              -0.000089997              -0.000543051               0.999999987               0.000560024              -0.001010999               0.999999986               0.000438397              -0.000900952               0.999999986               0.000398612              -0.000861200               0.999999986               0.000384440              -0.000853122               0.999999986               0.000376933              -0.000858180               0.999999986               0.000368432              -0.000867408               0.999999986               0.000355126              -0.000876220               0.999999987               0.000335600              -0.000881876               0.999999987               0.000308956              -0.000882539               0.999999987               0.000274411              -0.000877492               0.999999987               0.000231750              -0.000866528               0.999999987               0.000181765              -0.000850452               0.999999987               0.000125742              -0.000830269               0.999999987               0.000065126              -0.000807736               0.999999987               0.000001592              -0.000784263               0.999999987              -0.000063310              -0.000760885               0.999999987              -0.000128119              -0.000737955               0.999999987               0.000489318              -0.001092211               0.999999986               0.000369791              -0.001006594               0.999999986               0.000327973              -0.000970001               0.999999986               0.000312832              -0.000960040               0.999999986               0.000305656              -0.000963831               0.999999986               0.000298758              -0.000973765               0.999999986               0.000288115              -0.000985312               0.999999987               0.000272479              -0.000995932               0.999999987               0.000250808              -0.001003813               0.999999987               0.000221961              -0.001007812               0.999999987               0.000185271              -0.001007199               0.999999987               0.000140922              -0.001001825               0.999999987               0.000089445              -0.000992261               0.999999987               0.000031885              -0.000979293               0.999999987              -0.000030605              -0.000964386               0.999999987              -0.000096421              -0.000948930               0.999999987              -0.000163481              -0.000933911               0.999999987               0.000414404              -0.001163444               0.999999986               0.000303667              -0.001105454               0.999999986               0.000261631              -0.001076574               0.999999986               0.000245348              -0.001068074               0.999999986               0.000237914              -0.001072041               0.999999986               0.000231870              -0.001083013               0.999999987               0.000223406              -0.001097230               0.999999987               0.000210890              -0.001112303               0.999999987               0.000193486              -0.001126495               0.999999987               0.000169948              -0.001138556               0.999999987               0.000139429              -0.001147512               0.999999987               0.000101521              -0.001152655               0.999999987               0.000055995              -0.001153862               0.999999987               0.000003213              -0.001151484               0.999999987              -0.000056140              -0.001146220               0.999999987              -0.000121426              -0.001139252               0.999999987              -0.000190761              -0.001131969               0.999999987               0.000335973              -0.001223540               0.999999986               0.000239961              -0.001193442               0.999999986               0.000200392              -0.001175530               0.999999986               0.000183841              -0.001171262               0.999999986               0.000176083              -0.001177345               0.999999987               0.000170504              -0.001190321               0.999999987               0.000163578              -0.001207373               0.999999987               0.000153592              -0.001226609               0.999999987               0.000139799              -0.001246486               0.999999987               0.000121214              -0.001265790               0.999999987               0.000096761              -0.001283358               0.999999987               0.000065673              -0.001298431               0.999999987               0.000027379              -0.001310423               0.999999987              -0.000018440              -0.001319147               0.999999987              -0.000072060              -0.001324695               0.999999987              -0.000133569              -0.001327694               0.999999987              -0.000202846              -0.001329134               0.999999987               0.000254630              -0.001271451               0.999999986               0.000178326              -0.001266572               0.999999986               0.000144504              -0.001260818               0.999999986               0.000129261              -0.001262739               0.999999987               0.000121814              -0.001272414               0.999999987               0.000116749              -0.001288330               0.999999987               0.000111045              -0.001308635               0.999999987               0.000103323              -0.001331744               0.999999987               0.000092921              -0.001356488               0.999999987               0.000079063              -0.001381831               0.999999987               0.000060473              -0.001406896               0.999999987               0.000036591              -0.001430819               0.999999987               0.000006612              -0.001452815               0.999999987              -0.000030097              -0.001472156               0.999999987              -0.000074430              -0.001488638               0.999999987              -0.000127551              -0.001502356               0.999999987              -0.000190523              -0.001513581               0.999999987               0.000171034              -0.001306226               0.999999986               0.000118171              -0.001321446               0.999999986               0.000093343              -0.001326740               0.999999987               0.000081524              -0.001334936               0.999999987               0.000075537              -0.001348723               0.999999987               0.000071406              -0.001367858               0.999999987               0.000067208              -0.001391318               0.999999987               0.000061789              -0.001417913               0.999999987               0.000054671              -0.001446744               0.999999987               0.000045294              -0.001477037               0.999999987               0.000032861              -0.001507936               0.999999987               0.000016719              -0.001538608               0.999999987              -0.000003858              -0.001568476               0.999999987              -0.000029595              -0.001596860               0.999999987              -0.000061402              -0.001623033               0.999999987              -0.000100818              -0.001646538               0.999999987              -0.000149738              -0.001667138               0.999999987               0.000085906              -0.001327350               0.999999987               0.000058865              -0.001355487               0.999999987               0.000045706              -0.001368574               0.999999987               0.000039248              -0.001381354               0.999999987               0.000035841              -0.001398225               0.999999987               0.000033583              -0.001419868               0.999999987               0.000031307              -0.001445637               0.999999987               0.000028464              -0.001474826               0.999999987               0.000024699              -0.001506525               0.999999987               0.000019975              -0.001540076               0.999999987               0.000013849              -0.001574891               0.999999987               0.000005762              -0.001610215               0.999999987              -0.000004880              -0.001645429               0.999999987              -0.000018258              -0.001679896               0.999999987              -0.000034762              -0.001712895               0.999999987              -0.000055870              -0.001743613               0.999999987              -0.000083097              -0.001771193               0.999999987               0.000000000              -0.001334519               0.999999987              -0.000000000              -0.001367041               0.999999987               0.000000000              -0.001382870               0.999999987              -0.000000000              -0.001397473               0.999999987              -0.000000000              -0.001415473               0.999999987              -0.000000000              -0.001437988               0.999999987              -0.000000000              -0.001464589               0.999999987              -0.000000000              -0.001494634               0.999999987               0.000000000              -0.001527460               0.999999987              -0.000000000              -0.001562251               0.999999987              -0.000000000              -0.001598349               0.999999987               0.000000000              -0.001635361               0.999999987               0.000000000              -0.001672654               0.999999987               0.000000000              -0.001709323               0.999999987               0.000000000              -0.001744800               0.999999987               0.000000000              -0.001778122               0.999999987               0.000000000              -0.001808193               0.999999987               0.000922681              -0.000000000               0.999999986               0.000971243              -0.000000000               0.999999986               0.000991088               0.000000000               0.999999986               0.001001613              -0.000000000               0.999999986               0.001009768               0.000000000               0.999999986               0.001018097               0.000000000               0.999999986               0.001027324               0.000000000               0.999999986               0.001037501               0.000000000               0.999999986               0.001048377              -0.000000000               0.999999986               0.001059597               0.000000000               0.999999987               0.001070811              -0.000000000               0.999999987               0.001081715               0.000000000               0.999999987               0.001092015              -0.000000000               0.999999987               0.001101170              -0.000000000               0.999999987               0.001108623              -0.000000000               0.999999987               0.001113689              -0.000000000               0.999999987               0.001115544              -0.000000000               0.999999987               0.000917507               0.000127718               0.999999986               0.000961763               0.000100475               0.999999986               0.000978859               0.000087826               0.999999986               0.000987560               0.000082309               0.999999986               0.000994501               0.000080250               0.999999986               0.001001905               0.000079758               0.999999986               0.001010261               0.000079668               0.999999986               0.001019548               0.000079389               0.999999986               0.001029369               0.000078417               0.999999986               0.001039324               0.000076304               0.999999987               0.001049129               0.000073072               0.999999987               0.001058386               0.000068237               0.999999987               0.001066670               0.000061324               0.999999987               0.001073555               0.000051675               0.999999987               0.001078500               0.000038516               0.999999987               0.001080879               0.000021211               0.999999987               0.001080151              -0.000001236               0.999999987               0.000901968               0.000254173               0.999999986               0.000933627               0.000200627               0.999999986               0.000943029               0.000176729               0.999999986               0.000946946               0.000166826               0.999999986               0.000950695               0.000163626               0.999999986               0.000955666               0.000163131               0.999999986               0.000961732               0.000163333               0.999999986               0.000968426               0.000162976               0.999999986               0.000975271               0.000161007               0.999999986               0.000981865               0.000157034               0.999999987               0.000987579               0.000150626               0.999999987               0.000991875               0.000141125               0.999999987               0.000994409               0.000127599               0.999999987               0.000994765               0.000109300               0.999999987               0.000992757               0.000084898               0.999999987               0.000988117               0.000053431               0.999999987               0.000980688               0.000013748               0.999999987               0.000876292               0.000378199               0.999999986               0.000888298               0.000300319               0.999999986               0.000886624               0.000267721               0.999999986               0.000884203               0.000255461               0.999999986               0.000883931               0.000252446               0.999999986               0.000885517               0.000252833               0.999999986               0.000888273               0.000253711               0.999999986               0.000891277               0.000253537               0.999999986               0.000893741               0.000250897               0.999999987               0.000894895               0.000245120               0.999999987               0.000894031               0.000235607               0.999999987               0.000890743               0.000221515               0.999999987               0.000884735               0.000202143               0.999999987               0.000875858               0.000176667               0.999999987               0.000864136               0.000144097               0.999999987               0.000849862               0.000103886               0.999999987               0.000833656               0.000055691               0.999999987               0.000841126               0.000498660               0.999999986               0.000828335               0.000399554               0.999999986               0.000814447               0.000361320               0.999999986               0.000805616               0.000348910               0.999999986               0.000801324               0.000347360               0.999999986               0.000799577               0.000349309               0.999999986               0.000798739               0.000351338               0.999999986               0.000797248               0.000351472               0.999999986               0.000794047               0.000348086               0.999999987               0.000788253               0.000340397               0.999999987               0.000779440               0.000327806               0.999999987               0.000767223               0.000309676               0.999999987               0.000751520               0.000285339               0.999999987               0.000732447               0.000254570               0.999999987               0.000710589               0.000217427               0.999999987               0.000686823               0.000173982               0.999999987               0.000662004               0.000125284               0.999999987               0.000797453               0.000614380               0.999999986               0.000756965               0.000498351               0.999999986               0.000731743               0.000457648               0.999999986               0.000718045               0.000446685               0.999999986               0.000710797               0.000447406               0.999999986               0.000706128               0.000451453               0.999999986               0.000701445               0.000454822               0.999999986               0.000694936               0.000455062               0.999999987               0.000685394               0.000450742               0.999999987               0.000672129               0.000441118               0.999999987               0.000654737               0.000425582               0.999999987               0.000633039               0.000403947               0.999999987               0.000607413               0.000375872               0.999999987               0.000578454               0.000341995               0.999999987               0.000547055               0.000303343               0.999999987               0.000514346               0.000260961               0.999999987               0.000481148               0.000215994               0.999999987               0.000746036               0.000724350               0.999999986               0.000677689               0.000596798               0.999999986               0.000643928               0.000556162               0.999999986               0.000627681               0.000547628               0.999999986               0.000618928               0.000550816               0.999999986               0.000611917               0.000556876               0.999999986               0.000603423               0.000561372               0.999999986               0.000591589               0.000561460               0.999999987               0.000575313               0.000556109               0.999999987               0.000553959               0.000544534               0.999999987               0.000527295               0.000526465               0.999999987               0.000495728               0.000502093               0.999999987               0.000459836               0.000471985               0.999999987               0.000420904               0.000437036               0.999999987               0.000380008               0.000399326               0.999999987               0.000338120               0.000359680               0.999999987               0.000295623               0.000318784               0.999999987               0.000687963               0.000827424               0.999999986               0.000594230               0.000694698               0.999999986               0.000555864               0.000655869               0.999999986               0.000539820               0.000649849               0.999999986               0.000530729               0.000655249               0.999999986               0.000521790               0.000662865               0.999999986               0.000509457               0.000668019               0.999999987               0.000491922               0.000667850               0.999999987               0.000468192               0.000661462               0.999999987               0.000437842               0.000648138               0.999999987               0.000401179               0.000627933               0.999999987               0.000358775               0.000601791               0.999999987               0.000312015               0.000570779               0.999999987               0.000262372               0.000536731               0.999999987               0.000210918               0.000501369               0.999999987               0.000158397               0.000465129               0.999999987               0.000105234               0.000428229               0.999999987               0.000625098               0.000921731               0.999999986               0.000509547               0.000791794               0.999999986               0.000471989               0.000755152               0.999999986               0.000457955               0.000751212               0.999999986               0.000449301               0.000758354               0.999999986               0.000438386               0.000767127               0.999999986               0.000421794               0.000772671               0.999999987               0.000397799               0.000772288               0.999999987               0.000365617               0.000764791               0.999999987               0.000325134               0.000749861               0.999999987               0.000276866               0.000728162               0.999999987               0.000222272               0.000701177               0.999999987               0.000163181               0.000670825               0.999999987               0.000101384               0.000639025               0.999999987               0.000038053               0.000606931               0.999999987              -0.000025983               0.000574913               0.999999987              -0.000089997               0.000543051               0.999999987               0.000560024               0.001010999               0.999999986               0.000438397               0.000900952               0.999999986               0.000398612               0.000861200               0.999999986               0.000384440               0.000853122               0.999999986               0.000376933               0.000858180               0.999999986               0.000368432               0.000867408               0.999999986               0.000355126               0.000876220               0.999999987               0.000335600               0.000881876               0.999999987               0.000308956               0.000882539               0.999999987               0.000274411               0.000877492               0.999999987               0.000231750               0.000866528               0.999999987               0.000181765               0.000850452               0.999999987               0.000125742               0.000830269               0.999999987               0.000065126               0.000807736               0.999999987               0.000001592               0.000784263               0.999999987              -0.000063310               0.000760885               0.999999987              -0.000128119               0.000737955               0.999999987               0.000489318               0.001092211               0.999999986               0.000369791               0.001006594               0.999999986               0.000327973               0.000970001               0.999999986               0.000312832               0.000960040               0.999999986               0.000305656               0.000963831               0.999999986               0.000298758               0.000973765               0.999999986               0.000288115               0.000985312               0.999999987               0.000272479               0.000995932               0.999999987               0.000250808               0.001003813               0.999999987               0.000221961               0.001007812               0.999999987               0.000185271               0.001007199               0.999999987               0.000140922               0.001001825               0.999999987               0.000089445               0.000992261               0.999999987               0.000031885               0.000979293               0.999999987              -0.000030605               0.000964386               0.999999987              -0.000096421               0.000948930               0.999999987              -0.000163481               0.000933911               0.999999987               0.000414404               0.001163444               0.999999986               0.000303667               0.001105454               0.999999986               0.000261631               0.001076574               0.999999986               0.000245348               0.001068074               0.999999986               0.000237914               0.001072041               0.999999986               0.000231870               0.001083013               0.999999987               0.000223406               0.001097230               0.999999987               0.000210890               0.001112303               0.999999987               0.000193486               0.001126495               0.999999987               0.000169948               0.001138556               0.999999987               0.000139429               0.001147512               0.999999987               0.000101521               0.001152655               0.999999987               0.000055995               0.001153862               0.999999987               0.000003213               0.001151484               0.999999987              -0.000056140               0.001146220               0.999999987              -0.000121426               0.001139252               0.999999987              -0.000190761               0.001131969               0.999999987               0.000335973               0.001223540               0.999999986               0.000239961               0.001193442               0.999999986               0.000200392               0.001175530               0.999999986               0.000183841               0.001171262               0.999999986               0.000176083               0.001177345               0.999999987               0.000170504               0.001190321               0.999999987               0.000163578               0.001207373               0.999999987               0.000153592               0.001226609               0.999999987               0.000139799               0.001246486               0.999999987               0.000121214               0.001265790               0.999999987               0.000096761               0.001283358               0.999999987               0.000065673               0.001298431               0.999999987               0.000027379               0.001310423               0.999999987              -0.000018440               0.001319147               0.999999987              -0.000072060               0.001324695               0.999999987              -0.000133569               0.001327694               0.999999987              -0.000202846               0.001329134               0.999999987               0.000254630               0.001271451               0.999999986               0.000178326               0.001266572               0.999999986               0.000144504               0.001260818               0.999999986               0.000129261               0.001262739               0.999999987               0.000121814               0.001272414               0.999999987               0.000116749               0.001288330               0.999999987               0.000111045               0.001308635               0.999999987               0.000103323               0.001331744               0.999999987               0.000092921               0.001356488               0.999999987               0.000079063               0.001381831               0.999999987               0.000060473               0.001406896               0.999999987               0.000036591               0.001430819               0.999999987               0.000006612               0.001452815               0.999999987              -0.000030097               0.001472156               0.999999987              -0.000074430               0.001488638               0.999999987              -0.000127551               0.001502356               0.999999987              -0.000190523               0.001513581               0.999999987               0.000171034               0.001306226               0.999999986               0.000118171               0.001321446               0.999999986               0.000093343               0.001326740               0.999999987               0.000081524               0.001334936               0.999999987               0.000075537               0.001348723               0.999999987               0.000071406               0.001367858               0.999999987               0.000067208               0.001391318               0.999999987               0.000061789               0.001417913               0.999999987               0.000054671               0.001446744               0.999999987               0.000045294               0.001477037               0.999999987               0.000032861               0.001507936               0.999999987               0.000016719               0.001538608               0.999999987              -0.000003858               0.001568476               0.999999987              -0.000029595               0.001596860               0.999999987              -0.000061402               0.001623033               0.999999987              -0.000100818               0.001646538               0.999999987              -0.000149738               0.001667138               0.999999987               0.000085906               0.001327350               0.999999987               0.000058865               0.001355487               0.999999987               0.000045706               0.001368574               0.999999987               0.000039248               0.001381354               0.999999987               0.000035841               0.001398225               0.999999987               0.000033583               0.001419868               0.999999987               0.000031307               0.001445637               0.999999987               0.000028464               0.001474826               0.999999987               0.000024699               0.001506525               0.999999987               0.000019975               0.001540076               0.999999987               0.000013849               0.001574891               0.999999987               0.000005762               0.001610215               0.999999987              -0.000004880               0.001645429               0.999999987              -0.000018258               0.001679896               0.999999987              -0.000034762               0.001712895               0.999999987              -0.000055870               0.001743613               0.999999987              -0.000083097               0.001771193               0.999999987               0.000000000               0.001334519               0.999999987              -0.000000000               0.001367041               0.999999987               0.000000000               0.001382870               0.999999987              -0.000000000               0.001397473               0.999999987              -0.000000000               0.001415473               0.999999987              -0.000000000               0.001437988               0.999999987              -0.000000000               0.001464589               0.999999987               0.000000000               0.001494634               0.999999987              -0.000000000               0.001527460               0.999999987               0.000000000               0.001562251               0.999999987              -0.000000000               0.001598349               0.999999987              -0.000000000               0.001635361               0.999999987              -0.000000000               0.001672654               0.999999987               0.000000000               0.001709323               0.999999987              -0.000000000               0.001744800               0.999999987              -0.000000000               0.001778122               0.999999987              -0.000000000               0.001808193               0.999999987 </DataArray>
<DataArray type="Float64"                                    Name="stress"                                                      NumberOfComponents="10" format="ascii">
              0.002188358               0.023127992              -0.000000000              -0.002070360               0.008399373               0.006329014               0.000000000               0.000000000               0.000000000               0.000000000               0.002089962               0.017654793              -0.000000000              -0.001423110               0.006359242               0.004936132               0.000000000               0.000000000               0.000000000               0.000000000               0.002685917               0.013219727               0.000000000              -0.000645246               0.004621614               0.003976368               0.000000000               0.000000000               0.000000000               0.000000000               0.002478819               0.010719315              -0.000000000              -0.000410356               0.003709855               0.003299498               0.000000000               0.000000000               0.000000000               0.000000000               0.002055225               0.009128911              -0.000000000              -0.000370403               0.003166408               0.002796004               0.000000000               0.000000000               0.000000000               0.000000000               0.001613356               0.008003151               0.000000000              -0.000395384               0.002799485               0.002404101               0.000000000               0.000000000               0.000000000               0.000000000               0.001215971               0.007124985              -0.000000000              -0.000434633               0.002519849               0.002085216               0.000000000               0.000000000               0.000000000               0.000000000               0.000880934               0.006386804              -0.000000000              -0.000467999               0.002284913               0.001816914               0.000000000               0.000000000               0.000000000               0.000000000               0.000608832               0.005723702              -0.000000000              -0.000487150               0.002070265               0.001583115               0.000000000               0.000000000               0.000000000               0.000000000               0.000387741               0.005094796              -0.000000000              -0.000491446               0.001862064               0.001370618               0.000000000               0.000000000               0.000000000               0.000000000               0.000211162               0.004485818              -0.000000000              -0.000481540               0.001655771               0.001174231               0.000000000               0.000000000               0.000000000               0.000000000               0.000070847               0.003870432               0.000000000              -0.000457235               0.001442543               0.000985307               0.000000000               0.000000000               0.000000000               0.000000000              -0.000030920               0.003225876               0.000000000              -0.000414828               0.001213557               0.000798729               0.000000000               0.000000000               0.000000000               0.000000000              -0.000089576               0.002528590               0.000000000              -0.000349664               0.000959410               0.000609746               0.000000000               0.000000000               0.000000000               0.000000000              -0.000102917               0.001755809              -0.000000000              -0.000258069               0.000671287               0.000413218               0.000000000               0.000000000               0.000000000               0.000000000              -0.000065855               0.000891148              -0.000000000              -0.000136089               0.000342409               0.000206320               0.000000000               0.000000000               0.000000000               0.000000000              -0.000104029               0.000236112               0.000000000              -0.000068525               0.000101545               0.000033020               0.000000000               0.000000000               0.000000000               0.000000000               0.002244056               0.022613492              -0.001508726              -0.001985161               0.008199476               0.006214315               0.000000000               0.000000000               0.000000000               0.000000000               0.002014660               0.017333839              -0.000645663              -0.001411229               0.006248298               0.004837069               0.000000000               0.000000000               0.000000000               0.000000000               0.002472536               0.013099837               0.000199676              -0.000710277               0.004603327               0.003893051               0.000000000               0.000000000               0.000000000               0.000000000               0.002213327               0.010701961               0.000538852              -0.000507746               0.003736533               0.003228787               0.000000000               0.000000000               0.000000000               0.000000000               0.001779043               0.009164800               0.000660439              -0.000478458               0.003214389               0.002735931               0.000000000               0.000000000               0.000000000               0.000000000               0.001349776               0.008063034               0.000686046              -0.000501712               0.002854889               0.002353176               0.000000000               0.000000000               0.000000000               0.000000000               0.000977111               0.007197825               0.000672335              -0.000533311               0.002577021               0.002043711               0.000000000               0.000000000               0.000000000               0.000000000               0.000670039               0.006464179               0.000643087              -0.000556757               0.002340290               0.001783534               0.000000000               0.000000000               0.000000000               0.000000000               0.000425616               0.005800634               0.000606312              -0.000565472               0.002122016               0.001556544               0.000000000               0.000000000               0.000000000               0.000000000               0.000232457               0.005176445               0.000571378              -0.000559883               0.001912092               0.001352209               0.000000000               0.000000000               0.000000000               0.000000000               0.000084343               0.004571001               0.000537485              -0.000539745               0.001703567               0.001163821               0.000000000               0.000000000               0.000000000               0.000000000              -0.000023549               0.003963015               0.000496522              -0.000504206               0.001489060               0.000984854               0.000000000               0.000000000               0.000000000               0.000000000              -0.000094991               0.003331680               0.000444760              -0.000452081               0.001261242               0.000809162               0.000000000               0.000000000               0.000000000               0.000000000              -0.000128306               0.002662040               0.000373930              -0.000380869               0.001014294               0.000633425               0.000000000               0.000000000               0.000000000               0.000000000              -0.000119750               0.001936329               0.000280404              -0.000286947               0.000741085               0.000454139               0.000000000               0.000000000               0.000000000               0.000000000              -0.000069483               0.001142107               0.000157629              -0.000168819               0.000436971               0.000268152               0.000000000               0.000000000               0.000000000               0.000000000              -0.000097553               0.000551698               0.000099055              -0.000105544               0.000219079               0.000113534               0.000000000               0.000000000               0.000000000               0.000000000               0.002365147               0.021150231              -0.002768662              -0.001756846               0.007635621               0.005878776               0.000000000               0.000000000               0.000000000               0.000000000               0.001776962               0.016429699              -0.001174367              -0.001387349               0.005938961               0.004551612               0.000000000               0.000000000               0.000000000               0.000000000               0.001853405               0.012766931               0.000369584              -0.000900837               0.004555880               0.003655043               0.000000000               0.000000000               0.000000000               0.000000000               0.001466549               0.010655460               0.000961789              -0.000781975               0.003812443               0.003030468               0.000000000               0.000000000               0.000000000               0.000000000               0.001023019               0.009260533               0.001160569              -0.000773933               0.003344791               0.002570858               0.000000000               0.000000000               0.000000000               0.000000000               0.000638802               0.008224442               0.001195701              -0.000788503               0.003004287               0.002215784               0.000000000               0.000000000               0.000000000               0.000000000               0.000340028               0.007389017               0.001166333              -0.000796115               0.002728353               0.001932237               0.000000000               0.000000000               0.000000000               0.000000000               0.000115825               0.006669329               0.001108188              -0.000790230               0.002486497               0.001696267               0.000000000               0.000000000               0.000000000               0.000000000              -0.000051458               0.006012522               0.001041324              -0.000770860               0.002261107               0.001490247               0.000000000               0.000000000               0.000000000               0.000000000              -0.000163639               0.005397113               0.000979797              -0.000736002               0.002044353               0.001308351               0.000000000               0.000000000               0.000000000               0.000000000              -0.000224817               0.004801799               0.000919095              -0.000684530               0.001828760               0.001144230               0.000000000               0.000000000               0.000000000               0.000000000              -0.000250467               0.004210282               0.000846540              -0.000620209               0.001610149               0.000989940               0.000000000               0.000000000               0.000000000               0.000000000              -0.000245449               0.003616884               0.000755554              -0.000544153               0.001387000               0.000842847               0.000000000               0.000000000               0.000000000               0.000000000              -0.000215038               0.003018011               0.000632688              -0.000457890               0.001158623               0.000700734               0.000000000               0.000000000               0.000000000               0.000000000              -0.000162944               0.002411886               0.000469429              -0.000362589               0.000924817               0.000562228               0.000000000               0.000000000               0.000000000               0.000000000              -0.000088075               0.001805100               0.000260851              -0.000258665               0.000687916               0.000429250               0.000000000               0.000000000               0.000000000               0.000000000              -0.000088459               0.001388568               0.000158603              -0.000206743               0.000531765               0.000325023               0.000000000               0.000000000               0.000000000               0.000000000               0.002429700               0.018942253              -0.003612728              -0.001456643               0.006799568               0.005342926               0.000000000               0.000000000               0.000000000               0.000000000               0.001352468               0.015085443              -0.001526590              -0.001378502               0.005487931               0.004109429               0.000000000               0.000000000               0.000000000               0.000000000               0.000907622               0.012270933               0.000462903              -0.001193506               0.004488105               0.003294600               0.000000000               0.000000000               0.000000000               0.000000000               0.000379581               0.010561555               0.001178460              -0.001177849               0.003913099               0.002735251               0.000000000               0.000000000               0.000000000               0.000000000              -0.000034075               0.009355971               0.001397913              -0.001182272               0.003512716               0.002330444               0.000000000               0.000000000               0.000000000               0.000000000              -0.000320179               0.008409054               0.001421051              -0.001171197               0.003193389               0.002022192               0.000000000               0.000000000               0.000000000               0.000000000              -0.000501844               0.007614294               0.001373461              -0.001139976               0.002918064               0.001778089               0.000000000               0.000000000               0.000000000               0.000000000              -0.000601914               0.006913554               0.001297122              -0.001089910               0.002667798               0.001577888               0.000000000               0.000000000               0.000000000               0.000000000              -0.000641725               0.006269866               0.001213470              -0.001024378               0.002431394               0.001407016               0.000000000               0.000000000               0.000000000               0.000000000              -0.000629280               0.005664059               0.001136816              -0.000943986               0.002202662               0.001258677               0.000000000               0.000000000               0.000000000               0.000000000              -0.000576085               0.005083788               0.001056290              -0.000851504               0.001978413               0.001126910               0.000000000               0.000000000               0.000000000               0.000000000              -0.000497411               0.004523485               0.000960838              -0.000751963               0.001758467               0.001006504               0.000000000               0.000000000               0.000000000               0.000000000              -0.000400501               0.003986995               0.000844278              -0.000648561               0.001545172               0.000896611               0.000000000               0.000000000               0.000000000               0.000000000              -0.000293950               0.003485094               0.000694024              -0.000545867               0.001343642               0.000797775               0.000000000               0.000000000               0.000000000               0.000000000              -0.000187579               0.003038661               0.000502719              -0.000450174               0.001162935               0.000712761               0.000000000               0.000000000               0.000000000               0.000000000              -0.000092106               0.002665556               0.000272087              -0.000367734               0.001011088               0.000643354               0.000000000               0.000000000               0.000000000               0.000000000              -0.000064746               0.002457047               0.000155341              -0.000331410               0.000929477               0.000598067               0.000000000               0.000000000               0.000000000               0.000000000               0.002300810               0.016257072              -0.003970101              -0.001169330               0.005808746               0.004639416               0.000000000               0.000000000               0.000000000               0.000000000               0.000727038               0.013477295              -0.001692076              -0.001412020               0.004963060               0.003551040               0.000000000               0.000000000               0.000000000               0.000000000              -0.000243088               0.011663861               0.000443116              -0.001549137               0.004404294               0.002855157               0.000000000               0.000000000               0.000000000               0.000000000              -0.000842816               0.010384145               0.001151585              -0.001614071               0.003999371               0.002385300               0.000000000               0.000000000               0.000000000               0.000000000              -0.001166875               0.009370300               0.001344704              -0.001608862               0.003659689               0.002050827               0.000000000               0.000000000               0.000000000               0.000000000              -0.001306783               0.008519395               0.001347289              -0.001554964               0.003358091               0.001803127               0.000000000               0.000000000               0.000000000               0.000000000              -0.001327895               0.007775340               0.001288532              -0.001469875               0.003081712               0.001611837               0.000000000               0.000000000               0.000000000               0.000000000              -0.001270394               0.007094952               0.001207562              -0.001363264               0.002819382               0.001456118               0.000000000               0.000000000               0.000000000               0.000000000              -0.001160223               0.006464207               0.001120540              -0.001243107               0.002569083               0.001325976               0.000000000               0.000000000               0.000000000               0.000000000              -0.001014523               0.005874719               0.001035277              -0.001114784               0.002329814               0.001215031               0.000000000               0.000000000               0.000000000               0.000000000              -0.000846036               0.005321083               0.000944151              -0.000982397               0.002101142               0.001118745               0.000000000               0.000000000               0.000000000               0.000000000              -0.000664558               0.004809960               0.000835994              -0.000850452               0.001886788               0.001036336               0.000000000               0.000000000               0.000000000               0.000000000              -0.000482935               0.004347749               0.000708227              -0.000724568               0.001690758               0.000966190               0.000000000               0.000000000               0.000000000               0.000000000              -0.000314705               0.003957396               0.000560955              -0.000612688               0.001523348               0.000910660               0.000000000               0.000000000               0.000000000               0.000000000              -0.000179320               0.003664321               0.000387241              -0.000525284               0.001396522               0.000871239               0.000000000               0.000000000               0.000000000               0.000000000              -0.000079099               0.003488273               0.000195573              -0.000465695               0.001317978               0.000852283               0.000000000               0.000000000               0.000000000               0.000000000              -0.000034400               0.003433117               0.000098112              -0.000442038               0.001291707               0.000849669               0.000000000               0.000000000               0.000000000               0.000000000               0.001861924               0.013386539              -0.003852719              -0.000975096               0.004787166               0.003812070               0.000000000               0.000000000               0.000000000               0.000000000              -0.000082646               0.011788337              -0.001697487              -0.001504532               0.004430917               0.002926385               0.000000000               0.000000000               0.000000000               0.000000000              -0.001463012               0.010992057               0.000289743              -0.001922632               0.004304860               0.002382228               0.000000000               0.000000000               0.000000000               0.000000000              -0.002020358               0.010105260               0.000893685              -0.002020787               0.004041982               0.002021195               0.000000000               0.000000000               0.000000000               0.000000000              -0.002171925               0.009263800               0.001043531              -0.001972442               0.003745383               0.001772941               0.000000000               0.000000000               0.000000000               0.000000000              -0.002117458               0.008502673               0.001037704              -0.001856876               0.003453155               0.001596278               0.000000000               0.000000000               0.000000000               0.000000000              -0.001959167               0.007803761               0.000981081              -0.001710154               0.003171279               0.001461125               0.000000000               0.000000000               0.000000000               0.000000000              -0.001742771               0.007146578               0.000907325              -0.001546858               0.002897788               0.001350930               0.000000000               0.000000000               0.000000000               0.000000000              -0.001491394               0.006540841               0.000828418              -0.001376875               0.002639216               0.001262342               0.000000000               0.000000000               0.000000000               0.000000000              -0.001223928               0.005983095               0.000746290              -0.001206857               0.002396631               0.001189774               0.000000000               0.000000000               0.000000000               0.000000000              -0.000952898               0.005474881               0.000659793              -0.001041694               0.002172173               0.001130479               0.000000000               0.000000000               0.000000000               0.000000000              -0.000693345               0.005026716               0.000559184              -0.000888342               0.001971669               0.001083327               0.000000000               0.000000000               0.000000000               0.000000000              -0.000464921               0.004652871               0.000445164              -0.000755952               0.001802925               0.001046973               0.000000000               0.000000000               0.000000000               0.000000000              -0.000276258               0.004369702               0.000330859              -0.000649808               0.001673155               0.001023347               0.000000000               0.000000000               0.000000000               0.000000000              -0.000140457               0.004194225               0.000214305              -0.000576948               0.001590377               0.001013429               0.000000000               0.000000000               0.000000000               0.000000000              -0.000054910               0.004123984               0.000098876              -0.000536088               0.001553344               0.001017256               0.000000000               0.000000000               0.000000000               0.000000000              -0.000018004               0.004122334               0.000041828              -0.000522042               0.001548112               0.001026070               0.000000000               0.000000000               0.000000000               0.000000000               0.001046046               0.010578481              -0.003349774              -0.000930043               0.003836139               0.002906095               0.000000000               0.000000000               0.000000000               0.000000000              -0.001037259               0.010157010              -0.001603109              -0.001658595               0.003938501               0.002279905               0.000000000               0.000000000               0.000000000               0.000000000              -0.002615341               0.010282392              -0.000001212              -0.002266046               0.004182779               0.001916732               0.000000000               0.000000000               0.000000000               0.000000000              -0.002999675               0.009722202               0.000456909              -0.002340147               0.004020751               0.001680603               0.000000000               0.000000000               0.000000000               0.000000000              -0.002919578               0.009023472               0.000578287              -0.002222770               0.003748717               0.001525947               0.000000000               0.000000000               0.000000000               0.000000000              -0.002651860               0.008334215               0.000587514              -0.002036219               0.003456783               0.001420564               0.000000000               0.000000000               0.000000000               0.000000000              -0.002314615               0.007677069               0.000550737              -0.001827610               0.003168201               0.001340591               0.000000000               0.000000000               0.000000000               0.000000000              -0.001952374               0.007059312               0.000498232              -0.001614550               0.002891264               0.001276713               0.000000000               0.000000000               0.000000000               0.000000000              -0.001580292               0.006496684               0.000442054              -0.001404692               0.002633770               0.001229079               0.000000000               0.000000000               0.000000000               0.000000000              -0.001215881               0.005986107               0.000381407              -0.001204216               0.002396754               0.001192539               0.000000000               0.000000000               0.000000000               0.000000000              -0.000877290               0.005534929               0.000318326              -0.001020847               0.002185240               0.001164393               0.000000000               0.000000000               0.000000000               0.000000000              -0.000581213               0.005157944               0.000250532              -0.000862696               0.002006863               0.001144167               0.000000000               0.000000000               0.000000000               0.000000000              -0.000349461               0.004867861               0.000177590              -0.000739529               0.001869114               0.001129585               0.000000000               0.000000000               0.000000000               0.000000000              -0.000186793               0.004673832               0.000118343              -0.000654275               0.001776020               0.001121745               0.000000000               0.000000000               0.000000000               0.000000000              -0.000084434               0.004570047               0.000071676              -0.000602917               0.001724306               0.001121389               0.000000000               0.000000000               0.000000000               0.000000000              -0.000028492               0.004531251               0.000027694              -0.000577089               0.001702765               0.001125676               0.000000000               0.000000000               0.000000000               0.000000000              -0.000011080               0.004526290               0.000009035              -0.000569940               0.001698728               0.001128788               0.000000000               0.000000000               0.000000000               0.000000000              -0.000097314               0.008005003              -0.002581635              -0.001037117               0.003014013               0.001976895               0.000000000               0.000000000               0.000000000               0.000000000              -0.002074157               0.008670476              -0.001465749              -0.001861615               0.003510668               0.001649053               0.000000000               0.000000000               0.000000000               0.000000000              -0.003587745               0.009538624              -0.000412134              -0.002537726               0.004025418               0.001487692               0.000000000               0.000000000               0.000000000               0.000000000              -0.003689996               0.009232957              -0.000081729              -0.002537862               0.003923576               0.001385714               0.000000000               0.000000000               0.000000000               0.000000000              -0.003354914               0.008659008               0.000044631              -0.002340463               0.003666461               0.001325998               0.000000000               0.000000000               0.000000000               0.000000000              -0.002891043               0.008039660               0.000092777              -0.002089093               0.003376224               0.001287131               0.000000000               0.000000000               0.000000000               0.000000000              -0.002398175               0.007435286               0.000097199              -0.001828722               0.003087978               0.001259256               0.000000000               0.000000000               0.000000000               0.000000000              -0.001911159               0.006874770               0.000081785              -0.001576027               0.002816910               0.001240883               0.000000000               0.000000000               0.000000000               0.000000000              -0.001445004               0.006363650               0.000061744              -0.001337329               0.002566972               0.001229643               0.000000000               0.000000000               0.000000000               0.000000000              -0.001020725               0.005905504               0.000036660              -0.001120957               0.002342134               0.001221177               0.000000000               0.000000000               0.000000000               0.000000000              -0.000655778               0.005515713               0.000015767              -0.000935378               0.002150345               0.001214967               0.000000000               0.000000000               0.000000000               0.000000000              -0.000371145               0.005207385              -0.000000790              -0.000790101               0.001999145               0.001209044               0.000000000               0.000000000               0.000000000               0.000000000              -0.000182927               0.004989083              -0.000011822              -0.000692231               0.001893755               0.001201523               0.000000000               0.000000000               0.000000000               0.000000000              -0.000072762               0.004862906              -0.000006494              -0.000635147               0.001832668               0.001197521               0.000000000               0.000000000               0.000000000               0.000000000              -0.000018571               0.004800433               0.000005041              -0.000607017               0.001802467               0.001195451               0.000000000               0.000000000               0.000000000               0.000000000              -0.000000242               0.004780441               0.000006529              -0.000597645               0.001792679               0.001195035               0.000000000               0.000000000               0.000000000               0.000000000              -0.000000236               0.004781797               0.000005457              -0.000597812               0.001793187               0.001195375               0.000000000               0.000000000               0.000000000               0.000000000              -0.001434575               0.005846612              -0.001672058              -0.001268790               0.002371781               0.001102991               0.000000000               0.000000000               0.000000000               0.000000000              -0.003085344               0.007340182              -0.001323312              -0.002074522               0.003138210               0.001063688               0.000000000               0.000000000               0.000000000               0.000000000              -0.004348174               0.008781845              -0.000898536              -0.002728289               0.003836682               0.001108393               0.000000000               0.000000000               0.000000000               0.000000000              -0.004160401               0.008737915              -0.000644834              -0.002652383               0.003796737               0.001144354               0.000000000               0.000000000               0.000000000               0.000000000              -0.003614890               0.008315348              -0.000486968              -0.002394996               0.003570087               0.001175091               0.000000000               0.000000000               0.000000000               0.000000000              -0.002995240               0.007793243              -0.000384772              -0.002097365               0.003296843               0.001199478               0.000000000               0.000000000               0.000000000               0.000000000              -0.002388690               0.007261792              -0.000323691              -0.001803478               0.003021733               0.001218254               0.000000000               0.000000000               0.000000000               0.000000000              -0.001810109               0.006761751              -0.000292365              -0.001524006               0.002761896               0.001237890               0.000000000               0.000000000               0.000000000               0.000000000              -0.001273412               0.006298036              -0.000271254              -0.001264781               0.002520918               0.001256137               0.000000000               0.000000000               0.000000000               0.000000000              -0.000802309               0.005884184              -0.000248554              -0.001036386               0.002306837               0.001270451               0.000000000               0.000000000               0.000000000               0.000000000              -0.000425578               0.005537668              -0.000216334              -0.000851798               0.002129804               0.001278005               0.000000000               0.000000000               0.000000000               0.000000000              -0.000158050               0.005273114              -0.000176527              -0.000718406               0.001997156               0.001278750               0.000000000               0.000000000               0.000000000               0.000000000              -0.000002298               0.005097425              -0.000127650              -0.000638038               0.001911804               0.001273766               0.000000000               0.000000000               0.000000000               0.000000000               0.000061808               0.004999047              -0.000070222              -0.000601701               0.001866899               0.001265198               0.000000000               0.000000000               0.000000000               0.000000000               0.000066161               0.004947829              -0.000017629              -0.000593667               0.001847149               0.001253482               0.000000000               0.000000000               0.000000000               0.000000000               0.000041666               0.004931034               0.000011661              -0.000600753               0.001843912               0.001243159               0.000000000               0.000000000               0.000000000               0.000000000               0.000024447               0.004932770               0.000018648              -0.000607427               0.001846716               0.001239289               0.000000000               0.000000000               0.000000000               0.000000000              -0.002967571               0.003863122              -0.000731450              -0.001595726               0.001819603               0.000223877               0.000000000               0.000000000               0.000000000               0.000000000              -0.003942419               0.005804368              -0.001169902              -0.002203948               0.002669419               0.000465471               0.000000000               0.000000000               0.000000000               0.000000000              -0.004820103               0.007653293              -0.001403100              -0.002764193               0.003472470               0.000708276               0.000000000               0.000000000               0.000000000               0.000000000              -0.004475236               0.008001654              -0.001234933              -0.002678414               0.003559996               0.000881582               0.000000000               0.000000000               0.000000000               0.000000000              -0.003843447               0.007856679              -0.001044777              -0.002423371               0.003426657               0.001003286               0.000000000               0.000000000               0.000000000               0.000000000              -0.003163778               0.007544317              -0.000884254              -0.002129451               0.003224564               0.001095113               0.000000000               0.000000000               0.000000000               0.000000000              -0.002515873               0.007176085              -0.000760279              -0.001840459               0.003005491               0.001165032               0.000000000               0.000000000               0.000000000               0.000000000              -0.001908060               0.006793536              -0.000676454              -0.001564711               0.002786060               0.001221349               0.000000000               0.000000000               0.000000000               0.000000000              -0.001343753               0.006417402              -0.000608206              -0.001306080               0.002574473               0.001268393               0.000000000               0.000000000               0.000000000               0.000000000              -0.000845518               0.006058740              -0.000534218              -0.001074409               0.002377696               0.001303287               0.000000000               0.000000000               0.000000000               0.000000000              -0.000436547               0.005732517              -0.000451992              -0.000880267               0.002204242               0.001323975               0.000000000               0.000000000               0.000000000               0.000000000              -0.000132084               0.005454128              -0.000364019              -0.000731296               0.002061790               0.001330494               0.000000000               0.000000000               0.000000000               0.000000000               0.000064270               0.005241065              -0.000268196              -0.000631030               0.001957348               0.001326317               0.000000000               0.000000000               0.000000000               0.000000000               0.000161718               0.005101644              -0.000167539              -0.000577060               0.001892884               0.001315824               0.000000000               0.000000000               0.000000000               0.000000000               0.000179078               0.005024514              -0.000076819              -0.000560908               0.001861791               0.001300882               0.000000000               0.000000000               0.000000000               0.000000000               0.000146168               0.004994044              -0.000017729              -0.000569441               0.001854478               0.001285037               0.000000000               0.000000000               0.000000000               0.000000000               0.000109107               0.004978872               0.000005783              -0.000581443               0.001853422               0.001271979               0.000000000               0.000000000               0.000000000               0.000000000              -0.004883059               0.002096445               0.000165105              -0.002093199               0.001396539              -0.000696661               0.000000000               0.000000000               0.000000000               0.000000000              -0.004910520               0.004262641              -0.000956721              -0.002374270               0.002212289              -0.000161981               0.000000000               0.000000000               0.000000000               0.000000000              -0.005221731               0.006315934              -0.001807260              -0.002747634               0.003021168               0.000273533               0.000000000               0.000000000               0.000000000               0.000000000              -0.004736785               0.007036571              -0.001797261              -0.002655860               0.003230786               0.000574927               0.000000000               0.000000000               0.000000000               0.000000000              -0.004053916               0.007208164              -0.001608184              -0.002421233               0.003209775               0.000788541               0.000000000               0.000000000               0.000000000               0.000000000              -0.003350138               0.007138249              -0.001403667              -0.002148578               0.003095585               0.000947007               0.000000000               0.000000000               0.000000000               0.000000000              -0.002679241               0.006960288              -0.001228334              -0.001874747               0.002944988               0.001070241               0.000000000               0.000000000               0.000000000               0.000000000              -0.002057501               0.006730243              -0.001093484              -0.001612840               0.002781005               0.001168165               0.000000000               0.000000000               0.000000000               0.000000000              -0.001477173               0.006475008              -0.000976709              -0.001363313               0.002612752               0.001249439               0.000000000               0.000000000               0.000000000               0.000000000              -0.000946337               0.006203575              -0.000858826              -0.001130321               0.002444611               0.001314290               0.000000000               0.000000000               0.000000000               0.000000000              -0.000482061               0.005922390              -0.000739949              -0.000921070               0.002281134               0.001360064               0.000000000               0.000000000               0.000000000               0.000000000              -0.000102661               0.005649834              -0.000616343              -0.000744725               0.002131501               0.001386776               0.000000000               0.000000000               0.000000000               0.000000000               0.000176195               0.005404822              -0.000484752              -0.000609528               0.002004765               0.001395237               0.000000000               0.000000000               0.000000000               0.000000000               0.000352709               0.005209984              -0.000345353              -0.000518981               0.001909638               0.001390657               0.000000000               0.000000000               0.000000000               0.000000000               0.000430653               0.005084684              -0.000204078              -0.000474089               0.001852908               0.001378818               0.000000000               0.000000000               0.000000000               0.000000000               0.000412221               0.005020411              -0.000084286              -0.000472967               0.001831109               0.001358142               0.000000000               0.000000000               0.000000000               0.000000000               0.000353799               0.004984175              -0.000024359              -0.000490346               0.001824824               0.001334478               0.000000000               0.000000000               0.000000000               0.000000000              -0.007047009               0.000694859               0.000924868              -0.002729483               0.001141439              -0.001588043               0.000000000               0.000000000               0.000000000               0.000000000              -0.006025618               0.002823284              -0.000678276              -0.002612513               0.001811920              -0.000800593               0.000000000               0.000000000               0.000000000               0.000000000              -0.005571007               0.004799822              -0.002007079              -0.002689100               0.002496290              -0.000192810               0.000000000               0.000000000               0.000000000               0.000000000              -0.004864751               0.005772906              -0.002194680              -0.002545889               0.002772912               0.000227023               0.000000000               0.000000000               0.000000000               0.000000000              -0.004115549               0.006230879              -0.002061398              -0.002322186               0.002851000               0.000528815               0.000000000               0.000000000               0.000000000               0.000000000              -0.003391840               0.006414479              -0.001852346              -0.002073745               0.002829386               0.000755641               0.000000000               0.000000000               0.000000000               0.000000000              -0.002710198               0.006452783              -0.001649821              -0.001822918               0.002758545               0.000935627               0.000000000               0.000000000               0.000000000               0.000000000              -0.002084479               0.006405481              -0.001479726              -0.001582361               0.002662592               0.001080231               0.000000000               0.000000000               0.000000000               0.000000000              -0.001499810               0.006301366              -0.001329901              -0.001350097               0.002550466               0.001200370               0.000000000               0.000000000               0.000000000               0.000000000              -0.000947805               0.006153033              -0.001183632              -0.001124554               0.002425841               0.001301288               0.000000000               0.000000000               0.000000000               0.000000000              -0.000442036               0.005961016              -0.001038396              -0.000910889               0.002290615               0.001379726               0.000000000               0.000000000               0.000000000               0.000000000               0.000001122               0.005742650              -0.000888181              -0.000717409               0.002153334               0.001435925               0.000000000               0.000000000               0.000000000               0.000000000               0.000367356               0.005520864              -0.000728422              -0.000552348               0.002024386               0.001472037               0.000000000               0.000000000               0.000000000               0.000000000               0.000642414               0.005316856              -0.000558723              -0.000423701               0.001913501               0.001489800               0.000000000               0.000000000               0.000000000               0.000000000               0.000815968               0.005154789              -0.000371826              -0.000338360               0.001831032               0.001492673               0.000000000               0.000000000               0.000000000               0.000000000               0.000874928               0.005054367              -0.000181439              -0.000303697               0.001786004               0.001482307               0.000000000               0.000000000               0.000000000               0.000000000               0.000845086               0.005003711              -0.000080962              -0.000308556               0.001770739               0.001462183               0.000000000               0.000000000               0.000000000               0.000000000              -0.009317102              -0.000285599               0.001432049              -0.003458211               0.001057530              -0.002400681               0.000000000               0.000000000               0.000000000               0.000000000              -0.007219087               0.001561710              -0.000385704              -0.002902368               0.001488016              -0.001414352               0.000000000               0.000000000               0.000000000               0.000000000              -0.005884605               0.003233275              -0.001975081              -0.002610882               0.001948038              -0.000662843               0.000000000               0.000000000               0.000000000               0.000000000              -0.004878056               0.004319913              -0.002334736              -0.002369255               0.002229707              -0.000139548               0.000000000               0.000000000               0.000000000               0.000000000              -0.004028578               0.005002353              -0.002288790              -0.002136006               0.002379436               0.000243429               0.000000000               0.000000000               0.000000000               0.000000000              -0.003277898               0.005420051              -0.002115239              -0.001906714               0.002442236               0.000535522               0.000000000               0.000000000               0.000000000               0.000000000              -0.002596669               0.005671227              -0.001917008              -0.001682651               0.002451273               0.000768622               0.000000000               0.000000000               0.000000000               0.000000000              -0.001969739               0.005814250              -0.001737164              -0.001465430               0.002426540               0.000961110               0.000000000               0.000000000               0.000000000               0.000000000              -0.001381061               0.005877430              -0.001577483              -0.001252574               0.002376648               0.001124074               0.000000000               0.000000000               0.000000000               0.000000000              -0.000816878               0.005872383              -0.001421641              -0.001040375               0.002304233               0.001263858               0.000000000               0.000000000               0.000000000               0.000000000              -0.000284825               0.005805560              -0.001264455              -0.000832503               0.002212668               0.001380165               0.000000000               0.000000000               0.000000000               0.000000000               0.000211615               0.005691638              -0.001104567              -0.000632098               0.002107893               0.001475795               0.000000000               0.000000000               0.000000000               0.000000000               0.000663183               0.005543217              -0.000936012              -0.000444208               0.001995790               0.001551582               0.000000000               0.000000000               0.000000000               0.000000000               0.001054149               0.005376422              -0.000749255              -0.000276746               0.001884372               0.001607625               0.000000000               0.000000000               0.000000000               0.000000000               0.001365881               0.005218357              -0.000531989              -0.000140089               0.001786131               0.001646042               0.000000000               0.000000000               0.000000000               0.000000000               0.001575155               0.005094835              -0.000279533              -0.000046172               0.001713652               0.001667480               0.000000000               0.000000000               0.000000000               0.000000000               0.001650832               0.005042173              -0.000145516              -0.000011210               0.001684444               0.001673234               0.000000000               0.000000000               0.000000000               0.000000000              -0.011487692              -0.000883358               0.001587638              -0.004197462               0.001104693              -0.003092769               0.000000000               0.000000000               0.000000000               0.000000000              -0.008389509               0.000544393              -0.000142968              -0.003214112               0.001252826              -0.001961286               0.000000000               0.000000000               0.000000000               0.000000000              -0.006165674               0.001778261              -0.001711948              -0.002534407               0.001437546              -0.001096861               0.000000000               0.000000000               0.000000000               0.000000000              -0.004811461               0.002854533              -0.002158062              -0.002161111               0.001671869              -0.000489242               0.000000000               0.000000000               0.000000000               0.000000000              -0.003832055               0.003673895              -0.002191703              -0.001896254               0.001856703              -0.000039551               0.000000000               0.000000000               0.000000000               0.000000000              -0.003042424               0.004274230              -0.002072776              -0.001675184               0.001983123               0.000307939               0.000000000               0.000000000               0.000000000               0.000000000              -0.002354331               0.004705452              -0.001911052              -0.001471053               0.002058819               0.000587766               0.000000000               0.000000000               0.000000000               0.000000000              -0.001727573               0.005015004              -0.001753863              -0.001274713               0.002096555               0.000821842               0.000000000               0.000000000               0.000000000               0.000000000              -0.001138538               0.005235268              -0.001610106              -0.001081358               0.002105524               0.001024166               0.000000000               0.000000000               0.000000000               0.000000000              -0.000568584               0.005381290              -0.001464993              -0.000885879               0.002089038               0.001203159               0.000000000               0.000000000               0.000000000               0.000000000              -0.000010568               0.005459388              -0.001317178              -0.000686385               0.002048573               0.001362187               0.000000000               0.000000000               0.000000000               0.000000000               0.000535239               0.005473267              -0.001167827              -0.000483443               0.001985552               0.001502108               0.000000000               0.000000000               0.000000000               0.000000000               0.001062957               0.005425765              -0.001010043              -0.000279612               0.001901774               0.001622162               0.000000000               0.000000000               0.000000000               0.000000000               0.001566528               0.005333070              -0.000832652              -0.000079186               0.001804067               0.001724881               0.000000000               0.000000000               0.000000000               0.000000000               0.002038906               0.005224032              -0.000613888               0.000111584               0.001704132               0.001815716               0.000000000               0.000000000               0.000000000               0.000000000               0.002455578               0.005111710              -0.000335445               0.000281875               0.001609928               0.001891803               0.000000000               0.000000000               0.000000000               0.000000000               0.002704788               0.005079309              -0.000192901               0.000379378               0.001566627               0.001946005               0.000000000               0.000000000               0.000000000               0.000000000              -0.013302098              -0.001175107               0.001351603              -0.004841395               0.001222087              -0.003619308               0.000000000               0.000000000               0.000000000               0.000000000              -0.009396404              -0.000181735               0.000000018              -0.003500932               0.001106391              -0.002394541               0.000000000               0.000000000               0.000000000               0.000000000              -0.006405980               0.000594309              -0.001257083              -0.002476529               0.001023605              -0.001452923               0.000000000               0.000000000               0.000000000               0.000000000              -0.004716780               0.001580641              -0.001661189              -0.001966370               0.001182328              -0.000784042               0.000000000               0.000000000               0.000000000               0.000000000              -0.003599977               0.002461583              -0.001728857              -0.001657686               0.001373080              -0.000284606               0.000000000               0.000000000               0.000000000               0.000000000              -0.002755814               0.003179929              -0.001663932              -0.001430919               0.001536938               0.000106019               0.000000000               0.000000000               0.000000000               0.000000000              -0.002050089               0.003744340              -0.001555524              -0.001236823               0.001660375               0.000423551               0.000000000               0.000000000               0.000000000               0.000000000              -0.001420590               0.004186775              -0.001443449              -0.001056066               0.001747599               0.000691533               0.000000000               0.000000000               0.000000000               0.000000000              -0.000834929               0.004536657              -0.001338093              -0.000880179               0.001805597               0.000925418               0.000000000               0.000000000               0.000000000               0.000000000              -0.000263229               0.004808873              -0.001231606              -0.000699819               0.001836214               0.001136395               0.000000000               0.000000000               0.000000000               0.000000000               0.000312492               0.005005494              -0.001120751              -0.000508502               0.001837982               0.001329480               0.000000000               0.000000000               0.000000000               0.000000000               0.000893595               0.005135877              -0.001003842              -0.000306886               0.001814237               0.001507351               0.000000000               0.000000000               0.000000000               0.000000000               0.001482321               0.005206914              -0.000878359              -0.000094994               0.001767285               0.001672291               0.000000000               0.000000000               0.000000000               0.000000000               0.002083157               0.005216604              -0.000738983               0.000129107               0.001695815               0.001824922               0.000000000               0.000000000               0.000000000               0.000000000               0.002702701               0.005176748              -0.000560416               0.000366416               0.001603427               0.001969843               0.000000000               0.000000000               0.000000000               0.000000000               0.003334526               0.005100749              -0.000313986               0.000612847               0.001495950               0.002108798               0.000000000               0.000000000               0.000000000               0.000000000               0.003775822               0.005102013              -0.000189460               0.000778174               0.001441263               0.002219437               0.000000000               0.000000000               0.000000000               0.000000000              -0.014510406              -0.001278599               0.000772554              -0.005281574               0.001334316              -0.003947258               0.000000000               0.000000000               0.000000000               0.000000000              -0.010078718              -0.000607237               0.000033919              -0.003703612               0.001032118              -0.002671494               0.000000000               0.000000000               0.000000000               0.000000000              -0.006569538              -0.000179168              -0.000665365              -0.002441179               0.000753998              -0.001687181               0.000000000               0.000000000               0.000000000               0.000000000              -0.004641185               0.000704156              -0.000905717              -0.001828462               0.000844200              -0.000984262               0.000000000               0.000000000               0.000000000               0.000000000              -0.003417302               0.001602250              -0.000955768              -0.001481767               0.001027998              -0.000453769               0.000000000               0.000000000               0.000000000               0.000000000              -0.002526329               0.002383759              -0.000928919              -0.001245340               0.001209691              -0.000035649               0.000000000               0.000000000               0.000000000               0.000000000              -0.001802026               0.003031663              -0.000874163              -0.001054715               0.001362116               0.000307400               0.000000000               0.000000000               0.000000000               0.000000000              -0.001163151               0.003563177              -0.000815380              -0.000881577               0.001481573               0.000599996               0.000000000               0.000000000               0.000000000               0.000000000              -0.000572449               0.003994531              -0.000762333              -0.000713983               0.001569491               0.000855508               0.000000000               0.000000000               0.000000000               0.000000000              -0.000000468               0.004347070              -0.000710298              -0.000543558               0.001630195               0.001086637               0.000000000               0.000000000               0.000000000               0.000000000               0.000575870               0.004627934              -0.000651967              -0.000362540               0.001663476               0.001300936               0.000000000               0.000000000               0.000000000               0.000000000               0.001172657               0.004844346              -0.000586729              -0.000165797               0.001670031               0.001504235               0.000000000               0.000000000               0.000000000               0.000000000               0.001802038               0.005000206              -0.000517859               0.000050738               0.001649806               0.001700544               0.000000000               0.000000000               0.000000000               0.000000000               0.002472544               0.005092625              -0.000444909               0.000290623               0.001600651               0.001891273               0.000000000               0.000000000               0.000000000               0.000000000               0.003196559               0.005119693              -0.000345035               0.000558742               0.001520300               0.002079042               0.000000000               0.000000000               0.000000000               0.000000000               0.003995401               0.005081042              -0.000194526               0.000863137               0.001405951               0.002269088               0.000000000               0.000000000               0.000000000               0.000000000               0.004599058               0.005111246              -0.000118365               0.001085730               0.001341821               0.002427552               0.000000000               0.000000000               0.000000000               0.000000000              -0.014935434              -0.001303446               0.000000000              -0.005437853               0.001378127              -0.004059727               0.000000000               0.000000000               0.000000000               0.000000000              -0.010319500              -0.000749524               0.000000000              -0.003776119               0.001008859              -0.002767261               0.000000000               0.000000000               0.000000000               0.000000000              -0.006625718              -0.000446042              -0.000000000              -0.002428888               0.000660944              -0.001767943               0.000000000               0.000000000               0.000000000               0.000000000              -0.004611256               0.000393423               0.000000000              -0.001778397               0.000723935              -0.001054462               0.000000000               0.000000000               0.000000000               0.000000000              -0.003347656               0.001288973              -0.000000000              -0.001416490               0.000901815              -0.000514675               0.000000000               0.000000000               0.000000000               0.000000000              -0.002442905               0.002088838              -0.000000000              -0.001177191               0.001088669              -0.000088522               0.000000000               0.000000000               0.000000000               0.000000000              -0.001711038               0.002764365               0.000000000              -0.000987183               0.001250507               0.000263324               0.000000000               0.000000000               0.000000000               0.000000000              -0.001064532               0.003330747               0.000000000              -0.000815541               0.001382085               0.000566544               0.000000000               0.000000000               0.000000000               0.000000000              -0.000465506               0.003795211               0.000000000              -0.000648965               0.001481379               0.000832415               0.000000000               0.000000000               0.000000000               0.000000000               0.000103292               0.004169561               0.000000000              -0.000482459               0.001550659               0.001068200               0.000000000               0.000000000               0.000000000               0.000000000               0.000674136               0.004478658              -0.000000000              -0.000307031               0.001595215               0.001288184               0.000000000               0.000000000               0.000000000               0.000000000               0.001276737               0.004732963              -0.000000000              -0.000112844               0.001615253               0.001502409               0.000000000               0.000000000               0.000000000               0.000000000               0.001925039               0.004919327              -0.000000000               0.000106973               0.001604102               0.001711074               0.000000000               0.000000000               0.000000000               0.000000000               0.002621782               0.005039140               0.000000000               0.000353272               0.001561939               0.001915211               0.000000000               0.000000000               0.000000000               0.000000000               0.003380103               0.005090481              -0.000000000               0.000631222               0.001486403               0.002117625               0.000000000               0.000000000               0.000000000               0.000000000               0.004242301               0.005064432              -0.000000000               0.000957799               0.001368861               0.002326660               0.000000000               0.000000000               0.000000000               0.000000000               0.004913322               0.005105729              -0.000000000               0.001204268               0.001300470               0.002504737               0.000000000               0.000000000               0.000000000               0.000000000               0.000000000               0.000000000               0.000000000               0.000000000               0.000000000               0.000000000               0.000000000               0.000000000               0.000000000               0.000000000               0.000000000               0.000000000               0.000000000               0.000000000               0.000000000               0.000000000               0.000000000               0.000000000               0.000000000               0.000000000               0.000000000               0.000000000               0.000000000               0.000000000               0.000000000               0.000000000               0.000000000               0.000000000               0.000000000               0.000000000               0.000000000               0.000000000               0.000000000               0.000000000               0.000000000               0.000000000               0.000000000               0.000000000               0.000000000               0.000000000               0.000000000               0.000000000               0.000000000               0.000000000               0.000000000               0.000000000               0.000000000               0.000000000               0.000000000               0.000000000               0.000000000               0.000000000               0.000000000               0.000000000               0.000000000               0.000000000               0.000000000               0.000000000               0.000000000               0.000000000               0.000000000               0.000000000               0.000000000               0.000000000               0.000000000               0.000000000               0.000000000               0.000000000               0.000000000               0.000000000               0.000000000               0.000000000               0.000000000               0.000000000               0.000000000               0.000000000               0.000000000               0.000000000               0.000000000               0.000000000               0.000000000               0.000000000               0.000000000               0.000000000               0.000000000               0.000000000               0.000000000               0.000000000               0.000000000               0.000000000               0.000000000               0.000000000               0.000000000               0.000000000               0.000000000               0.000000000               0.000000000               0.000000000               0.000000000               0.000000000               0.000000000               0.000000000               0.000000000               0.000000000               0.000000000               0.000000000               0.000000000               0.000000000               0.000000000               0.000000000               0.000000000               0.000000000               0.000000000               0.000000000               0.000000000               0.000000000               0.000000000               0.000000000               0.000000000               0.000000000               0.000000000               0.000000000               0.000000000               0.000000000               0.000000000               0.000000000               0.000000000               0.000000000               0.000000000               0.000000000               0.000000000               0.000000000               0.000000000               0.000000000               0.000000000               0.000000000               0.000000000               0.000000000               0.000000000               0.000000000               0.000000000               0.000000000               0.000000000               0.000000000               0.000000000               0.000000000               0.000000000               0.000000000               0.000000000               0.000000000               0.000000000               0.000000000               0.000000000               0.000000000               0.000000000               0.000000000               0.000000000               0.000000000               0.000000000               0.000000000               0.000000000               0.000000000               0.000000000               0.000000000               0.000000000               0.000000000               0.000000000               0.000000000               0.000000000               0.000000000               0.002244056               0.022613492               0.001508726              -0.001985161               0.008199476               0.006214315               0.000000000               0.000000000               0.000000000               0.000000000               0.002014660               0.017333839               0.000645663              -0.001411229               0.006248298               0.004837069               0.000000000               0.000000000               0.000000000               0.000000000               0.002472536               0.013099837              -0.000199676              -0.000710277               0.004603327               0.003893051               0.000000000               0.000000000               0.000000000               0.000000000               0.002213327               0.010701961              -0.000538852              -0.000507746               0.003736533               0.003228787               0.000000000               0.000000000               0.000000000               0.000000000               0.001779043               0.009164800              -0.000660439              -0.000478458               0.003214389               0.002735931               0.000000000               0.000000000               0.000000000               0.000000000               0.001349776               0.008063034              -0.000686046              -0.000501712               0.002854889               0.002353176               0.000000000               0.000000000               0.000000000               0.000000000               0.000977111               0.007197825              -0.000672335              -0.000533311               0.002577021               0.002043711               0.000000000               0.000000000               0.000000000               0.000000000               0.000670039               0.006464179              -0.000643087              -0.000556757               0.002340290               0.001783534               0.000000000               0.000000000               0.000000000               0.000000000               0.000425616               0.005800634              -0.000606312              -0.000565472               0.002122016               0.001556544               0.000000000               0.000000000               0.000000000               0.000000000               0.000232457               0.005176445              -0.000571378              -0.000559883               0.001912092               0.001352209               0.000000000               0.000000000               0.000000000               0.000000000               0.000084343               0.004571001              -0.000537485              -0.000539745               0.001703567               0.001163821               0.000000000               0.000000000               0.000000000               0.000000000              -0.000023549               0.003963015              -0.000496522              -0.000504206               0.001489060               0.000984854               0.000000000               0.000000000               0.000000000               0.000000000              -0.000094991               0.003331680              -0.000444760              -0.000452081               0.001261242               0.000809162               0.000000000               0.000000000               0.000000000               0.000000000              -0.000128306               0.002662040              -0.000373930              -0.000380869               0.001014294               0.000633425               0.000000000               0.000000000               0.000000000               0.000000000              -0.000119750               0.001936329              -0.000280404              -0.000286947               0.000741085               0.000454139               0.000000000               0.000000000               0.000000000               0.000000000              -0.000069483               0.001142107              -0.000157629              -0.000168819               0.000436971               0.000268152               0.000000000               0.000000000               0.000000000               0.000000000              -0.000097553               0.000551698              -0.000099055              -0.000105544               0.000219079               0.000113534               0.000000000               0.000000000               0.000000000               0.000000000               0.002365147               0.021150231               0.002768662              -0.001756846               0.007635621               0.005878776               0.000000000               0.000000000               0.000000000               0.000000000               0.001776962               0.016429699               0.001174367              -0.001387349               0.005938961               0.004551612               0.000000000               0.000000000               0.000000000               0.000000000               0.001853405               0.012766931              -0.000369584              -0.000900837               0.004555880               0.003655043               0.000000000               0.000000000               0.000000000               0.000000000               0.001466549               0.010655460              -0.000961789              -0.000781975               0.003812443               0.003030468               0.000000000               0.000000000               0.000000000               0.000000000               0.001023019               0.009260533              -0.001160569              -0.000773933               0.003344791               0.002570858               0.000000000               0.000000000               0.000000000               0.000000000               0.000638802               0.008224442              -0.001195701              -0.000788503               0.003004287               0.002215784               0.000000000               0.000000000               0.000000000               0.000000000               0.000340028               0.007389017              -0.001166333              -0.000796115               0.002728353               0.001932237               0.000000000               0.000000000               0.000000000               0.000000000               0.000115825               0.006669329              -0.001108188              -0.000790230               0.002486497               0.001696267               0.000000000               0.000000000               0.000000000               0.000000000              -0.000051458               0.006012522              -0.001041324              -0.000770860               0.002261107               0.001490247               0.000000000               0.000000000               0.000000000               0.000000000              -0.000163639               0.005397113              -0.000979797              -0.000736002               0.002044353               0.001308351               0.000000000               0.000000000               0.000000000               0.000000000              -0.000224817               0.004801799              -0.000919095              -0.000684530               0.001828760               0.001144230               0.000000000               0.000000000               0.000000000               0.000000000              -0.000250467               0.004210282              -0.000846540              -0.000620209               0.001610149               0.000989940               0.000000000               0.000000000               0.000000000               0.000000000              -0.000245449               0.003616884              -0.000755554              -0.000544153               0.001387000               0.000842847               0.000000000               0.000000000               0.000000000               0.000000000              -0.000215038               0.003018011              -0.000632688              -0.000457890               0.001158623               0.000700734               0.000000000               0.000000000               0.000000000               0.000000000              -0.000162944               0.002411886              -0.000469429              -0.000362589               0.000924817               0.000562228               0.000000000               0.000000000               0.000000000               0.000000000              -0.000088075               0.001805100              -0.000260851              -0.000258665               0.000687916               0.000429250               0.000000000               0.000000000               0.000000000               0.000000000              -0.000088459               0.001388568              -0.000158603              -0.000206743               0.000531765               0.000325023               0.000000000               0.000000000               0.000000000               0.000000000               0.002429700               0.018942253               0.003612728              -0.001456643               0.006799568               0.005342926               0.000000000               0.000000000               0.000000000               0.000000000               0.001352468               0.015085443               0.001526590              -0.001378502               0.005487931               0.004109429               0.000000000               0.000000000               0.000000000               0.000000000               0.000907622               0.012270933              -0.000462903              -0.001193506               0.004488105               0.003294600               0.000000000               0.000000000               0.000000000               0.000000000               0.000379581               0.010561555              -0.001178460              -0.001177849               0.003913099               0.002735251               0.000000000               0.000000000               0.000000000               0.000000000              -0.000034075               0.009355971              -0.001397913              -0.001182272               0.003512716               0.002330444               0.000000000               0.000000000               0.000000000               0.000000000              -0.000320179               0.008409054              -0.001421051              -0.001171197               0.003193389               0.002022192               0.000000000               0.000000000               0.000000000               0.000000000              -0.000501844               0.007614294              -0.001373461              -0.001139976               0.002918064               0.001778089               0.000000000               0.000000000               0.000000000               0.000000000              -0.000601914               0.006913554              -0.001297122              -0.001089910               0.002667798               0.001577888               0.000000000               0.000000000               0.000000000               0.000000000              -0.000641725               0.006269866              -0.001213470              -0.001024378               0.002431394               0.001407016               0.000000000               0.000000000               0.000000000               0.000000000              -0.000629280               0.005664059              -0.001136816              -0.000943986               0.002202662               0.001258677               0.000000000               0.000000000               0.000000000               0.000000000              -0.000576085               0.005083788              -0.001056290              -0.000851504               0.001978413               0.001126910               0.000000000               0.000000000               0.000000000               0.000000000              -0.000497411               0.004523485              -0.000960838              -0.000751963               0.001758467               0.001006504               0.000000000               0.000000000               0.000000000               0.000000000              -0.000400501               0.003986995              -0.000844278              -0.000648561               0.001545172               0.000896611               0.000000000               0.000000000               0.000000000               0.000000000              -0.000293950               0.003485094              -0.000694024              -0.000545867               0.001343642               0.000797775               0.000000000               0.000000000               0.000000000               0.000000000              -0.000187579               0.003038661              -0.000502719              -0.000450174               0.001162935               0.000712761               0.000000000               0.000000000               0.000000000               0.000000000              -0.000092106               0.002665556              -0.000272087              -0.000367734               0.001011088               0.000643354               0.000000000               0.000000000               0.000000000               0.000000000              -0.000064746               0.002457047              -0.000155341              -0.000331410               0.000929477               0.000598067               0.000000000               0.000000000               0.000000000               0.000000000               0.002300810               0.016257072               0.003970101              -0.001169330               0.005808746               0.004639416               0.000000000               0.000000000               0.000000000               0.000000000               0.000727038               0.013477295               0.001692076              -0.001412020               0.004963060               0.003551040               0.000000000               0.000000000               0.000000000               0.000000000              -0.000243088               0.011663861              -0.000443116              -0.001549137               0.004404294               0.002855157               0.000000000               0.000000000               0.000000000               0.000000000              -0.000842816               0.010384145              -0.001151585              -0.001614071               0.003999371               0.002385300               0.000000000               0.000000000               0.000000000               0.000000000              -0.001166875               0.009370300              -0.001344704              -0.001608862               0.003659689               0.002050827               0.000000000               0.000000000               0.000000000               0.000000000              -0.001306783               0.008519395              -0.001347289              -0.001554964               0.003358091               0.001803127               0.000000000               0.000000000               0.000000000               0.000000000              -0.001327895               0.007775340              -0.001288532              -0.001469875               0.003081712               0.001611837               0.000000000               0.000000000               0.000000000               0.000000000              -0.001270394               0.007094952              -0.001207562              -0.001363264               0.002819382               0.001456118               0.000000000               0.000000000               0.000000000               0.000000000              -0.001160223               0.006464207              -0.001120540              -0.001243107               0.002569083               0.001325976               0.000000000               0.000000000               0.000000000               0.000000000              -0.001014523               0.005874719              -0.001035277              -0.001114784               0.002329814               0.001215031               0.000000000               0.000000000               0.000000000               0.000000000              -0.000846036               0.005321083              -0.000944151              -0.000982397               0.002101142               0.001118745               0.000000000               0.000000000               0.000000000               0.000000000              -0.000664558               0.004809960              -0.000835994              -0.000850452               0.001886788               0.001036336               0.000000000               0.000000000               0.000000000               0.000000000              -0.000482935               0.004347749              -0.000708227              -0.000724568               0.001690758               0.000966190               0.000000000               0.000000000               0.000000000               0.000000000              -0.000314705               0.003957396              -0.000560955              -0.000612688               0.001523348               0.000910660               0.000000000               0.000000000               0.000000000               0.000000000              -0.000179320               0.003664321              -0.000387241              -0.000525284               0.001396522               0.000871239               0.000000000               0.000000000               0.000000000               0.000000000              -0.000079099               0.003488273              -0.000195573              -0.000465695               0.001317978               0.000852283               0.000000000               0.000000000               0.000000000               0.000000000              -0.000034400               0.003433117              -0.000098112              -0.000442038               0.001291707               0.000849669               0.000000000               0.000000000               0.000000000               0.000000000               0.001861924               0.013386539               0.003852719              -0.000975096               0.004787166               0.003812070               0.000000000               0.000000000               0.000000000               0.000000000              -0.000082646               0.011788337               0.001697487              -0.001504532               0.004430917               0.002926385               0.000000000               0.000000000               0.000000000               0.000000000              -0.001463012               0.010992057              -0.000289743              -0.001922632               0.004304860               0.002382228               0.000000000               0.000000000               0.000000000               0.000000000              -0.002020358               0.010105260              -0.000893685              -0.002020787               0.004041982               0.002021195               0.000000000               0.000000000               0.000000000               0.000000000              -0.002171925               0.009263800              -0.001043531              -0.001972442               0.003745383               0.001772941               0.000000000               0.000000000               0.000000000               0.000000000              -0.002117458               0.008502673              -0.001037704              -0.001856876               0.003453155               0.001596278               0.000000000               0.000000000               0.000000000               0.000000000              -0.001959167               0.007803761              -0.000981081              -0.001710154               0.003171279               0.001461125               0.000000000               0.000000000               0.000000000               0.000000000              -0.001742771               0.007146578              -0.000907325              -0.001546858               0.002897788               0.001350930               0.000000000               0.000000000               0.000000000               0.000000000              -0.001491394               0.006540841              -0.000828418              -0.001376875               0.002639216               0.001262342               0.000000000               0.000000000               0.000000000               0.000000000              -0.001223928               0.005983095              -0.000746290              -0.001206857               0.002396631               0.001189774               0.000000000               0.000000000               0.000000000               0.000000000              -0.000952898               0.005474881              -0.000659793              -0.001041694               0.002172173               0.001130479               0.000000000               0.000000000               0.000000000               0.000000000              -0.000693345               0.005026716              -0.000559184              -0.000888342               0.001971669               0.001083327               0.000000000               0.000000000               0.000000000               0.000000000              -0.000464921               0.004652871              -0.000445164              -0.000755952               0.001802925               0.001046973               0.000000000               0.000000000               0.000000000               0.000000000              -0.000276258               0.004369702              -0.000330859              -0.000649808               0.001673155               0.001023347               0.000000000               0.000000000               0.000000000               0.000000000              -0.000140457               0.004194225              -0.000214305              -0.000576948               0.001590377               0.001013429               0.000000000               0.000000000               0.000000000               0.000000000              -0.000054910               0.004123984              -0.000098876              -0.000536088               0.001553344               0.001017256               0.000000000               0.000000000               0.000000000               0.000000000              -0.000018004               0.004122334              -0.000041828              -0.000522042               0.001548112               0.001026070               0.000000000               0.000000000               0.000000000               0.000000000               0.001046046               0.010578481               0.003349774              -0.000930043               0.003836139               0.002906095               0.000000000               0.000000000               0.000000000               0.000000000              -0.001037259               0.010157010               0.001603109              -0.001658595               0.003938501               0.002279905               0.000000000               0.000000000               0.000000000               0.000000000              -0.002615341               0.010282392               0.000001212              -0.002266046               0.004182779               0.001916732               0.000000000               0.000000000               0.000000000               0.000000000              -0.002999675               0.009722202              -0.000456909              -0.002340147               0.004020751               0.001680603               0.000000000               0.000000000               0.000000000               0.000000000              -0.002919578               0.009023472              -0.000578287              -0.002222770               0.003748717               0.001525947               0.000000000               0.000000000               0.000000000               0.000000000              -0.002651860               0.008334215              -0.000587514              -0.002036219               0.003456783               0.001420564               0.000000000               0.000000000               0.000000000               0.000000000              -0.002314615               0.007677069              -0.000550737              -0.001827610               0.003168201               0.001340591               0.000000000               0.000000000               0.000000000               0.000000000              -0.001952374               0.007059312              -0.000498232              -0.001614550               0.002891264               0.001276713               0.000000000               0.000000000               0.000000000               0.000000000              -0.001580292               0.006496684              -0.000442054              -0.001404692               0.002633770               0.001229079               0.000000000               0.000000000               0.000000000               0.000000000              -0.001215881               0.005986107              -0.000381407              -0.001204216               0.002396754               0.001192539               0.000000000               0.000000000               0.000000000               0.000000000              -0.000877290               0.005534929              -0.000318326              -0.001020847               0.002185240               0.001164393               0.000000000               0.000000000               0.000000000               0.000000000              -0.000581213               0.005157944              -0.000250532              -0.000862696               0.002006863               0.001144167               0.000000000               0.000000000               0.000000000               0.000000000              -0.000349461               0.004867861              -0.000177590              -0.000739529               0.001869114               0.001129585               0.000000000               0.000000000               0.000000000               0.000000000              -0.000186793               0.004673832              -0.000118343              -0.000654275               0.001776020               0.001121745               0.000000000               0.000000000               0.000000000               0.000000000              -0.000084434               0.004570047              -0.000071676              -0.000602917               0.001724306               0.001121389               0.000000000               0.000000000               0.000000000               0.000000000              -0.000028492               0.004531251              -0.000027694              -0.000577089               0.001702765               0.001125676               0.000000000               0.000000000               0.000000000               0.000000000              -0.000011080               0.004526290              -0.000009035              -0.000569940               0.001698728               0.001128788               0.000000000               0.000000000               0.000000000               0.000000000              -0.000097314               0.008005003               0.002581635              -0.001037117               0.003014013               0.001976895               0.000000000               0.000000000               0.000000000               0.000000000              -0.002074157               0.008670476               0.001465749              -0.001861615               0.003510668               0.001649053               0.000000000               0.000000000               0.000000000               0.000000000              -0.003587745               0.009538624               0.000412134              -0.002537726               0.004025418               0.001487692               0.000000000               0.000000000               0.000000000               0.000000000              -0.003689996               0.009232957               0.000081729              -0.002537862               0.003923576               0.001385714               0.000000000               0.000000000               0.000000000               0.000000000              -0.003354914               0.008659008              -0.000044631              -0.002340463               0.003666461               0.001325998               0.000000000               0.000000000               0.000000000               0.000000000              -0.002891043               0.008039660              -0.000092777              -0.002089093               0.003376224               0.001287131               0.000000000               0.000000000               0.000000000               0.000000000              -0.002398175               0.007435286              -0.000097199              -0.001828722               0.003087978               0.001259256               0.000000000               0.000000000               0.000000000               0.000000000              -0.001911159               0.006874770              -0.000081785              -0.001576027               0.002816910               0.001240883               0.000000000               0.000000000               0.000000000               0.000000000              -0.001445004               0.006363650              -0.000061744              -0.001337329               0.002566972               0.001229643               0.000000000               0.000000000               0.000000000               0.000000000              -0.001020725               0.005905504              -0.000036660              -0.001120957               0.002342134               0.001221177               0.000000000               0.000000000               0.000000000               0.000000000              -0.000655778               0.005515713              -0.000015767              -0.000935378               0.002150345               0.001214967               0.000000000               0.000000000               0.000000000               0.000000000              -0.000371145               0.005207385               0.000000790              -0.000790101               0.001999145               0.001209044               0.000000000               0.000000000               0.000000000               0.000000000              -0.000182927               0.004989083               0.000011822              -0.000692231               0.001893755               0.001201523               0.000000000               0.000000000               0.000000000               0.000000000              -0.000072762               0.004862906               0.000006494              -0.000635147               0.001832668               0.001197521               0.000000000               0.000000000               0.000000000               0.000000000              -0.000018571               0.004800433              -0.000005041              -0.000607017               0.001802467               0.001195451               0.000000000               0.000000000               0.000000000               0.000000000              -0.000000242               0.004780441              -0.000006529              -0.000597645               0.001792679               0.001195035               0.000000000               0.000000000               0.000000000               0.000000000              -0.000000236               0.004781797              -0.000005457              -0.000597812               0.001793187               0.001195375               0.000000000               0.000000000               0.000000000               0.000000000              -0.001434575               0.005846612               0.001672058              -0.001268790               0.002371781               0.001102991               0.000000000               0.000000000               0.000000000               0.000000000              -0.003085344               0.007340182               0.001323312              -0.002074522               0.003138210               0.001063688               0.000000000               0.000000000               0.000000000               0.000000000              -0.004348174               0.008781845               0.000898536              -0.002728289               0.003836682               0.001108393               0.000000000               0.000000000               0.000000000               0.000000000              -0.004160401               0.008737915               0.000644834              -0.002652383               0.003796737               0.001144354               0.000000000               0.000000000               0.000000000               0.000000000              -0.003614890               0.008315348               0.000486968              -0.002394996               0.003570087               0.001175091               0.000000000               0.000000000               0.000000000               0.000000000              -0.002995240               0.007793243               0.000384772              -0.002097365               0.003296843               0.001199478               0.000000000               0.000000000               0.000000000               0.000000000              -0.002388690               0.007261792               0.000323691              -0.001803478               0.003021733               0.001218254               0.000000000               0.000000000               0.000000000               0.000000000              -0.001810109               0.006761751               0.000292365              -0.001524006               0.002761896               0.001237890               0.000000000               0.000000000               0.000000000               0.000000000              -0.001273412               0.006298036               0.000271254              -0.001264781               0.002520918               0.001256137               0.000000000               0.000000000               0.000000000               0.000000000              -0.000802309               0.005884184               0.000248554              -0.001036386               0.002306837               0.001270451               0.000000000               0.000000000               0.000000000               0.000000000              -0.000425578               0.005537668               0.000216334              -0.000851798               0.002129804               0.001278005               0.000000000               0.000000000               0.000000000               0.000000000              -0.000158050               0.005273114               0.000176527              -0.000718406               0.001997156               0.001278750               0.000000000               0.000000000               0.000000000               0.000000000              -0.000002298               0.005097425               0.000127650              -0.000638038               0.001911804               0.001273766               0.000000000               0.000000000               0.000000000               0.000000000               0.000061808               0.004999047               0.000070222              -0.000601701               0.001866899               0.001265198               0.000000000               0.000000000               0.000000000               0.000000000               0.000066161               0.004947829               0.000017629              -0.000593667               0.001847149               0.001253482               0.000000000               0.000000000               0.000000000               0.000000000               0.000041666               0.004931034              -0.000011661              -0.000600753               0.001843912               0.001243159               0.000000000               0.000000000               0.000000000               0.000000000               0.000024447               0.004932770              -0.000018648              -0.000607427               0.001846716               0.001239289               0.000000000               0.000000000               0.000000000               0.000000000              -0.002967571               0.003863122               0.000731450              -0.001595726               0.001819603               0.000223877               0.000000000               0.000000000               0.000000000               0.000000000              -0.003942419               0.005804368               0.001169902              -0.002203948               0.002669419               0.000465471               0.000000000               0.000000000               0.000000000               0.000000000              -0.004820103               0.007653293               0.001403100              -0.002764193               0.003472470               0.000708276               0.000000000               0.000000000               0.000000000               0.000000000              -0.004475236               0.008001654               0.001234933              -0.002678414               0.003559996               0.000881582               0.000000000               0.000000000               0.000000000               0.000000000              -0.003843447               0.007856679               0.001044777              -0.002423371               0.003426657               0.001003286               0.000000000               0.000000000               0.000000000               0.000000000              -0.003163778               0.007544317               0.000884254              -0.002129451               0.003224564               0.001095113               0.000000000               0.000000000               0.000000000               0.000000000              -0.002515873               0.007176085               0.000760279              -0.001840459               0.003005491               0.001165032               0.000000000               0.000000000               0.000000000               0.000000000              -0.001908060               0.006793536               0.000676454              -0.001564711               0.002786060               0.001221349               0.000000000               0.000000000               0.000000000               0.000000000              -0.001343753               0.006417402               0.000608206              -0.001306080               0.002574473               0.001268393               0.000000000               0.000000000               0.000000000               0.000000000              -0.000845518               0.006058740               0.000534218              -0.001074409               0.002377696               0.001303287               0.000000000               0.000000000               0.000000000               0.000000000              -0.000436547               0.005732517               0.000451992              -0.000880267               0.002204242               0.001323975               0.000000000               0.000000000               0.000000000               0.000000000              -0.000132084               0.005454128               0.000364019              -0.000731296               0.002061790               0.001330494               0.000000000               0.000000000               0.000000000               0.000000000               0.000064270               0.005241065               0.000268196              -0.000631030               0.001957348               0.001326317               0.000000000               0.000000000               0.000000000               0.000000000               0.000161718               0.005101644               0.000167539              -0.000577060               0.001892884               0.001315824               0.000000000               0.000000000               0.000000000               0.000000000               0.000179078               0.005024514               0.000076819              -0.000560908               0.001861791               0.001300882               0.000000000               0.000000000               0.000000000               0.000000000               0.000146168               0.004994044               0.000017729              -0.000569441               0.001854478               0.001285037               0.000000000               0.000000000               0.000000000               0.000000000               0.000109107               0.004978872              -0.000005783              -0.000581443               0.001853422               0.001271979               0.000000000               0.000000000               0.000000000               0.000000000              -0.004883059               0.002096445              -0.000165105              -0.002093199               0.001396539              -0.000696661               0.000000000               0.000000000               0.000000000               0.000000000              -0.004910520               0.004262641               0.000956721              -0.002374270               0.002212289              -0.000161981               0.000000000               0.000000000               0.000000000               0.000000000              -0.005221731               0.006315934               0.001807260              -0.002747634               0.003021168               0.000273533               0.000000000               0.000000000               0.000000000               0.000000000              -0.004736785               0.007036571               0.001797261              -0.002655860               0.003230786               0.000574927               0.000000000               0.000000000               0.000000000               0.000000000              -0.004053916               0.007208164               0.001608184              -0.002421233               0.003209775               0.000788541               0.000000000               0.000000000               0.000000000               0.000000000              -0.003350138               0.007138249               0.001403667              -0.002148578               0.003095585               0.000947007               0.000000000               0.000000000               0.000000000               0.000000000              -0.002679241               0.006960288               0.001228334              -0.001874747               0.002944988               0.001070241               0.000000000               0.000000000               0.000000000               0.000000000              -0.002057501               0.006730243               0.001093484              -0.001612840               0.002781005               0.001168165               0.000000000               0.000000000               0.000000000               0.000000000              -0.001477173               0.006475008               0.000976709              -0.001363313               0.002612752               0.001249439               0.000000000               0.000000000               0.000000000               0.000000000              -0.000946337               0.006203575               0.000858826              -0.001130321               0.002444611               0.001314290               0.000000000               0.000000000               0.000000000               0.000000000              -0.000482061               0.005922390               0.000739949              -0.000921070               0.002281134               0.001360064               0.000000000               0.000000000               0.000000000               0.000000000              -0.000102661               0.005649834               0.000616343              -0.000744725               0.002131501               0.001386776               0.000000000               0.000000000               0.000000000               0.000000000               0.000176195               0.005404822               0.000484752              -0.000609528               0.002004765               0.001395237               0.000000000               0.000000000               0.000000000               0.000000000               0.000352709               0.005209984               0.000345353              -0.000518981               0.001909638               0.001390657               0.000000000               0.000000000               0.000000000               0.000000000               0.000430653               0.005084684               0.000204078              -0.000474089               0.001852908               0.001378818               0.000000000               0.000000000               0.000000000               0.000000000               0.000412221               0.005020411               0.000084286              -0.000472967               0.001831109               0.001358142               0.000000000               0.000000000               0.000000000               0.000000000               0.000353799               0.004984175               0.000024359              -0.000490346               0.001824824               0.001334478               0.000000000               0.000000000               0.000000000               0.000000000              -0.007047009               0.000694859              -0.000924868              -0.002729483               0.001141439              -0.001588043               0.000000000               0.000000000               0.000000000               0.000000000              -0.006025618               0.002823284               0.000678276              -0.002612513               0.001811920              -0.000800593               0.000000000               0.000000000               0.000000000               0.000000000              -0.005571007               0.004799822               0.002007079              -0.002689100               0.002496290              -0.000192810               0.000000000               0.000000000               0.000000000               0.000000000              -0.004864751               0.005772906               0.002194680              -0.002545889               0.002772912               0.000227023               0.000000000               0.000000000               0.000000000               0.000000000              -0.004115549               0.006230879               0.002061398              -0.002322186               0.002851000               0.000528815               0.000000000               0.000000000               0.000000000               0.000000000              -0.003391840               0.006414479               0.001852346              -0.002073745               0.002829386               0.000755641               0.000000000               0.000000000               0.000000000               0.000000000              -0.002710198               0.006452783               0.001649821              -0.001822918               0.002758545               0.000935627               0.000000000               0.000000000               0.000000000               0.000000000              -0.002084479               0.006405481               0.001479726              -0.001582361               0.002662592               0.001080231               0.000000000               0.000000000               0.000000000               0.000000000              -0.001499810               0.006301366               0.001329901              -0.001350097               0.002550466               0.001200370               0.000000000               0.000000000               0.000000000               0.000000000              -0.000947805               0.006153033               0.001183632              -0.001124554               0.002425841               0.001301288               0.000000000               0.000000000               0.000000000               0.000000000              -0.000442036               0.005961016               0.001038396              -0.000910889               0.002290615               0.001379726               0.000000000               0.000000000               0.000000000               0.000000000               0.000001122               0.005742650               0.000888181              -0.000717409               0.002153334               0.001435925               0.000000000               0.000000000               0.000000000               0.000000000               0.000367356               0.005520864               0.000728422              -0.000552348               0.002024386               0.001472037               0.000000000               0.000000000               0.000000000               0.000000000               0.000642414               0.005316856               0.000558723              -0.000423701               0.001913501               0.001489800               0.000000000               0.000000000               0.000000000               0.000000000               0.000815968               0.005154789               0.000371826              -0.000338360               0.001831032               0.001492673               0.000000000               0.000000000               0.000000000               0.000000000               0.000874928               0.005054367               0.000181439              -0.000303697               0.001786004               0.001482307               0.000000000               0.000000000               0.000000000               0.000000000               0.000845086               0.005003711               0.000080962              -0.000308556               0.001770739               0.001462183               0.000000000               0.000000000               0.000000000               0.000000000              -0.009317102              -0.000285599              -0.001432049              -0.003458211               0.001057530              -0.002400681               0.000000000               0.000000000               0.000000000               0.000000000              -0.007219087               0.001561710               0.000385704              -0.002902368               0.001488016              -0.001414352               0.000000000               0.000000000               0.000000000               0.000000000              -0.005884605               0.003233275               0.001975081              -0.002610882               0.001948038              -0.000662843               0.000000000               0.000000000               0.000000000               0.000000000              -0.004878056               0.004319913               0.002334736              -0.002369255               0.002229707              -0.000139548               0.000000000               0.000000000               0.000000000               0.000000000              -0.004028578               0.005002353               0.002288790              -0.002136006               0.002379436               0.000243429               0.000000000               0.000000000               0.000000000               0.000000000              -0.003277898               0.005420051               0.002115239              -0.001906714               0.002442236               0.000535522               0.000000000               0.000000000               0.000000000               0.000000000              -0.002596669               0.005671227               0.001917008              -0.001682651               0.002451273               0.000768622               0.000000000               0.000000000               0.000000000               0.000000000              -0.001969739               0.005814250               0.001737164              -0.001465430               0.002426540               0.000961110               0.000000000               0.000000000               0.000000000               0.000000000              -0.001381061               0.005877430               0.001577483              -0.001252574               0.002376648               0.001124074               0.000000000               0.000000000               0.000000000               0.000000000              -0.000816878               0.005872383               0.001421641              -0.001040375               0.002304233               0.001263858               0.000000000               0.000000000               0.000000000               0.000000000              -0.000284825               0.005805560               0.001264455              -0.000832503               0.002212668               0.001380165               0.000000000               0.000000000               0.000000000               0.000000000               0.000211615               0.005691638               0.001104567              -0.000632098               0.002107893               0.001475795               0.000000000               0.000000000               0.000000000               0.000000000               0.000663183               0.005543217               0.000936012              -0.000444208               0.001995790               0.001551582               0.000000000               0.000000000               0.000000000               0.000000000               0.001054149               0.005376422               0.000749255              -0.000276746               0.001884372               0.001607625               0.000000000               0.000000000               0.000000000               0.000000000               0.001365881               0.005218357               0.000531989              -0.000140089               0.001786131               0.001646042               0.000000000               0.000000000               0.000000000               0.000000000               0.001575155               0.005094835               0.000279533              -0.000046172               0.001713652               0.001667480               0.000000000               0.000000000               0.000000000               0.000000000               0.001650832               0.005042173               0.000145516              -0.000011210               0.001684444               0.001673234               0.000000000               0.000000000               0.000000000               0.000000000              -0.011487692              -0.000883358              -0.001587638              -0.004197462               0.001104693              -0.003092769               0.000000000               0.000000000               0.000000000               0.000000000              -0.008389509               0.000544393               0.000142968              -0.003214112               0.001252826              -0.001961286               0.000000000               0.000000000               0.000000000               0.000000000              -0.006165674               0.001778261               0.001711948              -0.002534407               0.001437546              -0.001096861               0.000000000               0.000000000               0.000000000               0.000000000              -0.004811461               0.002854533               0.002158062              -0.002161111               0.001671869              -0.000489242               0.000000000               0.000000000               0.000000000               0.000000000              -0.003832055               0.003673895               0.002191703              -0.001896254               0.001856703              -0.000039551               0.000000000               0.000000000               0.000000000               0.000000000              -0.003042424               0.004274230               0.002072776              -0.001675184               0.001983123               0.000307939               0.000000000               0.000000000               0.000000000               0.000000000              -0.002354331               0.004705452               0.001911052              -0.001471053               0.002058819               0.000587766               0.000000000               0.000000000               0.000000000               0.000000000              -0.001727573               0.005015004               0.001753863              -0.001274713               0.002096555               0.000821842               0.000000000               0.000000000               0.000000000               0.000000000              -0.001138538               0.005235268               0.001610106              -0.001081358               0.002105524               0.001024166               0.000000000               0.000000000               0.000000000               0.000000000              -0.000568584               0.005381290               0.001464993              -0.000885879               0.002089038               0.001203159               0.000000000               0.000000000               0.000000000               0.000000000              -0.000010568               0.005459388               0.001317178              -0.000686385               0.002048573               0.001362187               0.000000000               0.000000000               0.000000000               0.000000000               0.000535239               0.005473267               0.001167827              -0.000483443               0.001985552               0.001502108               0.000000000               0.000000000               0.000000000               0.000000000               0.001062957               0.005425765               0.001010043              -0.000279612               0.001901774               0.001622162               0.000000000               0.000000000               0.000000000               0.000000000               0.001566528               0.005333070               0.000832652              -0.000079186               0.001804067               0.001724881               0.000000000               0.000000000               0.000000000               0.000000000               0.002038906               0.005224032               0.000613888               0.000111584               0.001704132               0.001815716               0.000000000               0.000000000               0.000000000               0.000000000               0.002455578               0.005111710               0.000335445               0.000281875               0.001609928               0.001891803               0.000000000               0.000000000               0.000000000               0.000000000               0.002704788               0.005079309               0.000192901               0.000379378               0.001566627               0.001946005               0.000000000               0.000000000               0.000000000               0.000000000              -0.013302098              -0.001175107              -0.001351603              -0.004841395               0.001222087              -0.003619308               0.000000000               0.000000000               0.000000000               0.000000000              -0.009396404              -0.000181735              -0.000000018              -0.003500932               0.001106391              -0.002394541               0.000000000               0.000000000               0.000000000               0.000000000              -0.006405980               0.000594309               0.001257083              -0.002476529               0.001023605              -0.001452923               0.000000000               0.000000000               0.000000000               0.000000000              -0.004716780               0.001580641               0.001661189              -0.001966370               0.001182328              -0.000784042               0.000000000               0.000000000               0.000000000               0.000000000              -0.003599977               0.002461583               0.001728857              -0.001657686               0.001373080              -0.000284606               0.000000000               0.000000000               0.000000000               0.000000000              -0.002755814               0.003179929               0.001663932              -0.001430919               0.001536938               0.000106019               0.000000000               0.000000000               0.000000000               0.000000000              -0.002050089               0.003744340               0.001555524              -0.001236823               0.001660375               0.000423551               0.000000000               0.000000000               0.000000000               0.000000000              -0.001420590               0.004186775               0.001443449              -0.001056066               0.001747599               0.000691533               0.000000000               0.000000000               0.000000000               0.000000000              -0.000834929               0.004536657               0.001338093              -0.000880179               0.001805597               0.000925418               0.000000000               0.000000000               0.000000000               0.000000000              -0.000263229               0.004808873               0.001231606              -0.000699819               0.001836214               0.001136395               0.000000000               0.000000000               0.000000000               0.000000000               0.000312492               0.005005494               0.001120751              -0.000508502               0.001837982               0.001329480               0.000000000               0.000000000               0.000000000               0.000000000               0.000893595               0.005135877               0.001003842              -0.000306886               0.001814237               0.001507351               0.000000000               0.000000000               0.000000000               0.000000000               0.001482321               0.005206914               0.000878359              -0.000094994               0.001767285               0.001672291               0.000000000               0.000000000               0.000000000               0.000000000               0.002083157               0.005216604               0.000738983               0.000129107               0.001695815               0.001824922               0.000000000               0.000000000               0.000000000               0.000000000               0.002702701               0.005176748               0.000560416               0.000366416               0.001603427               0.001969843               0.000000000               0.000000000               0.000000000               0.000000000               0.003334526               0.005100749               0.000313986               0.000612847               0.001495950               0.002108798               0.000000000               0.000000000               0.000000000               0.000000000               0.003775822               0.005102013               0.000189460               0.000778174               0.001441263               0.002219437               0.000000000               0.000000000               0.000000000               0.000000000              -0.014510406              -0.001278599              -0.000772554              -0.005281574               0.001334316              -0.003947258               0.000000000               0.000000000               0.000000000               0.000000000              -0.010078718              -0.000607237              -0.000033919              -0.003703612               0.001032118              -0.002671494               0.000000000               0.000000000               0.000000000               0.000000000              -0.006569538              -0.000179168               0.000665365              -0.002441179               0.000753998              -0.001687181               0.000000000               0.000000000               0.000000000               0.000000000              -0.004641185               0.000704156               0.000905717              -0.001828462               0.000844200              -0.000984262               0.000000000               0.000000000               0.000000000               0.000000000              -0.003417302               0.001602250               0.000955768              -0.001481767               0.001027998              -0.000453769               0.000000000               0.000000000               0.000000000               0.000000000              -0.002526329               0.002383759               0.000928919              -0.001245340               0.001209691              -0.000035649               0.000000000               0.000000000               0.000000000               0.000000000              -0.001802026               0.003031663               0.000874163              -0.001054715               0.001362116               0.000307400               0.000000000               0.000000000               0.000000000               0.000000000              -0.001163151               0.003563177               0.000815380              -0.000881577               0.001481573               0.000599996               0.000000000               0.000000000               0.000000000               0.000000000              -0.000572449               0.003994531               0.000762333              -0.000713983               0.001569491               0.000855508               0.000000000               0.000000000               0.000000000               0.000000000              -0.000000468               0.004347070               0.000710298              -0.000543558               0.001630195               0.001086637               0.000000000               0.000000000               0.000000000               0.000000000               0.000575870               0.004627934               0.000651967              -0.000362540               0.001663476               0.001300936               0.000000000               0.000000000               0.000000000               0.000000000               0.001172657               0.004844346               0.000586729              -0.000165797               0.001670031               0.001504235               0.000000000               0.000000000               0.000000000               0.000000000               0.001802038               0.005000206               0.000517859               0.000050738               0.001649806               0.001700544               0.000000000               0.000000000               0.000000000               0.000000000               0.002472544               0.005092625               0.000444909               0.000290623               0.001600651               0.001891273               0.000000000               0.000000000               0.000000000               0.000000000               0.003196559               0.005119693               0.000345035               0.000558742               0.001520300               0.002079042               0.000000000               0.000000000               0.000000000               0.000000000               0.003995401               0.005081042               0.000194526               0.000863137               0.001405951               0.002269088               0.000000000               0.000000000               0.000000000               0.000000000               0.004599058               0.005111246               0.000118365               0.001085730               0.001341821               0.002427552               0.000000000               0.000000000               0.000000000               0.000000000              -0.014935434              -0.001303446               0.000000000              -0.005437853               0.001378127              -0.004059727               0.000000000               0.000000000               0.000000000               0.000000000              -0.010319500              -0.000749524               0.000000000              -0.003776119               0.001008859              -0.002767261               0.000000000               0.000000000               0.000000000               0.000000000              -0.006625718              -0.000446042               0.000000000              -0.002428888               0.000660944              -0.001767943               0.000000000               0.000000000               0.000000000               0.000000000              -0.004611256               0.000393423               0.000000000              -0.001778397               0.000723935              -0.001054462               0.000000000               0.000000000               0.000000000               0.000000000              -0.003347656               0.001288973              -0.000000000              -0.001416490               0.000901815              -0.000514675               0.000000000               0.000000000               0.000000000               0.000000000              -0.002442905               0.002088838              -0.000000000              -0.001177191               0.001088669              -0.000088522               0.000000000               0.000000000               0.000000000               0.000000000              -0.001711038               0.002764365              -0.000000000              -0.000987183               0.001250507               0.000263324               0.000000000               0.000000000               0.000000000               0.000000000              -0.001064532               0.003330747              -0.000000000              -0.000815541               0.001382085               0.000566544               0.000000000               0.000000000               0.000000000               0.000000000              -0.000465506               0.003795211              -0.000000000              -0.000648965               0.001481379               0.000832415               0.000000000               0.000000000               0.000000000               0.000000000               0.000103292               0.004169561               0.000000000              -0.000482459               0.001550659               0.001068200               0.000000000               0.000000000               0.000000000               0.000000000               0.000674136               0.004478658              -0.000000000              -0.000307031               0.001595215               0.001288184               0.000000000               0.000000000               0.000000000               0.000000000               0.001276737               0.004732963              -0.000000000              -0.000112844               0.001615253               0.001502409               0.000000000               0.000000000               0.000000000               0.000000000               0.001925039               0.004919327              -0.000000000               0.000106973               0.001604102               0.001711074               0.000000000               0.000000000               0.000000000               0.000000000               0.002621782               0.005039140               0.000000000               0.000353272               0.001561939               0.001915211               0.000000000               0.000000000               0.000000000               0.000000000               0.003380103               0.005090481               0.000000000               0.000631222               0.001486403               0.002117625               0.000000000               0.000000000               0.000000000               0.000000000               0.004242301               0.005064432               0.000000000               0.000957799               0.001368861               0.002326660               0.000000000               0.000000000               0.000000000               0.000000000               0.004913322               0.005105729               0.000000000               0.001204268               0.001300470               0.002504737               0.000000000               0.000000000               0.000000000               0.000000000               0.002188358               0.023127992              -0.000000000              -0.002070360               0.008399373               0.006329014               0.000000000               0.000000000               0.000000000               0.000000000               0.002089962               0.017654793              -0.000000000              -0.001423110               0.006359242               0.004936132               0.000000000               0.000000000               0.000000000               0.000000000               0.002685917               0.013219727              -0.000000000              -0.000645246               0.004621614               0.003976368               0.000000000               0.000000000               0.000000000               0.000000000               0.002478819               0.010719315               0.000000000              -0.000410356               0.003709855               0.003299498               0.000000000               0.000000000               0.000000000               0.000000000               0.002055225               0.009128911               0.000000000              -0.000370403               0.003166408               0.002796004               0.000000000               0.000000000               0.000000000               0.000000000               0.001613356               0.008003151              -0.000000000              -0.000395384               0.002799485               0.002404101               0.000000000               0.000000000               0.000000000               0.000000000               0.001215971               0.007124985              -0.000000000              -0.000434633               0.002519849               0.002085216               0.000000000               0.000000000               0.000000000               0.000000000               0.000880934               0.006386804               0.000000000              -0.000467999               0.002284913               0.001816914               0.000000000               0.000000000               0.000000000               0.000000000               0.000608832               0.005723702              -0.000000000              -0.000487150               0.002070265               0.001583115               0.000000000               0.000000000               0.000000000               0.000000000               0.000387741               0.005094796              -0.000000000              -0.000491446               0.001862064               0.001370618               0.000000000               0.000000000               0.000000000               0.000000000               0.000211162               0.004485818               0.000000000              -0.000481540               0.001655771               0.001174231               0.000000000               0.000000000               0.000000000               0.000000000               0.000070847               0.003870432               0.000000000              -0.000457235               0.001442543               0.000985307               0.000000000               0.000000000               0.000000000               0.000000000              -0.000030920               0.003225876               0.000000000              -0.000414828               0.001213557               0.000798729               0.000000000               0.000000000               0.000000000               0.000000000              -0.000089576               0.002528590               0.000000000              -0.000349664               0.000959410               0.000609746               0.000000000               0.000000000               0.000000000               0.000000000              -0.000102917               0.001755809              -0.000000000              -0.000258069               0.000671287               0.000413218               0.000000000               0.000000000               0.000000000               0.000000000              -0.000065855               0.000891148               0.000000000              -0.000136089               0.000342409               0.000206320               0.000000000               0.000000000               0.000000000               0.000000000              -0.000104029               0.000236112               0.000000000              -0.000068525               0.000101545               0.000033020               0.000000000               0.000000000               0.000000000               0.000000000               0.002244056               0.022613492              -0.001508726              -0.001985161               0.008199476               0.006214315               0.000000000               0.000000000               0.000000000               0.000000000               0.002014660               0.017333839              -0.000645663              -0.001411229               0.006248298               0.004837069               0.000000000               0.000000000               0.000000000               0.000000000               0.002472536               0.013099837               0.000199676              -0.000710277               0.004603327               0.003893051               0.000000000               0.000000000               0.000000000               0.000000000               0.002213327               0.010701961               0.000538852              -0.000507746               0.003736533               0.003228787               0.000000000               0.000000000               0.000000000               0.000000000               0.001779043               0.009164800               0.000660439              -0.000478458               0.003214389               0.002735931               0.000000000               0.000000000               0.000000000               0.000000000               0.001349776               0.008063034               0.000686046              -0.000501712               0.002854889               0.002353176               0.000000000               0.000000000               0.000000000               0.000000000               0.000977111               0.007197825               0.000672335              -0.000533311               0.002577021               0.002043711               0.000000000               0.000000000               0.000000000               0.000000000               0.000670039               0.006464179               0.000643087              -0.000556757               0.002340290               0.001783534               0.000000000               0.000000000               0.000000000               0.000000000               0.000425616               0.005800634               0.000606312              -0.000565472               0.002122016               0.001556544               0.000000000               0.000000000               0.000000000               0.000000000               0.000232457               0.005176445               0.000571378              -0.000559883               0.001912092               0.001352209               0.000000000               0.000000000               0.000000000               0.000000000               0.000084343               0.004571001               0.000537485              -0.000539745               0.001703567               0.001163821               0.000000000               0.000000000               0.000000000               0.000000000              -0.000023549               0.003963015               0.000496522              -0.000504206               0.001489060               0.000984854               0.000000000               0.000000000               0.000000000               0.000000000              -0.000094991               0.003331680               0.000444760              -0.000452081               0.001261242               0.000809162               0.000000000               0.000000000               0.000000000               0.000000000              -0.000128306               0.002662040               0.000373930              -0.000380869               0.001014294               0.000633425               0.000000000               0.000000000               0.000000000               0.000000000              -0.000119750               0.001936329               0.000280404              -0.000286947               0.000741085               0.000454139               0.000000000               0.000000000               0.000000000               0.000000000              -0.000069483               0.001142107               0.000157629              -0.000168819               0.000436971               0.000268152               0.000000000               0.000000000               0.000000000               0.000000000              -0.000097553               0.000551698               0.000099055              -0.000105544               0.000219079               0.000113534               0.000000000               0.000000000               0.000000000               0.000000000               0.002365147               0.021150231              -0.002768662              -0.001756846               0.007635621               0.005878776               0.000000000               0.000000000               0.000000000               0.000000000               0.001776962               0.016429699              -0.001174367              -0.001387349               0.005938961               0.004551612               0.000000000               0.000000000               0.000000000               0.000000000               0.001853405               0.012766931               0.000369584              -0.000900837               0.004555880               0.003655043               0.000000000               0.000000000               0.000000000               0.000000000               0.001466549               0.010655460               0.000961789              -0.000781975               0.003812443               0.003030468               0.000000000               0.000000000               0.000000000               0.000000000               0.001023019               0.009260533               0.001160569              -0.000773933               0.003344791               0.002570858               0.000000000               0.000000000               0.000000000               0.000000000               0.000638802               0.008224442               0.001195701              -0.000788503               0.003004287               0.002215784               0.000000000               0.000000000               0.000000000               0.000000000               0.000340028               0.007389017               0.001166333              -0.000796115               0.002728353               0.001932237               0.000000000               0.000000000               0.000000000               0.000000000               0.000115825               0.006669329               0.001108188              -0.000790230               0.002486497               0.001696267               0.000000000               0.000000000               0.000000000               0.000000000              -0.000051458               0.006012522               0.001041324              -0.000770860               0.002261107               0.001490247               0.000000000               0.000000000               0.000000000               0.000000000              -0.000163639               0.005397113               0.000979797              -0.000736002               0.002044353               0.001308351               0.000000000               0.000000000               0.000000000               0.000000000              -0.000224817               0.004801799               0.000919095              -0.000684530               0.001828760               0.001144230               0.000000000               0.000000000               0.000000000               0.000000000              -0.000250467               0.004210282               0.000846540              -0.000620209               0.001610149               0.000989940               0.000000000               0.000000000               0.000000000               0.000000000              -0.000245449               0.003616884               0.000755554              -0.000544153               0.001387000               0.000842847               0.000000000               0.000000000               0.000000000               0.000000000              -0.000215038               0.003018011               0.000632688              -0.000457890               0.001158623               0.000700734               0.000000000               0.000000000               0.000000000               0.000000000              -0.000162944               0.002411886               0.000469429              -0.000362589               0.000924817               0.000562228               0.000000000               0.000000000               0.000000000               0.000000000              -0.000088075               0.001805100               0.000260851              -0.000258665               0.000687916               0.000429250               0.000000000               0.000000000               0.000000000               0.000000000              -0.000088459               0.001388568               0.000158603              -0.000206743               0.000531765               0.000325023               0.000000000               0.000000000               0.000000000               0.000000000               0.002429700               0.018942253              -0.003612728              -0.001456643               0.006799568               0.005342926               0.000000000               0.000000000               0.000000000               0.000000000               0.001352468               0.015085443              -0.001526590              -0.001378502               0.005487931               0.004109429               0.000000000               0.000000000               0.000000000               0.000000000               0.000907622               0.012270933               0.000462903              -0.001193506               0.004488105               0.003294600               0.000000000               0.000000000               0.000000000               0.000000000               0.000379581               0.010561555               0.001178460              -0.001177849               0.003913099               0.002735251               0.000000000               0.000000000               0.000000000               0.000000000              -0.000034075               0.009355971               0.001397913              -0.001182272               0.003512716               0.002330444               0.000000000               0.000000000               0.000000000               0.000000000              -0.000320179               0.008409054               0.001421051              -0.001171197               0.003193389               0.002022192               0.000000000               0.000000000               0.000000000               0.000000000              -0.000501844               0.007614294               0.001373461              -0.001139976               0.002918064               0.001778089               0.000000000               0.000000000               0.000000000               0.000000000              -0.000601914               0.006913554               0.001297122              -0.001089910               0.002667798               0.001577888               0.000000000               0.000000000               0.000000000               0.000000000              -0.000641725               0.006269866               0.001213470              -0.001024378               0.002431394               0.001407016               0.000000000               0.000000000               0.000000000               0.000000000              -0.000629280               0.005664059               0.001136816              -0.000943986               0.002202662               0.001258677               0.000000000               0.000000000               0.000000000               0.000000000              -0.000576085               0.005083788               0.001056290              -0.000851504               0.001978413               0.001126910               0.000000000               0.000000000               0.000000000               0.000000000              -0.000497411               0.004523485               0.000960838              -0.000751963               0.001758467               0.001006504               0.000000000               0.000000000               0.000000000               0.000000000              -0.000400501               0.003986995               0.000844278              -0.000648561               0.001545172               0.000896611               0.000000000               0.000000000               0.000000000               0.000000000              -0.000293950               0.003485094               0.000694024              -0.000545867               0.001343642               0.000797775               0.000000000               0.000000000               0.000000000               0.000000000              -0.000187579               0.003038661               0.000502719              -0.000450174               0.001162935               0.000712761               0.000000000               0.000000000               0.000000000               0.000000000              -0.000092106               0.002665556               0.000272087              -0.000367734               0.001011088               0.000643354               0.000000000               0.000000000               0.000000000               0.000000000              -0.000064746               0.002457047               0.000155341              -0.000331410               0.000929477               0.000598067               0.000000000               0.000000000               0.000000000               0.000000000               0.002300810               0.016257072              -0.003970101              -0.001169330               0.005808746               0.004639416               0.000000000               0.000000000               0.000000000               0.000000000               0.000727038               0.013477295              -0.001692076              -0.001412020               0.004963060               0.003551040               0.000000000               0.000000000               0.000000000               0.000000000              -0.000243088               0.011663861               0.000443116              -0.001549137               0.004404294               0.002855157               0.000000000               0.000000000               0.000000000               0.000000000              -0.000842816               0.010384145               0.001151585              -0.001614071               0.003999371               0.002385300               0.000000000               0.000000000               0.000000000               0.000000000              -0.001166875               0.009370300               0.001344704              -0.001608862               0.003659689               0.002050827               0.000000000               0.000000000               0.000000000               0.000000000              -0.001306783               0.008519395               0.001347289              -0.001554964               0.003358091               0.001803127               0.000000000               0.000000000               0.000000000               0.000000000              -0.001327895               0.007775340               0.001288532              -0.001469875               0.003081712               0.001611837               0.000000000               0.000000000               0.000000000               0.000000000              -0.001270394               0.007094952               0.001207562              -0.001363264               0.002819382               0.001456118               0.000000000               0.000000000               0.000000000               0.000000000              -0.001160223               0.006464207               0.001120540              -0.001243107               0.002569083               0.001325976               0.000000000               0.000000000               0.000000000               0.000000000              -0.001014523               0.005874719               0.001035277              -0.001114784               0.002329814               0.001215031               0.000000000               0.000000000               0.000000000               0.000000000              -0.000846036               0.005321083               0.000944151              -0.000982397               0.002101142               0.001118745               0.000000000               0.000000000               0.000000000               0.000000000              -0.000664558               0.004809960               0.000835994              -0.000850452               0.001886788               0.001036336               0.000000000               0.000000000               0.000000000               0.000000000              -0.000482935               0.004347749               0.000708227              -0.000724568               0.001690758               0.000966190               0.000000000               0.000000000               0.000000000               0.000000000              -0.000314705               0.003957396               0.000560955              -0.000612688               0.001523348               0.000910660               0.000000000               0.000000000               0.000000000               0.000000000              -0.000179320               0.003664321               0.000387241              -0.000525284               0.001396522               0.000871239               0.000000000               0.000000000               0.000000000               0.000000000              -0.000079099               0.003488273               0.000195573              -0.000465695               0.001317978               0.000852283               0.000000000               0.000000000               0.000000000               0.000000000              -0.000034400               0.003433117               0.000098112              -0.000442038               0.001291707               0.000849669               0.000000000               0.000000000               0.000000000               0.000000000               0.001861924               0.013386539              -0.003852719              -0.000975096               0.004787166               0.003812070               0.000000000               0.000000000               0.000000000               0.000000000              -0.000082646               0.011788337              -0.001697487              -0.001504532               0.004430917               0.002926385               0.000000000               0.000000000               0.000000000               0.000000000              -0.001463012               0.010992057               0.000289743              -0.001922632               0.004304860               0.002382228               0.000000000               0.000000000               0.000000000               0.000000000              -0.002020358               0.010105260               0.000893685              -0.002020787               0.004041982               0.002021195               0.000000000               0.000000000               0.000000000               0.000000000              -0.002171925               0.009263800               0.001043531              -0.001972442               0.003745383               0.001772941               0.000000000               0.000000000               0.000000000               0.000000000              -0.002117458               0.008502673               0.001037704              -0.001856876               0.003453155               0.001596278               0.000000000               0.000000000               0.000000000               0.000000000              -0.001959167               0.007803761               0.000981081              -0.001710154               0.003171279               0.001461125               0.000000000               0.000000000               0.000000000               0.000000000              -0.001742771               0.007146578               0.000907325              -0.001546858               0.002897788               0.001350930               0.000000000               0.000000000               0.000000000               0.000000000              -0.001491394               0.006540841               0.000828418              -0.001376875               0.002639216               0.001262342               0.000000000               0.000000000               0.000000000               0.000000000              -0.001223928               0.005983095               0.000746290              -0.001206857               0.002396631               0.001189774               0.000000000               0.000000000               0.000000000               0.000000000              -0.000952898               0.005474881               0.000659793              -0.001041694               0.002172173               0.001130479               0.000000000               0.000000000               0.000000000               0.000000000              -0.000693345               0.005026716               0.000559184              -0.000888342               0.001971669               0.001083327               0.000000000               0.000000000               0.000000000               0.000000000              -0.000464921               0.004652871               0.000445164              -0.000755952               0.001802925               0.001046973               0.000000000               0.000000000               0.000000000               0.000000000              -0.000276258               0.004369702               0.000330859              -0.000649808               0.001673155               0.001023347               0.000000000               0.000000000               0.000000000               0.000000000              -0.000140457               0.004194225               0.000214305              -0.000576948               0.001590377               0.001013429               0.000000000               0.000000000               0.000000000               0.000000000              -0.000054910               0.004123984               0.000098876              -0.000536088               0.001553344               0.001017256               0.000000000               0.000000000               0.000000000               0.000000000              -0.000018004               0.004122334               0.000041828              -0.000522042               0.001548112               0.001026070               0.000000000               0.000000000               0.000000000               0.000000000               0.001046046               0.010578481              -0.003349774              -0.000930043               0.003836139               0.002906095               0.000000000               0.000000000               0.000000000               0.000000000              -0.001037259               0.010157010              -0.001603109              -0.001658595               0.003938501               0.002279905               0.000000000               0.000000000               0.000000000               0.000000000              -0.002615341               0.010282392              -0.000001212              -0.002266046               0.004182779               0.001916732               0.000000000               0.000000000               0.000000000               0.000000000              -0.002999675               0.009722202               0.000456909              -0.002340147               0.004020751               0.001680603               0.000000000               0.000000000               0.000000000               0.000000000              -0.002919578               0.009023472               0.000578287              -0.002222770               0.003748717               0.001525947               0.000000000               0.000000000               0.000000000               0.000000000              -0.002651860               0.008334215               0.000587514              -0.002036219               0.003456783               0.001420564               0.000000000               0.000000000               0.000000000               0.000000000              -0.002314615               0.007677069               0.000550737              -0.001827610               0.003168201               0.001340591               0.000000000               0.000000000               0.000000000               0.000000000              -0.001952374               0.007059312               0.000498232              -0.001614550               0.002891264               0.001276713               0.000000000               0.000000000               0.000000000               0.000000000              -0.001580292               0.006496684               0.000442054              -0.001404692               0.002633770               0.001229079               0.000000000               0.000000000               0.000000000               0.000000000              -0.001215881               0.005986107               0.000381407              -0.001204216               0.002396754               0.001192539               0.000000000               0.000000000               0.000000000               0.000000000              -0.000877290               0.005534929               0.000318326              -0.001020847               0.002185240               0.001164393               0.000000000               0.000000000               0.000000000               0.000000000              -0.000581213               0.005157944               0.000250532              -0.000862696               0.002006863               0.001144167               0.000000000               0.000000000               0.000000000               0.000000000              -0.000349461               0.004867861               0.000177590              -0.000739529               0.001869114               0.001129585               0.000000000               0.000000000               0.000000000               0.000000000              -0.000186793               0.004673832               0.000118343              -0.000654275               0.001776020               0.001121745               0.000000000               0.000000000               0.000000000               0.000000000              -0.000084434               0.004570047               0.000071676              -0.000602917               0.001724306               0.001121389               0.000000000               0.000000000               0.000000000               0.000000000              -0.000028492               0.004531251               0.000027694              -0.000577089               0.001702765               0.001125676               0.000000000               0.000000000               0.000000000               0.000000000              -0.000011080               0.004526290               0.000009035              -0.000569940               0.001698728               0.001128788               0.000000000               0.000000000               0.000000000               0.000000000              -0.000097314               0.008005003              -0.002581635              -0.001037117               0.003014013               0.001976895               0.000000000               0.000000000               0.000000000               0.000000000              -0.002074157               0.008670476              -0.001465749              -0.001861615               0.003510668               0.001649053               0.000000000               0.000000000               0.000000000               0.000000000              -0.003587745               0.009538624              -0.000412134              -0.002537726               0.004025418               0.001487692               0.000000000               0.000000000               0.000000000               0.000000000              -0.003689996               0.009232957              -0.000081729              -0.002537862               0.003923576               0.001385714               0.000000000               0.000000000               0.000000000               0.000000000              -0.003354914               0.008659008               0.000044631              -0.002340463               0.003666461               0.001325998               0.000000000               0.000000000               0.000000000               0.000000000              -0.002891043               0.008039660               0.000092777              -0.002089093               0.003376224               0.001287131               0.000000000               0.000000000               0.000000000               0.000000000              -0.002398175               0.007435286               0.000097199              -0.001828722               0.003087978               0.001259256               0.000000000               0.000000000               0.000000000               0.000000000              -0.001911159               0.006874770               0.000081785              -0.001576027               0.002816910               0.001240883               0.000000000               0.000000000               0.000000000               0.000000000              -0.001445004               0.006363650               0.000061744              -0.001337329               0.002566972               0.001229643               0.000000000               0.000000000               0.000000000               0.000000000              -0.001020725               0.005905504               0.000036660              -0.001120957               0.002342134               0.001221177               0.000000000               0.000000000               0.000000000               0.000000000              -0.000655778               0.005515713               0.000015767              -0.000935378               0.002150345               0.001214967               0.000000000               0.000000000               0.000000000               0.000000000              -0.000371145               0.005207385              -0.000000790              -0.000790101               0.001999145               0.001209044               0.000000000               0.000000000               0.000000000               0.000000000              -0.000182927               0.004989083              -0.000011822              -0.000692231               0.001893755               0.001201523               0.000000000               0.000000000               0.000000000               0.000000000              -0.000072762               0.004862906              -0.000006494              -0.000635147               0.001832668               0.001197521               0.000000000               0.000000000               0.000000000               0.000000000              -0.000018571               0.004800433               0.000005041              -0.000607017               0.001802467               0.001195451               0.000000000               0.000000000               0.000000000               0.000000000              -0.000000242               0.004780441               0.000006529              -0.000597645               0.001792679               0.001195035               0.000000000               0.000000000               0.000000000               0.000000000              -0.000000236               0.004781797               0.000005457              -0.000597812               0.001793187               0.001195375               0.000000000               0.000000000               0.000000000               0.000000000              -0.001434575               0.005846612              -0.001672058              -0.001268790               0.002371781               0.001102991               0.000000000               0.000000000               0.000000000               0.000000000              -0.003085344               0.007340182              -0.001323312              -0.002074522               0.003138210               0.001063688               0.000000000               0.000000000               0.000000000               0.000000000              -0.004348174               0.008781845              -0.000898536              -0.002728289               0.003836682               0.001108393               0.000000000               0.000000000               0.000000000               0.000000000              -0.004160401               0.008737915              -0.000644834              -0.002652383               0.003796737               0.001144354               0.000000000               0.000000000               0.000000000               0.000000000              -0.003614890               0.008315348              -0.000486968              -0.002394996               0.003570087               0.001175091               0.000000000               0.000000000               0.000000000               0.000000000              -0.002995240               0.007793243              -0.000384772              -0.002097365               0.003296843               0.001199478               0.000000000               0.000000000               0.000000000               0.000000000              -0.002388690               0.007261792              -0.000323691              -0.001803478               0.003021733               0.001218254               0.000000000               0.000000000               0.000000000               0.000000000              -0.001810109               0.006761751              -0.000292365              -0.001524006               0.002761896               0.001237890               0.000000000               0.000000000               0.000000000               0.000000000              -0.001273412               0.006298036              -0.000271254              -0.001264781               0.002520918               0.001256137               0.000000000               0.000000000               0.000000000               0.000000000              -0.000802309               0.005884184              -0.000248554              -0.001036386               0.002306837               0.001270451               0.000000000               0.000000000               0.000000000               0.000000000              -0.000425578               0.005537668              -0.000216334              -0.000851798               0.002129804               0.001278005               0.000000000               0.000000000               0.000000000               0.000000000              -0.000158050               0.005273114              -0.000176527              -0.000718406               0.001997156               0.001278750               0.000000000               0.000000000               0.000000000               0.000000000              -0.000002298               0.005097425              -0.000127650              -0.000638038               0.001911804               0.001273766               0.000000000               0.000000000               0.000000000               0.000000000               0.000061808               0.004999047              -0.000070222              -0.000601701               0.001866899               0.001265198               0.000000000               0.000000000               0.000000000               0.000000000               0.000066161               0.004947829              -0.000017629              -0.000593667               0.001847149               0.001253482               0.000000000               0.000000000               0.000000000               0.000000000               0.000041666               0.004931034               0.000011661              -0.000600753               0.001843912               0.001243159               0.000000000               0.000000000               0.000000000               0.000000000               0.000024447               0.004932770               0.000018648              -0.000607427               0.001846716               0.001239289               0.000000000               0.000000000               0.000000000               0.000000000              -0.002967571               0.003863122              -0.000731450              -0.001595726               0.001819603               0.000223877               0.000000000               0.000000000               0.000000000               0.000000000              -0.003942419               0.005804368              -0.001169902              -0.002203948               0.002669419               0.000465471               0.000000000               0.000000000               0.000000000               0.000000000              -0.004820103               0.007653293              -0.001403100              -0.002764193               0.003472470               0.000708276               0.000000000               0.000000000               0.000000000               0.000000000              -0.004475236               0.008001654              -0.001234933              -0.002678414               0.003559996               0.000881582               0.000000000               0.000000000               0.000000000               0.000000000              -0.003843447               0.007856679              -0.001044777              -0.002423371               0.003426657               0.001003286               0.000000000               0.000000000               0.000000000               0.000000000              -0.003163778               0.007544317              -0.000884254              -0.002129451               0.003224564               0.001095113               0.000000000               0.000000000               0.000000000               0.000000000              -0.002515873               0.007176085              -0.000760279              -0.001840459               0.003005491               0.001165032               0.000000000               0.000000000               0.000000000               0.000000000              -0.001908060               0.006793536              -0.000676454              -0.001564711               0.002786060               0.001221349               0.000000000               0.000000000               0.000000000               0.000000000              -0.001343753               0.006417402              -0.000608206              -0.001306080               0.002574473               0.001268393               0.000000000               0.000000000               0.000000000               0.000000000              -0.000845518               0.006058740              -0.000534218              -0.001074409               0.002377696               0.001303287               0.000000000               0.000000000               0.000000000               0.000000000              -0.000436547               0.005732517              -0.000451992              -0.000880267               0.002204242               0.001323975               0.000000000               0.000000000               0.000000000               0.000000000              -0.000132084               0.005454128              -0.000364019              -0.000731296               0.002061790               0.001330494               0.000000000               0.000000000               0.000000000               0.000000000               0.000064270               0.005241065              -0.000268196              -0.000631030               0.001957348               0.001326317               0.000000000               0.000000000               0.000000000               0.000000000               0.000161718               0.005101644              -0.000167539              -0.000577060               0.001892884               0.001315824               0.000000000               0.000000000               0.000000000               0.000000000               0.000179078               0.005024514              -0.000076819              -0.000560908               0.001861791               0.001300882               0.000000000               0.000000000               0.000000000               0.000000000               0.000146168               0.004994044              -0.000017729              -0.000569441               0.001854478               0.001285037               0.000000000               0.000000000               0.000000000               0.000000000               0.000109107               0.004978872               0.000005783              -0.000581443               0.001853422               0.001271979               0.000000000               0.000000000               0.000000000               0.000000000              -0.004883059               0.002096445               0.000165105              -0.002093199               0.001396539              -0.000696661               0.000000000               0.000000000               0.000000000               0.000000000              -0.004910520               0.004262641              -0.000956721              -0.002374270               0.002212289              -0.000161981               0.000000000               0.000000000               0.000000000               0.000000000              -0.005221731               0.006315934              -0.001807260              -0.002747634               0.003021168               0.000273533               0.000000000               0.000000000               0.000000000               0.000000000              -0.004736785               0.007036571              -0.001797261              -0.002655860               0.003230786               0.000574927               0.000000000               0.000000000               0.000000000               0.000000000              -0.004053916               0.007208164              -0.001608184              -0.002421233               0.003209775               0.000788541               0.000000000               0.000000000               0.000000000               0.000000000              -0.003350138               0.007138249              -0.001403667              -0.002148578               0.003095585               0.000947007               0.000000000               0.000000000               0.000000000               0.000000000              -0.002679241               0.006960288              -0.001228334              -0.001874747               0.002944988               0.001070241               0.000000000               0.000000000               0.000000000               0.000000000              -0.002057501               0.006730243              -0.001093484              -0.001612840               0.002781005               0.001168165               0.000000000               0.000000000               0.000000000               0.000000000              -0.001477173               0.006475008              -0.000976709              -0.001363313               0.002612752               0.001249439               0.000000000               0.000000000               0.000000000               0.000000000              -0.000946337               0.006203575              -0.000858826              -0.001130321               0.002444611               0.001314290               0.000000000               0.000000000               0.000000000               0.000000000              -0.000482061               0.005922390              -0.000739949              -0.000921070               0.002281134               0.001360064               0.000000000               0.000000000               0.000000000               0.000000000              -0.000102661               0.005649834              -0.000616343              -0.000744725               0.002131501               0.001386776               0.000000000               0.000000000               0.000000000               0.000000000               0.000176195               0.005404822              -0.000484752              -0.000609528               0.002004765               0.001395237               0.000000000               0.000000000               0.000000000               0.000000000               0.000352709               0.005209984              -0.000345353              -0.000518981               0.001909638               0.001390657               0.000000000               0.000000000               0.000000000               0.000000000               0.000430653               0.005084684              -0.000204078              -0.000474089               0.001852908               0.001378818               0.000000000               0.000000000               0.000000000               0.000000000               0.000412221               0.005020411              -0.000084286              -0.000472967               0.001831109               0.001358142               0.000000000               0.000000000               0.000000000               0.000000000               0.000353799               0.004984175              -0.000024359              -0.000490346               0.001824824               0.001334478               0.000000000               0.000000000               0.000000000               0.000000000              -0.007047009               0.000694859               0.000924868              -0.002729483               0.001141439              -0.001588043               0.000000000               0.000000000               0.000000000               0.000000000              -0.006025618               0.002823284              -0.000678276              -0.002612513               0.001811920              -0.000800593               0.000000000               0.000000000               0.000000000               0.000000000              -0.005571007               0.004799822              -0.002007079              -0.002689100               0.002496290              -0.000192810               0.000000000               0.000000000               0.000000000               0.000000000              -0.004864751               0.005772906              -0.002194680              -0.002545889               0.002772912               0.000227023               0.000000000               0.000000000               0.000000000               0.000000000              -0.004115549               0.006230879              -0.002061398              -0.002322186               0.002851000               0.000528815               0.000000000               0.000000000               0.000000000               0.000000000              -0.003391840               0.006414479              -0.001852346              -0.002073745               0.002829386               0.000755641               0.000000000               0.000000000               0.000000000               0.000000000              -0.002710198               0.006452783              -0.001649821              -0.001822918               0.002758545               0.000935627               0.000000000               0.000000000               0.000000000               0.000000000              -0.002084479               0.006405481              -0.001479726              -0.001582361               0.002662592               0.001080231               0.000000000               0.000000000               0.000000000               0.000000000              -0.001499810               0.006301366              -0.001329901              -0.001350097               0.002550466               0.001200370               0.000000000               0.000000000               0.000000000               0.000000000              -0.000947805               0.006153033              -0.001183632              -0.001124554               0.002425841               0.001301288               0.000000000               0.000000000               0.000000000               0.000000000              -0.000442036               0.005961016              -0.001038396              -0.000910889               0.002290615               0.001379726               0.000000000               0.000000000               0.000000000               0.000000000               0.000001122               0.005742650              -0.000888181              -0.000717409               0.002153334               0.001435925               0.000000000               0.000000000               0.000000000               0.000000000               0.000367356               0.005520864              -0.000728422              -0.000552348               0.002024386               0.001472037               0.000000000               0.000000000               0.000000000               0.000000000               0.000642414               0.005316856              -0.000558723              -0.000423701               0.001913501               0.001489800               0.000000000               0.000000000               0.000000000               0.000000000               0.000815968               0.005154789              -0.000371826              -0.000338360               0.001831032               0.001492673               0.000000000               0.000000000               0.000000000               0.000000000               0.000874928               0.005054367              -0.000181439              -0.000303697               0.001786004               0.001482307               0.000000000               0.000000000               0.000000000               0.000000000               0.000845086               0.005003711              -0.000080962              -0.000308556               0.001770739               0.001462183               0.000000000               0.000000000               0.000000000               0.000000000              -0.009317102              -0.000285599               0.001432049              -0.003458211               0.001057530              -0.002400681               0.000000000               0.000000000               0.000000000               0.000000000              -0.007219087               0.001561710              -0.000385704              -0.002902368               0.001488016              -0.001414352               0.000000000               0.000000000               0.000000000               0.000000000              -0.005884605               0.003233275              -0.001975081              -0.002610882               0.001948038              -0.000662843               0.000000000               0.000000000               0.000000000               0.000000000              -0.004878056               0.004319913              -0.002334736              -0.002369255               0.002229707              -0.000139548               0.000000000               0.000000000               0.000000000               0.000000000              -0.004028578               0.005002353              -0.002288790              -0.002136006               0.002379436               0.000243429               0.000000000               0.000000000               0.000000000               0.000000000              -0.003277898               0.005420051              -0.002115239              -0.001906714               0.002442236               0.000535522               0.000000000               0.000000000               0.000000000               0.000000000              -0.002596669               0.005671227              -0.001917008              -0.001682651               0.002451273               0.000768622               0.000000000               0.000000000               0.000000000               0.000000000              -0.001969739               0.005814250              -0.001737164              -0.001465430               0.002426540               0.000961110               0.000000000               0.000000000               0.000000000               0.000000000              -0.001381061               0.005877430              -0.001577483              -0.001252574               0.002376648               0.001124074               0.000000000               0.000000000               0.000000000               0.000000000              -0.000816878               0.005872383              -0.001421641              -0.001040375               0.002304233               0.001263858               0.000000000               0.000000000               0.000000000               0.000000000              -0.000284825               0.005805560              -0.001264455              -0.000832503               0.002212668               0.001380165               0.000000000               0.000000000               0.000000000               0.000000000               0.000211615               0.005691638              -0.001104567              -0.000632098               0.002107893               0.001475795               0.000000000               0.000000000               0.000000000               0.000000000               0.000663183               0.005543217              -0.000936012              -0.000444208               0.001995790               0.001551582               0.000000000               0.000000000               0.000000000               0.000000000               0.001054149               0.005376422              -0.000749255              -0.000276746               0.001884372               0.001607625               0.000000000               0.000000000               0.000000000               0.000000000               0.001365881               0.005218357              -0.000531989              -0.000140089               0.001786131               0.001646042               0.000000000               0.000000000               0.000000000               0.000000000               0.001575155               0.005094835              -0.000279533              -0.000046172               0.001713652               0.001667480               0.000000000               0.000000000               0.000000000               0.000000000               0.001650832               0.005042173              -0.000145516              -0.000011210               0.001684444               0.001673234               0.000000000               0.000000000               0.000000000               0.000000000              -0.011487692              -0.000883358               0.001587638              -0.004197462               0.001104693              -0.003092769               0.000000000               0.000000000               0.000000000               0.000000000              -0.008389509               0.000544393              -0.000142968              -0.003214112               0.001252826              -0.001961286               0.000000000               0.000000000               0.000000000               0.000000000              -0.006165674               0.001778261              -0.001711948              -0.002534407               0.001437546              -0.001096861               0.000000000               0.000000000               0.000000000               0.000000000              -0.004811461               0.002854533              -0.002158062              -0.002161111               0.001671869              -0.000489242               0.000000000               0.000000000               0.000000000               0.000000000              -0.003832055               0.003673895              -0.002191703              -0.001896254               0.001856703              -0.000039551               0.000000000               0.000000000               0.000000000               0.000000000              -0.003042424               0.004274230              -0.002072776              -0.001675184               0.001983123               0.000307939               0.000000000               0.000000000               0.000000000               0.000000000              -0.002354331               0.004705452              -0.001911052              -0.001471053               0.002058819               0.000587766               0.000000000               0.000000000               0.000000000               0.000000000              -0.001727573               0.005015004              -0.001753863              -0.001274713               0.002096555               0.000821842               0.000000000               0.000000000               0.000000000               0.000000000              -0.001138538               0.005235268              -0.001610106              -0.001081358               0.002105524               0.001024166               0.000000000               0.000000000               0.000000000               0.000000000              -0.000568584               0.005381290              -0.001464993              -0.000885879               0.002089038               0.001203159               0.000000000               0.000000000               0.000000000               0.000000000              -0.000010568               0.005459388              -0.001317178              -0.000686385               0.002048573               0.001362187               0.000000000               0.000000000               0.000000000               0.000000000               0.000535239               0.005473267              -0.001167827              -0.000483443               0.001985552               0.001502108               0.000000000               0.000000000               0.000000000               0.000000000               0.001062957               0.005425765              -0.001010043              -0.000279612               0.001901774               0.001622162               0.000000000               0.000000000               0.000000000               0.000000000               0.001566528               0.005333070              -0.000832652              -0.000079186               0.001804067               0.001724881               0.000000000               0.000000000               0.000000000               0.000000000               0.002038906               0.005224032              -0.000613888               0.000111584               0.001704132               0.001815716               0.000000000               0.000000000               0.000000000               0.000000000               0.002455578               0.005111710              -0.000335445               0.000281875               0.001609928               0.001891803               0.000000000               0.000000000               0.000000000               0.000000000               0.002704788               0.005079309              -0.000192901               0.000379378               0.001566627               0.001946005               0.000000000               0.000000000               0.000000000               0.000000000              -0.013302098              -0.001175107               0.001351603              -0.004841395               0.001222087              -0.003619308               0.000000000               0.000000000               0.000000000               0.000000000              -0.009396404              -0.000181735               0.000000018              -0.003500932               0.001106391              -0.002394541               0.000000000               0.000000000               0.000000000               0.000000000              -0.006405980               0.000594309              -0.001257083              -0.002476529               0.001023605              -0.001452923               0.000000000               0.000000000               0.000000000               0.000000000              -0.004716780               0.001580641              -0.001661189              -0.001966370               0.001182328              -0.000784042               0.000000000               0.000000000               0.000000000               0.000000000              -0.003599977               0.002461583              -0.001728857              -0.001657686               0.001373080              -0.000284606               0.000000000               0.000000000               0.000000000               0.000000000              -0.002755814               0.003179929              -0.001663932              -0.001430919               0.001536938               0.000106019               0.000000000               0.000000000               0.000000000               0.000000000              -0.002050089               0.003744340              -0.001555524              -0.001236823               0.001660375               0.000423551               0.000000000               0.000000000               0.000000000               0.000000000              -0.001420590               0.004186775              -0.001443449              -0.001056066               0.001747599               0.000691533               0.000000000               0.000000000               0.000000000               0.000000000              -0.000834929               0.004536657              -0.001338093              -0.000880179               0.001805597               0.000925418               0.000000000               0.000000000               0.000000000               0.000000000              -0.000263229               0.004808873              -0.001231606              -0.000699819               0.001836214               0.001136395               0.000000000               0.000000000               0.000000000               0.000000000               0.000312492               0.005005494              -0.001120751              -0.000508502               0.001837982               0.001329480               0.000000000               0.000000000               0.000000000               0.000000000               0.000893595               0.005135877              -0.001003842              -0.000306886               0.001814237               0.001507351               0.000000000               0.000000000               0.000000000               0.000000000               0.001482321               0.005206914              -0.000878359              -0.000094994               0.001767285               0.001672291               0.000000000               0.000000000               0.000000000               0.000000000               0.002083157               0.005216604              -0.000738983               0.000129107               0.001695815               0.001824922               0.000000000               0.000000000               0.000000000               0.000000000               0.002702701               0.005176748              -0.000560416               0.000366416               0.001603427               0.001969843               0.000000000               0.000000000               0.000000000               0.000000000               0.003334526               0.005100749              -0.000313986               0.000612847               0.001495950               0.002108798               0.000000000               0.000000000               0.000000000               0.000000000               0.003775822               0.005102013              -0.000189460               0.000778174               0.001441263               0.002219437               0.000000000               0.000000000               0.000000000               0.000000000              -0.014510406              -0.001278599               0.000772554              -0.005281574               0.001334316              -0.003947258               0.000000000               0.000000000               0.000000000               0.000000000              -0.010078718              -0.000607237               0.000033919              -0.003703612               0.001032118              -0.002671494               0.000000000               0.000000000               0.000000000               0.000000000              -0.006569538              -0.000179168              -0.000665365              -0.002441179               0.000753998              -0.001687181               0.000000000               0.000000000               0.000000000               0.000000000              -0.004641185               0.000704156              -0.000905717              -0.001828462               0.000844200              -0.000984262               0.000000000               0.000000000               0.000000000               0.000000000              -0.003417302               0.001602250              -0.000955768              -0.001481767               0.001027998              -0.000453769               0.000000000               0.000000000               0.000000000               0.000000000              -0.002526329               0.002383759              -0.000928919              -0.001245340               0.001209691              -0.000035649               0.000000000               0.000000000               0.000000000               0.000000000              -0.001802026               0.003031663              -0.000874163              -0.001054715               0.001362116               0.000307400               0.000000000               0.000000000               0.000000000               0.000000000              -0.001163151               0.003563177              -0.000815380              -0.000881577               0.001481573               0.000599996               0.000000000               0.000000000               0.000000000               0.000000000              -0.000572449               0.003994531              -0.000762333              -0.000713983               0.001569491               0.000855508               0.000000000               0.000000000               0.000000000               0.000000000              -0.000000468               0.004347070              -0.000710298              -0.000543558               0.001630195               0.001086637               0.000000000               0.000000000               0.000000000               0.000000000               0.000575870               0.004627934              -0.000651967              -0.000362540               0.001663476               0.001300936               0.000000000               0.000000000               0.000000000               0.000000000               0.001172657               0.004844346              -0.000586729              -0.000165797               0.001670031               0.001504235               0.000000000               0.000000000               0.000000000               0.000000000               0.001802038               0.005000206              -0.000517859               0.000050738               0.001649806               0.001700544               0.000000000               0.000000000               0.000000000               0.000000000               0.002472544               0.005092625              -0.000444909               0.000290623               0.001600651               0.001891273               0.000000000               0.000000000               0.000000000               0.000000000               0.003196559               0.005119693              -0.000345035               0.000558742               0.001520300               0.002079042               0.000000000               0.000000000               0.000000000               0.000000000               0.003995401               0.005081042              -0.000194526               0.000863137               0.001405951               0.002269088               0.000000000               0.000000000               0.000000000               0.000000000               0.004599058               0.005111246              -0.000118365               0.001085730               0.001341821               0.002427552               0.000000000               0.000000000               0.000000000               0.000000000               0.000000000               0.000000000               0.000000000               0.000000000               0.000000000               0.000000000               0.000000000               0.000000000               0.000000000               0.000000000               0.000000000               0.000000000               0.000000000               0.000000000               0.000000000               0.000000000               0.000000000               0.000000000               0.000000000               0.000000000               0.000000000               0.000000000               0.000000000               0.000000000               0.000000000               0.000000000               0.000000000               0.000000000               0.000000000               0.000000000               0.000000000               0.000000000               0.000000000               0.000000000               0.000000000               0.000000000               0.000000000               0.000000000               0.000000000               0.000000000               0.000000000               0.000000000               0.000000000               0.000000000               0.000000000               0.000000000               0.000000000               0.000000000               0.000000000               0.000000000               0.000000000               0.000000000               0.000000000               0.000000000               0.000000000               0.000000000               0.000000000               0.000000000               0.000000000               0.000000000               0.000000000               0.000000000               0.000000000               0.000000000               0.000000000               0.000000000               0.000000000               0.000000000               0.000000000               0.000000000               0.000000000               0.000000000               0.000000000               0.000000000               0.000000000               0.000000000               0.000000000               0.000000000               0.000000000               0.000000000               0.000000000               0.000000000               0.000000000               0.000000000               0.000000000               0.000000000               0.000000000               0.000000000               0.000000000               0.000000000               0.000000000               0.000000000               0.000000000               0.000000000               0.000000000               0.000000000               0.000000000               0.000000000               0.000000000               0.000000000               0.000000000               0.000000000               0.000000000               0.000000000               0.000000000               0.000000000               0.000000000               0.000000000               0.000000000               0.000000000               0.000000000               0.000000000               0.000000000               0.000000000               0.000000000               0.000000000               0.000000000               0.000000000               0.000000000               0.000000000               0.000000000               0.000000000               0.000000000               0.000000000               0.000000000               0.000000000               0.000000000               0.000000000               0.000000000               0.000000000               0.000000000               0.000000000               0.000000000               0.000000000               0.000000000               0.000000000               0.000000000               0.000000000               0.000000000               0.000000000               0.000000000               0.000000000               0.000000000               0.000000000               0.000000000               0.000000000               0.000000000               0.000000000               0.000000000               0.000000000               0.000000000               0.000000000               0.000000000               0.000000000               0.000000000               0.000000000               0.000000000               0.000000000               0.000000000               0.000000000               0.000000000               0.000000000               0.000000000               0.000000000               0.000000000               0.000000000               0.000000000               0.000000000               0.000000000               0.000000000               0.000000000               0.000000000               0.000000000               0.000000000               0.000000000               0.000000000               0.000000000               0.000000000               0.000000000               0.000000000               0.000000000               0.000000000               0.000000000               0.000000000               0.000000000               0.000000000               0.000000000               0.000000000               0.000000000               0.000000000               0.000000000               0.000000000               0.000000000               0.000000000               0.000000000               0.000000000               0.000000000               0.000000000               0.000000000               0.000000000               0.000000000               0.000000000               0.000000000               0.000000000               0.000000000               0.000000000               0.000000000               0.000000000               0.000000000               0.000000000               0.000000000               0.000000000               0.000000000               0.000000000               0.000000000               0.000000000               0.000000000               0.000000000               0.000000000               0.000000000               0.000000000               0.000000000               0.000000000               0.000000000               0.000000000               0.000000000               0.000000000               0.000000000               0.000000000               0.000000000               0.000000000               0.000000000               0.000000000               0.000000000               0.000000000               0.000000000               0.000000000               0.000000000               0.000000000               0.000000000               0.000000000               0.000000000               0.000000000               0.000000000               0.000000000               0.000000000               0.000000000               0.000000000               0.000000000               0.000000000               0.000000000               0.000000000               0.000000000               0.000000000               0.000000000               0.000000000               0.000000000               0.000000000               0.000000000               0.000000000               0.000000000               0.000000000               0.000000000               0.000000000               0.000000000               0.000000000               0.000000000               0.000000000               0.000000000               0.000000000               0.000000000               0.000000000               0.000000000               0.000000000               0.000000000               0.000000000               0.000000000               0.000000000               0.000000000               0.000000000               0.000000000               0.000000000               0.000000000               0.000000000               0.000000000               0.000000000               0.000000000               0.000000000               0.000000000               0.000000000               0.000000000               0.000000000               0.000000000               0.000000000               0.000000000               0.000000000               0.000000000               0.000000000               0.000000000               0.000000000               0.000000000               0.000000000               0.000000000               0.000000000               0.000000000               0.000000000               0.000000000               0.000000000               0.000000000               0.000000000               0.000000000               0.000000000               0.000000000               0.000000000               0.000000000               0.000000000               0.000000000               0.000000000               0.000000000               0.000000000               0.000000000               0.000000000               0.000000000               0.000000000               0.000000000               0.000000000               0.000000000               0.000000000               0.000000000               0.000000000               0.000000000               0.000000000               0.000000000               0.000000000               0.000000000               0.000000000               0.000000000               0.000000000               0.000000000               0.000000000               0.002244056               0.022613492               0.001508726              -0.001985161               0.008199476               0.006214315               0.000000000               0.000000000               0.000000000               0.000000000               0.002014660               0.017333839               0.000645663              -0.001411229               0.006248298               0.004837069               0.000000000               0.000000000               0.000000000               0.000000000               0.002472536               0.013099837              -0.000199676              -0.000710277               0.004603327               0.003893051               0.000000000               0.000000000               0.000000000               0.000000000               0.002213327               0.010701961              -0.000538852              -0.000507746               0.003736533               0.003228787               0.000000000               0.000000000               0.000000000               0.000000000               0.001779043               0.009164800              -0.000660439              -0.000478458               0.003214389               0.002735931               0.000000000               0.000000000               0.000000000               0.000000000               0.001349776               0.008063034              -0.000686046              -0.000501712               0.002854889               0.002353176               0.000000000               0.000000000               0.000000000               0.000000000               0.000977111               0.007197825              -0.000672335              -0.000533311               0.002577021               0.002043711               0.000000000               0.000000000               0.000000000               0.000000000               0.000670039               0.006464179              -0.000643087              -0.000556757               0.002340290               0.001783534               0.000000000               0.000000000               0.000000000               0.000000000               0.000425616               0.005800634              -0.000606312              -0.000565472               0.002122016               0.001556544               0.000000000               0.000000000               0.000000000               0.000000000               0.000232457               0.005176445              -0.000571378              -0.000559883               0.001912092               0.001352209               0.000000000               0.000000000               0.000000000               0.000000000               0.000084343               0.004571001              -0.000537485              -0.000539745               0.001703567               0.001163821               0.000000000               0.000000000               0.000000000               0.000000000              -0.000023549               0.003963015              -0.000496522              -0.000504206               0.001489060               0.000984854               0.000000000               0.000000000               0.000000000               0.000000000              -0.000094991               0.003331680              -0.000444760              -0.000452081               0.001261242               0.000809162               0.000000000               0.000000000               0.000000000               0.000000000              -0.000128306               0.002662040              -0.000373930              -0.000380869               0.001014294               0.000633425               0.000000000               0.000000000               0.000000000               0.000000000              -0.000119750               0.001936329              -0.000280404              -0.000286947               0.000741085               0.000454139               0.000000000               0.000000000               0.000000000               0.000000000              -0.000069483               0.001142107              -0.000157629              -0.000168819               0.000436971               0.000268152               0.000000000               0.000000000               0.000000000               0.000000000              -0.000097553               0.000551698              -0.000099055              -0.000105544               0.000219079               0.000113534               0.000000000               0.000000000               0.000000000               0.000000000               0.002365147               0.021150231               0.002768662              -0.001756846               0.007635621               0.005878776               0.000000000               0.000000000               0.000000000               0.000000000               0.001776962               0.016429699               0.001174367              -0.001387349               0.005938961               0.004551612               0.000000000               0.000000000               0.000000000               0.000000000               0.001853405               0.012766931              -0.000369584              -0.000900837               0.004555880               0.003655043               0.000000000               0.000000000               0.000000000               0.000000000               0.001466549               0.010655460              -0.000961789              -0.000781975               0.003812443               0.003030468               0.000000000               0.000000000               0.000000000               0.000000000               0.001023019               0.009260533              -0.001160569              -0.000773933               0.003344791               0.002570858               0.000000000               0.000000000               0.000000000               0.000000000               0.000638802               0.008224442              -0.001195701              -0.000788503               0.003004287               0.002215784               0.000000000               0.000000000               0.000000000               0.000000000               0.000340028               0.007389017              -0.001166333              -0.000796115               0.002728353               0.001932237               0.000000000               0.000000000               0.000000000               0.000000000               0.000115825               0.006669329              -0.001108188              -0.000790230               0.002486497               0.001696267               0.000000000               0.000000000               0.000000000               0.000000000              -0.000051458               0.006012522              -0.001041324              -0.000770860               0.002261107               0.001490247               0.000000000               0.000000000               0.000000000               0.000000000              -0.000163639               0.005397113              -0.000979797              -0.000736002               0.002044353               0.001308351               0.000000000               0.000000000               0.000000000               0.000000000              -0.000224817               0.004801799              -0.000919095              -0.000684530               0.001828760               0.001144230               0.000000000               0.000000000               0.000000000               0.000000000              -0.000250467               0.004210282              -0.000846540              -0.000620209               0.001610149               0.000989940               0.000000000               0.000000000               0.000000000               0.000000000              -0.000245449               0.003616884              -0.000755554              -0.000544153               0.001387000               0.000842847               0.000000000               0.000000000               0.000000000               0.000000000              -0.000215038               0.003018011              -0.000632688              -0.000457890               0.001158623               0.000700734               0.000000000               0.000000000               0.000000000               0.000000000              -0.000162944               0.002411886              -0.000469429              -0.000362589               0.000924817               0.000562228               0.000000000               0.000000000               0.000000000               0.000000000              -0.000088075               0.001805100              -0.000260851              -0.000258665               0.000687916               0.000429250               0.000000000               0.000000000               0.000000000               0.000000000              -0.000088459               0.001388568              -0.000158603              -0.000206743               0.000531765               0.000325023               0.000000000               0.000000000               0.000000000               0.000000000               0.002429700               0.018942253               0.003612728              -0.001456643               0.006799568               0.005342926               0.000000000               0.000000000               0.000000000               0.000000000               0.001352468               0.015085443               0.001526590              -0.001378502               0.005487931               0.004109429               0.000000000               0.000000000               0.000000000               0.000000000               0.000907622               0.012270933              -0.000462903              -0.001193506               0.004488105               0.003294600               0.000000000               0.000000000               0.000000000               0.000000000               0.000379581               0.010561555              -0.001178460              -0.001177849               0.003913099               0.002735251               0.000000000               0.000000000               0.000000000               0.000000000              -0.000034075               0.009355971              -0.001397913              -0.001182272               0.003512716               0.002330444               0.000000000               0.000000000               0.000000000               0.000000000              -0.000320179               0.008409054              -0.001421051              -0.001171197               0.003193389               0.002022192               0.000000000               0.000000000               0.000000000               0.000000000              -0.000501844               0.007614294              -0.001373461              -0.001139976               0.002918064               0.001778089               0.000000000               0.000000000               0.000000000               0.000000000              -0.000601914               0.006913554              -0.001297122              -0.001089910               0.002667798               0.001577888               0.000000000               0.000000000               0.000000000               0.000000000              -0.000641725               0.006269866              -0.001213470              -0.001024378               0.002431394               0.001407016               0.000000000               0.000000000               0.000000000               0.000000000              -0.000629280               0.005664059              -0.001136816              -0.000943986               0.002202662               0.001258677               0.000000000               0.000000000               0.000000000               0.000000000              -0.000576085               0.005083788              -0.001056290              -0.000851504               0.001978413               0.001126910               0.000000000               0.000000000               0.000000000               0.000000000              -0.000497411               0.004523485              -0.000960838              -0.000751963               0.001758467               0.001006504               0.000000000               0.000000000               0.000000000               0.000000000              -0.000400501               0.003986995              -0.000844278              -0.000648561               0.001545172               0.000896611               0.000000000               0.000000000               0.000000000               0.000000000              -0.000293950               0.003485094              -0.000694024              -0.000545867               0.001343642               0.000797775               0.000000000               0.000000000               0.000000000               0.000000000              -0.000187579               0.003038661              -0.000502719              -0.000450174               0.001162935               0.000712761               0.000000000               0.000000000               0.000000000               0.000000000              -0.000092106               0.002665556              -0.000272087              -0.000367734               0.001011088               0.000643354               0.000000000               0.000000000               0.000000000               0.000000000              -0.000064746               0.002457047              -0.000155341              -0.000331410               0.000929477               0.000598067               0.000000000               0.000000000               0.000000000               0.000000000               0.002300810               0.016257072               0.003970101              -0.001169330               0.005808746               0.004639416               0.000000000               0.000000000               0.000000000               0.000000000               0.000727038               0.013477295               0.001692076              -0.001412020               0.004963060               0.003551040               0.000000000               0.000000000               0.000000000               0.000000000              -0.000243088               0.011663861              -0.000443116              -0.001549137               0.004404294               0.002855157               0.000000000               0.000000000               0.000000000               0.000000000              -0.000842816               0.010384145              -0.001151585              -0.001614071               0.003999371               0.002385300               0.000000000               0.000000000               0.000000000               0.000000000              -0.001166875               0.009370300              -0.001344704              -0.001608862               0.003659689               0.002050827               0.000000000               0.000000000               0.000000000               0.000000000              -0.001306783               0.008519395              -0.001347289              -0.001554964               0.003358091               0.001803127               0.000000000               0.000000000               0.000000000               0.000000000              -0.001327895               0.007775340              -0.001288532              -0.001469875               0.003081712               0.001611837               0.000000000               0.000000000               0.000000000               0.000000000              -0.001270394               0.007094952              -0.001207562              -0.001363264               0.002819382               0.001456118               0.000000000               0.000000000               0.000000000               0.000000000              -0.001160223               0.006464207              -0.001120540              -0.001243107               0.002569083               0.001325976               0.000000000               0.000000000               0.000000000               0.000000000              -0.001014523               0.005874719              -0.001035277              -0.001114784               0.002329814               0.001215031               0.000000000               0.000000000               0.000000000               0.000000000              -0.000846036               0.005321083              -0.000944151              -0.000982397               0.002101142               0.001118745               0.000000000               0.000000000               0.000000000               0.000000000              -0.000664558               0.004809960              -0.000835994              -0.000850452               0.001886788               0.001036336               0.000000000               0.000000000               0.000000000               0.000000000              -0.000482935               0.004347749              -0.000708227              -0.000724568               0.001690758               0.000966190               0.000000000               0.000000000               0.000000000               0.000000000              -0.000314705               0.003957396              -0.000560955              -0.000612688               0.001523348               0.000910660               0.000000000               0.000000000               0.000000000               0.000000000              -0.000179320               0.003664321              -0.000387241              -0.000525284               0.001396522               0.000871239               0.000000000               0.000000000               0.000000000               0.000000000              -0.000079099               0.003488273              -0.000195573              -0.000465695               0.001317978               0.000852283               0.000000000               0.000000000               0.000000000               0.000000000              -0.000034400               0.003433117              -0.000098112              -0.000442038               0.001291707               0.000849669               0.000000000               0.000000000               0.000000000               0.000000000               0.001861924               0.013386539               0.003852719              -0.000975096               0.004787166               0.003812070               0.000000000               0.000000000               0.000000000               0.000000000              -0.000082646               0.011788337               0.001697487              -0.001504532               0.004430917               0.002926385               0.000000000               0.000000000               0.000000000               0.000000000              -0.001463012               0.010992057              -0.000289743              -0.001922632               0.004304860               0.002382228               0.000000000               0.000000000               0.000000000               0.000000000              -0.002020358               0.010105260              -0.000893685              -0.002020787               0.004041982               0.002021195               0.000000000               0.000000000               0.000000000               0.000000000              -0.002171925               0.009263800              -0.001043531              -0.001972442               0.003745383               0.001772941               0.000000000               0.000000000               0.000000000               0.000000000              -0.002117458               0.008502673              -0.001037704              -0.001856876               0.003453155               0.001596278               0.000000000               0.000000000               0.000000000               0.000000000              -0.001959167               0.007803761              -0.000981081              -0.001710154               0.003171279               0.001461125               0.000000000               0.000000000               0.000000000               0.000000000              -0.001742771               0.007146578              -0.000907325              -0.001546858               0.002897788               0.001350930               0.000000000               0.000000000               0.000000000               0.000000000              -0.001491394               0.006540841              -0.000828418              -0.001376875               0.002639216               0.001262342               0.000000000               0.000000000               0.000000000               0.000000000              -0.001223928               0.005983095              -0.000746290              -0.001206857               0.002396631               0.001189774               0.000000000               0.000000000               0.000000000               0.000000000              -0.000952898               0.005474881              -0.000659793              -0.001041694               0.002172173               0.001130479               0.000000000               0.000000000               0.000000000               0.000000000              -0.000693345               0.005026716              -0.000559184              -0.000888342               0.001971669               0.001083327               0.000000000               0.000000000               0.000000000               0.000000000              -0.000464921               0.004652871              -0.000445164              -0.000755952               0.001802925               0.001046973               0.000000000               0.000000000               0.000000000               0.000000000              -0.000276258               0.004369702              -0.000330859              -0.000649808               0.001673155               0.001023347               0.000000000               0.000000000               0.000000000               0.000000000              -0.000140457               0.004194225              -0.000214305              -0.000576948               0.001590377               0.001013429               0.000000000               0.000000000               0.000000000               0.000000000              -0.000054910               0.004123984              -0.000098876              -0.000536088               0.001553344               0.001017256               0.000000000               0.000000000               0.000000000               0.000000000              -0.000018004               0.004122334              -0.000041828              -0.000522042               0.001548112               0.001026070               0.000000000               0.000000000               0.000000000               0.000000000               0.001046046               0.010578481               0.003349774              -0.000930043               0.003836139               0.002906095               0.000000000               0.000000000               0.000000000               0.000000000              -0.001037259               0.010157010               0.001603109              -0.001658595               0.003938501               0.002279905               0.000000000               0.000000000               0.000000000               0.000000000              -0.002615341               0.010282392               0.000001212              -0.002266046               0.004182779               0.001916732               0.000000000               0.000000000               0.000000000               0.000000000              -0.002999675               0.009722202              -0.000456909              -0.002340147               0.004020751               0.001680603               0.000000000               0.000000000               0.000000000               0.000000000              -0.002919578               0.009023472              -0.000578287              -0.002222770               0.003748717               0.001525947               0.000000000               0.000000000               0.000000000               0.000000000              -0.002651860               0.008334215              -0.000587514              -0.002036219               0.003456783               0.001420564               0.000000000               0.000000000               0.000000000               0.000000000              -0.002314615               0.007677069              -0.000550737              -0.001827610               0.003168201               0.001340591               0.000000000               0.000000000               0.000000000               0.000000000              -0.001952374               0.007059312              -0.000498232              -0.001614550               0.002891264               0.001276713               0.000000000               0.000000000               0.000000000               0.000000000              -0.001580292               0.006496684              -0.000442054              -0.001404692               0.002633770               0.001229079               0.000000000               0.000000000               0.000000000               0.000000000              -0.001215881               0.005986107              -0.000381407              -0.001204216               0.002396754               0.001192539               0.000000000               0.000000000               0.000000000               0.000000000              -0.000877290               0.005534929              -0.000318326              -0.001020847               0.002185240               0.001164393               0.000000000               0.000000000               0.000000000               0.000000000              -0.000581213               0.005157944              -0.000250532              -0.000862696               0.002006863               0.001144167               0.000000000               0.000000000               0.000000000               0.000000000              -0.000349461               0.004867861              -0.000177590              -0.000739529               0.001869114               0.001129585               0.000000000               0.000000000               0.000000000               0.000000000              -0.000186793               0.004673832              -0.000118343              -0.000654275               0.001776020               0.001121745               0.000000000               0.000000000               0.000000000               0.000000000              -0.000084434               0.004570047              -0.000071676              -0.000602917               0.001724306               0.001121389               0.000000000               0.000000000               0.000000000               0.000000000              -0.000028492               0.004531251              -0.000027694              -0.000577089               0.001702765               0.001125676               0.000000000               0.000000000               0.000000000               0.000000000              -0.000011080               0.004526290              -0.000009035              -0.000569940               0.001698728               0.001128788               0.000000000               0.000000000               0.000000000               0.000000000              -0.000097314               0.008005003               0.002581635              -0.001037117               0.003014013               0.001976895               0.000000000               0.000000000               0.000000000               0.000000000              -0.002074157               0.008670476               0.001465749              -0.001861615               0.003510668               0.001649053               0.000000000               0.000000000               0.000000000               0.000000000              -0.003587745               0.009538624               0.000412134              -0.002537726               0.004025418               0.001487692               0.000000000               0.000000000               0.000000000               0.000000000              -0.003689996               0.009232957               0.000081729              -0.002537862               0.003923576               0.001385714               0.000000000               0.000000000               0.000000000               0.000000000              -0.003354914               0.008659008              -0.000044631              -0.002340463               0.003666461               0.001325998               0.000000000               0.000000000               0.000000000               0.000000000              -0.002891043               0.008039660              -0.000092777              -0.002089093               0.003376224               0.001287131               0.000000000               0.000000000               0.000000000               0.000000000              -0.002398175               0.007435286              -0.000097199              -0.001828722               0.003087978               0.001259256               0.000000000               0.000000000               0.000000000               0.000000000              -0.001911159               0.006874770              -0.000081785              -0.001576027               0.002816910               0.001240883               0.000000000               0.000000000               0.000000000               0.000000000              -0.001445004               0.006363650              -0.000061744              -0.001337329               0.002566972               0.001229643               0.000000000               0.000000000               0.000000000               0.000000000              -0.001020725               0.005905504              -0.000036660              -0.001120957               0.002342134               0.001221177               0.000000000               0.000000000               0.000000000               0.000000000              -0.000655778               0.005515713              -0.000015767              -0.000935378               0.002150345               0.001214967               0.000000000               0.000000000               0.000000000               0.000000000              -0.000371145               0.005207385               0.000000790              -0.000790101               0.001999145               0.001209044               0.000000000               0.000000000               0.000000000               0.000000000              -0.000182927               0.004989083               0.000011822              -0.000692231               0.001893755               0.001201523               0.000000000               0.000000000               0.000000000               0.000000000              -0.000072762               0.004862906               0.000006494              -0.000635147               0.001832668               0.001197521               0.000000000               0.000000000               0.000000000               0.000000000              -0.000018571               0.004800433              -0.000005041              -0.000607017               0.001802467               0.001195451               0.000000000               0.000000000               0.000000000               0.000000000              -0.000000242               0.004780441              -0.000006529              -0.000597645               0.001792679               0.001195035               0.000000000               0.000000000               0.000000000               0.000000000              -0.000000236               0.004781797              -0.000005457              -0.000597812               0.001793187               0.001195375               0.000000000               0.000000000               0.000000000               0.000000000              -0.001434575               0.005846612               0.001672058              -0.001268790               0.002371781               0.001102991               0.000000000               0.000000000               0.000000000               0.000000000              -0.003085344               0.007340182               0.001323312              -0.002074522               0.003138210               0.001063688               0.000000000               0.000000000               0.000000000               0.000000000              -0.004348174               0.008781845               0.000898536              -0.002728289               0.003836682               0.001108393               0.000000000               0.000000000               0.000000000               0.000000000              -0.004160401               0.008737915               0.000644834              -0.002652383               0.003796737               0.001144354               0.000000000               0.000000000               0.000000000               0.000000000              -0.003614890               0.008315348               0.000486968              -0.002394996               0.003570087               0.001175091               0.000000000               0.000000000               0.000000000               0.000000000              -0.002995240               0.007793243               0.000384772              -0.002097365               0.003296843               0.001199478               0.000000000               0.000000000               0.000000000               0.000000000              -0.002388690               0.007261792               0.000323691              -0.001803478               0.003021733               0.001218254               0.000000000               0.000000000               0.000000000               0.000000000              -0.001810109               0.006761751               0.000292365              -0.001524006               0.002761896               0.001237890               0.000000000               0.000000000               0.000000000               0.000000000              -0.001273412               0.006298036               0.000271254              -0.001264781               0.002520918               0.001256137               0.000000000               0.000000000               0.000000000               0.000000000              -0.000802309               0.005884184               0.000248554              -0.001036386               0.002306837               0.001270451               0.000000000               0.000000000               0.000000000               0.000000000              -0.000425578               0.005537668               0.000216334              -0.000851798               0.002129804               0.001278005               0.000000000               0.000000000               0.000000000               0.000000000              -0.000158050               0.005273114               0.000176527              -0.000718406               0.001997156               0.001278750               0.000000000               0.000000000               0.000000000               0.000000000              -0.000002298               0.005097425               0.000127650              -0.000638038               0.001911804               0.001273766               0.000000000               0.000000000               0.000000000               0.000000000               0.000061808               0.004999047               0.000070222              -0.000601701               0.001866899               0.001265198               0.000000000               0.000000000               0.000000000               0.000000000               0.000066161               0.004947829               0.000017629              -0.000593667               0.001847149               0.001253482               0.000000000               0.000000000               0.000000000               0.000000000               0.000041666               0.004931034              -0.000011661              -0.000600753               0.001843912               0.001243159               0.000000000               0.000000000               0.000000000               0.000000000               0.000024447               0.004932770              -0.000018648              -0.000607427               0.001846716               0.001239289               0.000000000               0.000000000               0.000000000               0.000000000              -0.002967571               0.003863122               0.000731450              -0.001595726               0.001819603               0.000223877               0.000000000               0.000000000               0.000000000               0.000000000              -0.003942419               0.005804368               0.001169902              -0.002203948               0.002669419               0.000465471               0.000000000               0.000000000               0.000000000               0.000000000              -0.004820103               0.007653293               0.001403100              -0.002764193               0.003472470               0.000708276               0.000000000               0.000000000               0.000000000               0.000000000              -0.004475236               0.008001654               0.001234933              -0.002678414               0.003559996               0.000881582               0.000000000               0.000000000               0.000000000               0.000000000              -0.003843447               0.007856679               0.001044777              -0.002423371               0.003426657               0.001003286               0.000000000               0.000000000               0.000000000               0.000000000              -0.003163778               0.007544317               0.000884254              -0.002129451               0.003224564               0.001095113               0.000000000               0.000000000               0.000000000               0.000000000              -0.002515873               0.007176085               0.000760279              -0.001840459               0.003005491               0.001165032               0.000000000               0.000000000               0.000000000               0.000000000              -0.001908060               0.006793536               0.000676454              -0.001564711               0.002786060               0.001221349               0.000000000               0.000000000               0.000000000               0.000000000              -0.001343753               0.006417402               0.000608206              -0.001306080               0.002574473               0.001268393               0.000000000               0.000000000               0.000000000               0.000000000              -0.000845518               0.006058740               0.000534218              -0.001074409               0.002377696               0.001303287               0.000000000               0.000000000               0.000000000               0.000000000              -0.000436547               0.005732517               0.000451992              -0.000880267               0.002204242               0.001323975               0.000000000               0.000000000               0.000000000               0.000000000              -0.000132084               0.005454128               0.000364019              -0.000731296               0.002061790               0.001330494               0.000000000               0.000000000               0.000000000               0.000000000               0.000064270               0.005241065               0.000268196              -0.000631030               0.001957348               0.001326317               0.000000000               0.000000000               0.000000000               0.000000000               0.000161718               0.005101644               0.000167539              -0.000577060               0.001892884               0.001315824               0.000000000               0.000000000               0.000000000               0.000000000               0.000179078               0.005024514               0.000076819              -0.000560908               0.001861791               0.001300882               0.000000000               0.000000000               0.000000000               0.000000000               0.000146168               0.004994044               0.000017729              -0.000569441               0.001854478               0.001285037               0.000000000               0.000000000               0.000000000               0.000000000               0.000109107               0.004978872              -0.000005783              -0.000581443               0.001853422               0.001271979               0.000000000               0.000000000               0.000000000               0.000000000              -0.004883059               0.002096445              -0.000165105              -0.002093199               0.001396539              -0.000696661               0.000000000               0.000000000               0.000000000               0.000000000              -0.004910520               0.004262641               0.000956721              -0.002374270               0.002212289              -0.000161981               0.000000000               0.000000000               0.000000000               0.000000000              -0.005221731               0.006315934               0.001807260              -0.002747634               0.003021168               0.000273533               0.000000000               0.000000000               0.000000000               0.000000000              -0.004736785               0.007036571               0.001797261              -0.002655860               0.003230786               0.000574927               0.000000000               0.000000000               0.000000000               0.000000000              -0.004053916               0.007208164               0.001608184              -0.002421233               0.003209775               0.000788541               0.000000000               0.000000000               0.000000000               0.000000000              -0.003350138               0.007138249               0.001403667              -0.002148578               0.003095585               0.000947007               0.000000000               0.000000000               0.000000000               0.000000000              -0.002679241               0.006960288               0.001228334              -0.001874747               0.002944988               0.001070241               0.000000000               0.000000000               0.000000000               0.000000000              -0.002057501               0.006730243               0.001093484              -0.001612840               0.002781005               0.001168165               0.000000000               0.000000000               0.000000000               0.000000000              -0.001477173               0.006475008               0.000976709              -0.001363313               0.002612752               0.001249439               0.000000000               0.000000000               0.000000000               0.000000000              -0.000946337               0.006203575               0.000858826              -0.001130321               0.002444611               0.001314290               0.000000000               0.000000000               0.000000000               0.000000000              -0.000482061               0.005922390               0.000739949              -0.000921070               0.002281134               0.001360064               0.000000000               0.000000000               0.000000000               0.000000000              -0.000102661               0.005649834               0.000616343              -0.000744725               0.002131501               0.001386776               0.000000000               0.000000000               0.000000000               0.000000000               0.000176195               0.005404822               0.000484752              -0.000609528               0.002004765               0.001395237               0.000000000               0.000000000               0.000000000               0.000000000               0.000352709               0.005209984               0.000345353              -0.000518981               0.001909638               0.001390657               0.000000000               0.000000000               0.000000000               0.000000000               0.000430653               0.005084684               0.000204078              -0.000474089               0.001852908               0.001378818               0.000000000               0.000000000               0.000000000               0.000000000               0.000412221               0.005020411               0.000084286              -0.000472967               0.001831109               0.001358142               0.000000000               0.000000000               0.000000000               0.000000000               0.000353799               0.004984175               0.000024359              -0.000490346               0.001824824               0.001334478               0.000000000               0.000000000               0.000000000               0.000000000              -0.007047009               0.000694859              -0.000924868              -0.002729483               0.001141439              -0.001588043               0.000000000               0.000000000               0.000000000               0.000000000              -0.006025618               0.002823284               0.000678276              -0.002612513               0.001811920              -0.000800593               0.000000000               0.000000000               0.000000000               0.000000000              -0.005571007               0.004799822               0.002007079              -0.002689100               0.002496290              -0.000192810               0.000000000               0.000000000               0.000000000               0.000000000              -0.004864751               0.005772906               0.002194680              -0.002545889               0.002772912               0.000227023               0.000000000               0.000000000               0.000000000               0.000000000              -0.004115549               0.006230879               0.002061398              -0.002322186               0.002851000               0.000528815               0.000000000               0.000000000               0.000000000               0.000000000              -0.003391840               0.006414479               0.001852346              -0.002073745               0.002829386               0.000755641               0.000000000               0.000000000               0.000000000               0.000000000              -0.002710198               0.006452783               0.001649821              -0.001822918               0.002758545               0.000935627               0.000000000               0.000000000               0.000000000               0.000000000              -0.002084479               0.006405481               0.001479726              -0.001582361               0.002662592               0.001080231               0.000000000               0.000000000               0.000000000               0.000000000              -0.001499810               0.006301366               0.001329901              -0.001350097               0.002550466               0.001200370               0.000000000               0.000000000               0.000000000               0.000000000              -0.000947805               0.006153033               0.001183632              -0.001124554               0.002425841               0.001301288               0.000000000               0.000000000               0.000000000               0.000000000              -0.000442036               0.005961016               0.001038396              -0.000910889               0.002290615               0.001379726               0.000000000               0.000000000               0.000000000               0.000000000               0.000001122               0.005742650               0.000888181              -0.000717409               0.002153334               0.001435925               0.000000000               0.000000000               0.000000000               0.000000000               0.000367356               0.005520864               0.000728422              -0.000552348               0.002024386               0.001472037               0.000000000               0.000000000               0.000000000               0.000000000               0.000642414               0.005316856               0.000558723              -0.000423701               0.001913501               0.001489800               0.000000000               0.000000000               0.000000000               0.000000000               0.000815968               0.005154789               0.000371826              -0.000338360               0.001831032               0.001492673               0.000000000               0.000000000               0.000000000               0.000000000               0.000874928               0.005054367               0.000181439              -0.000303697               0.001786004               0.001482307               0.000000000               0.000000000               0.000000000               0.000000000               0.000845086               0.005003711               0.000080962              -0.000308556               0.001770739               0.001462183               0.000000000               0.000000000               0.000000000               0.000000000              -0.009317102              -0.000285599              -0.001432049              -0.003458211               0.001057530              -0.002400681               0.000000000               0.000000000               0.000000000               0.000000000              -0.007219087               0.001561710               0.000385704              -0.002902368               0.001488016              -0.001414352               0.000000000               0.000000000               0.000000000               0.000000000              -0.005884605               0.003233275               0.001975081              -0.002610882               0.001948038              -0.000662843               0.000000000               0.000000000               0.000000000               0.000000000              -0.004878056               0.004319913               0.002334736              -0.002369255               0.002229707              -0.000139548               0.000000000               0.000000000               0.000000000               0.000000000              -0.004028578               0.005002353               0.002288790              -0.002136006               0.002379436               0.000243429               0.000000000               0.000000000               0.000000000               0.000000000              -0.003277898               0.005420051               0.002115239              -0.001906714               0.002442236               0.000535522               0.000000000               0.000000000               0.000000000               0.000000000              -0.002596669               0.005671227               0.001917008              -0.001682651               0.002451273               0.000768622               0.000000000               0.000000000               0.000000000               0.000000000              -0.001969739               0.005814250               0.001737164              -0.001465430               0.002426540               0.000961110               0.000000000               0.000000000               0.000000000               0.000000000              -0.001381061               0.005877430               0.001577483              -0.001252574               0.002376648               0.001124074               0.000000000               0.000000000               0.000000000               0.000000000              -0.000816878               0.005872383               0.001421641              -0.001040375               0.002304233               0.001263858               0.000000000               0.000000000               0.000000000               0.000000000              -0.000284825               0.005805560               0.001264455              -0.000832503               0.002212668               0.001380165               0.000000000               0.000000000               0.000000000               0.000000000               0.000211615               0.005691638               0.001104567              -0.000632098               0.002107893               0.001475795               0.000000000               0.000000000               0.000000000               0.000000000               0.000663183               0.005543217               0.000936012              -0.000444208               0.001995790               0.001551582               0.000000000               0.000000000               0.000000000               0.000000000               0.001054149               0.005376422               0.000749255              -0.000276746               0.001884372               0.001607625               0.000000000               0.000000000               0.000000000               0.000000000               0.001365881               0.005218357               0.000531989              -0.000140089               0.001786131               0.001646042               0.000000000               0.000000000               0.000000000               0.000000000               0.001575155               0.005094835               0.000279533              -0.000046172               0.001713652               0.001667480               0.000000000               0.000000000               0.000000000               0.000000000               0.001650832               0.005042173               0.000145516              -0.000011210               0.001684444               0.001673234               0.000000000               0.000000000               0.000000000               0.000000000              -0.011487692              -0.000883358              -0.001587638              -0.004197462               0.001104693              -0.003092769               0.000000000               0.000000000               0.000000000               0.000000000              -0.008389509               0.000544393               0.000142968              -0.003214112               0.001252826              -0.001961286               0.000000000               0.000000000               0.000000000               0.000000000              -0.006165674               0.001778261               0.001711948              -0.002534407               0.001437546              -0.001096861               0.000000000               0.000000000               0.000000000               0.000000000              -0.004811461               0.002854533               0.002158062              -0.002161111               0.001671869              -0.000489242               0.000000000               0.000000000               0.000000000               0.000000000              -0.003832055               0.003673895               0.002191703              -0.001896254               0.001856703              -0.000039551               0.000000000               0.000000000               0.000000000               0.000000000              -0.003042424               0.004274230               0.002072776              -0.001675184               0.001983123               0.000307939               0.000000000               0.000000000               0.000000000               0.000000000              -0.002354331               0.004705452               0.001911052              -0.001471053               0.002058819               0.000587766               0.000000000               0.000000000               0.000000000               0.000000000              -0.001727573               0.005015004               0.001753863              -0.001274713               0.002096555               0.000821842               0.000000000               0.000000000               0.000000000               0.000000000              -0.001138538               0.005235268               0.001610106              -0.001081358               0.002105524               0.001024166               0.000000000               0.000000000               0.000000000               0.000000000              -0.000568584               0.005381290               0.001464993              -0.000885879               0.002089038               0.001203159               0.000000000               0.000000000               0.000000000               0.000000000              -0.000010568               0.005459388               0.001317178              -0.000686385               0.002048573               0.001362187               0.000000000               0.000000000               0.000000000               0.000000000               0.000535239               0.005473267               0.001167827              -0.000483443               0.001985552               0.001502108               0.000000000               0.000000000               0.000000000               0.000000000               0.001062957               0.005425765               0.001010043              -0.000279612               0.001901774               0.001622162               0.000000000               0.000000000               0.000000000               0.000000000               0.001566528               0.005333070               0.000832652              -0.000079186               0.001804067               0.001724881               0.000000000               0.000000000               0.000000000               0.000000000               0.002038906               0.005224032               0.000613888               0.000111584               0.001704132               0.001815716               0.000000000               0.000000000               0.000000000               0.000000000               0.002455578               0.005111710               0.000335445               0.000281875               0.001609928               0.001891803               0.000000000               0.000000000               0.000000000               0.000000000               0.002704788               0.005079309               0.000192901               0.000379378               0.001566627               0.001946005               0.000000000               0.000000000               0.000000000               0.000000000              -0.013302098              -0.001175107              -0.001351603              -0.004841395               0.001222087              -0.003619308               0.000000000               0.000000000               0.000000000               0.000000000              -0.009396404              -0.000181735              -0.000000018              -0.003500932               0.001106391              -0.002394541               0.000000000               0.000000000               0.000000000               0.000000000              -0.006405980               0.000594309               0.001257083              -0.002476529               0.001023605              -0.001452923               0.000000000               0.000000000               0.000000000               0.000000000              -0.004716780               0.001580641               0.001661189              -0.001966370               0.001182328              -0.000784042               0.000000000               0.000000000               0.000000000               0.000000000              -0.003599977               0.002461583               0.001728857              -0.001657686               0.001373080              -0.000284606               0.000000000               0.000000000               0.000000000               0.000000000              -0.002755814               0.003179929               0.001663932              -0.001430919               0.001536938               0.000106019               0.000000000               0.000000000               0.000000000               0.000000000              -0.002050089               0.003744340               0.001555524              -0.001236823               0.001660375               0.000423551               0.000000000               0.000000000               0.000000000               0.000000000              -0.001420590               0.004186775               0.001443449              -0.001056066               0.001747599               0.000691533               0.000000000               0.000000000               0.000000000               0.000000000              -0.000834929               0.004536657               0.001338093              -0.000880179               0.001805597               0.000925418               0.000000000               0.000000000               0.000000000               0.000000000              -0.000263229               0.004808873               0.001231606              -0.000699819               0.001836214               0.001136395               0.000000000               0.000000000               0.000000000               0.000000000               0.000312492               0.005005494               0.001120751              -0.000508502               0.001837982               0.001329480               0.000000000               0.000000000               0.000000000               0.000000000               0.000893595               0.005135877               0.001003842              -0.000306886               0.001814237               0.001507351               0.000000000               0.000000000               0.000000000               0.000000000               0.001482321               0.005206914               0.000878359              -0.000094994               0.001767285               0.001672291               0.000000000               0.000000000               0.000000000               0.000000000               0.002083157               0.005216604               0.000738983               0.000129107               0.001695815               0.001824922               0.000000000               0.000000000               0.000000000               0.000000000               0.002702701               0.005176748               0.000560416               0.000366416               0.001603427               0.001969843               0.000000000               0.000000000               0.000000000               0.000000000               0.003334526               0.005100749               0.000313986               0.000612847               0.001495950               0.002108798               0.000000000               0.000000000               0.000000000               0.000000000               0.003775822               0.005102013               0.000189460               0.000778174               0.001441263               0.002219437               0.000000000               0.000000000               0.000000000               0.000000000              -0.014510406              -0.001278599              -0.000772554              -0.005281574               0.001334316              -0.003947258               0.000000000               0.000000000               0.000000000               0.000000000              -0.010078718              -0.000607237              -0.000033919              -0.003703612               0.001032118              -0.002671494               0.000000000               0.000000000               0.000000000               0.000000000              -0.006569538              -0.000179168               0.000665365              -0.002441179               0.000753998              -0.001687181               0.000000000               0.000000000               0.000000000               0.000000000              -0.004641185               0.000704156               0.000905717              -0.001828462               0.000844200              -0.000984262               0.000000000               0.000000000               0.000000000               0.000000000              -0.003417302               0.001602250               0.000955768              -0.001481767               0.001027998              -0.000453769               0.000000000               0.000000000               0.000000000               0.000000000              -0.002526329               0.002383759               0.000928919              -0.001245340               0.001209691              -0.000035649               0.000000000               0.000000000               0.000000000               0.000000000              -0.001802026               0.003031663               0.000874163              -0.001054715               0.001362116               0.000307400               0.000000000               0.000000000               0.000000000               0.000000000              -0.001163151               0.003563177               0.000815380              -0.000881577               0.001481573               0.000599996               0.000000000               0.000000000               0.000000000               0.000000000              -0.000572449               0.003994531               0.000762333              -0.000713983               0.001569491               0.000855508               0.000000000               0.000000000               0.000000000               0.000000000              -0.000000468               0.004347070               0.000710298              -0.000543558               0.001630195               0.001086637               0.000000000               0.000000000               0.000000000               0.000000000               0.000575870               0.004627934               0.000651967              -0.000362540               0.001663476               0.001300936               0.000000000               0.000000000               0.000000000               0.000000000               0.001172657               0.004844346               0.000586729              -0.000165797               0.001670031               0.001504235               0.000000000               0.000000000               0.000000000               0.000000000               0.001802038               0.005000206               0.000517859               0.000050738               0.001649806               0.001700544               0.000000000               0.000000000               0.000000000               0.000000000               0.002472544               0.005092625               0.000444909               0.000290623               0.001600651               0.001891273               0.000000000               0.000000000               0.000000000               0.000000000               0.003196559               0.005119693               0.000345035               0.000558742               0.001520300               0.002079042               0.000000000               0.000000000               0.000000000               0.000000000               0.003995401               0.005081042               0.000194526               0.000863137               0.001405951               0.002269088               0.000000000               0.000000000               0.000000000               0.000000000               0.004599058               0.005111246               0.000118365               0.001085730               0.001341821               0.002427552               0.000000000               0.000000000               0.000000000               0.000000000               0.000000000               0.000000000               0.000000000               0.000000000               0.000000000               0.000000000               0.000000000               0.000000000               0.000000000               0.000000000               0.000000000               0.000000000               0.000000000               0.000000000               0.000000000               0.000000000               0.000000000               0.000000000               0.000000000               0.000000000               0.000000000               0.000000000               0.000000000               0.000000000               0.000000000               0.000000000               0.000000000               0.000000000               0.000000000               0.000000000               0.000000000               0.000000000               0.000000000               0.000000000               0.000000000               0.000000000               0.000000000               0.000000000               0.000000000               0.000000000               0.000000000               0.000000000               0.000000000               0.000000000               0.000000000               0.000000000               0.000000000               0.000000000               0.000000000               0.000000000               0.000000000               0.000000000               0.000000000               0.000000000               0.000000000               0.000000000               0.000000000               0.000000000               0.000000000               0.000000000               0.000000000               0.000000000               0.000000000               0.000000000               0.000000000               0.000000000               0.000000000               0.000000000               0.000000000               0.000000000               0.000000000               0.000000000               0.000000000               0.000000000               0.000000000               0.000000000               0.000000000               0.000000000               0.000000000               0.000000000               0.000000000               0.000000000               0.000000000               0.000000000               0.000000000               0.000000000               0.000000000               0.000000000               0.000000000               0.000000000               0.000000000               0.000000000               0.000000000               0.000000000               0.000000000               0.000000000               0.000000000               0.000000000               0.000000000               0.000000000               0.000000000               0.000000000               0.000000000               0.000000000               0.000000000               0.000000000               0.000000000               0.000000000               0.000000000               0.000000000               0.000000000               0.000000000               0.000000000               0.000000000               0.000000000               0.000000000               0.000000000               0.000000000               0.000000000               0.000000000               0.000000000               0.000000000               0.000000000               0.000000000               0.000000000               0.000000000               0.000000000               0.000000000               0.000000000               0.000000000               0.000000000               0.000000000               0.000000000               0.000000000               0.000000000               0.000000000               0.000000000               0.000000000               0.000000000               0.000000000               0.000000000               0.000000000               0.000000000               0.000000000               0.000000000               0.000000000               0.000000000               0.000000000               0.000000000               0.000000000               0.000000000               0.000000000               0.000000000               0.000000000               0.000000000               0.000000000               0.000000000               0.000000000               0.000000000               0.000000000               0.000000000               0.000000000               0.000000000               0.000000000               0.000000000               0.000000000               0.000000000               0.000000000               0.000000000               0.000000000 </DataArray>
</PointData>
</Piece>
</UnstructuredGrid> </VTKFile>
