<?xml version="1.0"?>
<VTKFile type="UnstructuredGrid" version="0.1">
<UnstructuredGrid>
<Piece NumberOfPoints="      1156" NumberOfCells="      1024">
<Points>
<DataArray type="Float64"                                    Name="coordinates"                                                      NumberOfComponents=" 3" format="ascii">
              0.133000000               0.000000000               0.000000000               0.155937500               0.000000000               0.000000000               0.178875000               0.000000000               0.000000000               0.201812500               0.000000000               0.000000000               0.224750000               0.000000000               0.000000000               0.247687500               0.000000000               0.000000000               0.270625000               0.000000000               0.000000000               0.293562500               0.000000000               0.000000000               0.316500000               0.000000000               0.000000000               0.339437500               0.000000000               0.000000000               0.362375000               0.000000000               0.000000000               0.385312500               0.000000000               0.000000000               0.408250000               0.000000000               0.000000000               0.431187500               0.000000000               0.000000000               0.454125000               0.000000000               0.000000000               0.477062500               0.000000000               0.000000000               0.500000000               0.000000000               0.000000000               0.132359569               0.013036280               0.000000000               0.155337096               0.016127762               0.000000000               0.178314623               0.019219245               0.000000000               0.201292150               0.022310727               0.000000000               0.224269676               0.025402210               0.000000000               0.247247203               0.028493692               0.000000000               0.270224730               0.031585175               0.000000000               0.293202257               0.034676657               0.000000000               0.316179784               0.037768140               0.000000000               0.339157311               0.040859622               0.000000000               0.362134838               0.043951105               0.000000000               0.385112365               0.047042587               0.000000000               0.408089892               0.050134070               0.000000000               0.431067419               0.053225552               0.000000000               0.454044946               0.056317035               0.000000000               0.477022473               0.059408517               0.000000000               0.500000000               0.062500000               0.000000000               0.130444442               0.025947013               0.000000000               0.153541665               0.032137825               0.000000000               0.176638887               0.038328636               0.000000000               0.199736109               0.044519448               0.000000000               0.222833332               0.050710260               0.000000000               0.245930554               0.056901071               0.000000000               0.269027776               0.063091883               0.000000000               0.292124999               0.069282695               0.000000000               0.315222221               0.075473506               0.000000000               0.338319444               0.081664318               0.000000000               0.361416666               0.087855130               0.000000000               0.384513888               0.094045942               0.000000000               0.407611111               0.100236753               0.000000000               0.430708333               0.106427565               0.000000000               0.453805555               0.112618377               0.000000000               0.476902778               0.118809188               0.000000000               0.500000000               0.125000000               0.000000000               0.127273065               0.038607862               0.000000000               0.150568498               0.047913621               0.000000000               0.173863932               0.057219379               0.000000000               0.197159365               0.066525138               0.000000000               0.220454798               0.075830897               0.000000000               0.243750232               0.085136655               0.000000000               0.267045665               0.094442414               0.000000000               0.290341099               0.103748172               0.000000000               0.313636532               0.113053931               0.000000000               0.336931966               0.122359690               0.000000000               0.360227399               0.131665448               0.000000000               0.383522833               0.140971207               0.000000000               0.406818266               0.150276966               0.000000000               0.430113700               0.159582724               0.000000000               0.453409133               0.168888483               0.000000000               0.476704567               0.178194241               0.000000000               0.500000000               0.187500000               0.000000000               0.122875978               0.050896897               0.000000000               0.146446229               0.063340840               0.000000000               0.170016481               0.075784784               0.000000000               0.193586732               0.088228728               0.000000000               0.217156983               0.100672672               0.000000000               0.240727235               0.113116616               0.000000000               0.264297486               0.125560560               0.000000000               0.287867738               0.138004504               0.000000000               0.311437989               0.150448448               0.000000000               0.335008240               0.162892392               0.000000000               0.358578492               0.175336336               0.000000000               0.382148743               0.187780280               0.000000000               0.405718994               0.200224224               0.000000000               0.429289246               0.212668168               0.000000000               0.452859497               0.225112112               0.000000000               0.476429749               0.237556056               0.000000000               0.500000000               0.250000000               0.000000000               0.117295528               0.062695766               0.000000000               0.141214558               0.078308531               0.000000000               0.165133587               0.093921295               0.000000000               0.189052617               0.109534060               0.000000000               0.212971646               0.125146824               0.000000000               0.236890676               0.140759589               0.000000000               0.260809705               0.156372354               0.000000000               0.284728735               0.171985118               0.000000000               0.308647764               0.187597883               0.000000000               0.332566794               0.203210648               0.000000000               0.356485823               0.218823412               0.000000000               0.380404853               0.234436177               0.000000000               0.404323882               0.250048941               0.000000000               0.428242912               0.265661706               0.000000000               0.452161941               0.281274471               0.000000000               0.476080971               0.296887235               0.000000000               0.500000000               0.312500000               0.000000000               0.110585458               0.073890841               0.000000000               0.134923867               0.092710163               0.000000000               0.159262276               0.111529486               0.000000000               0.183600685               0.130348808               0.000000000               0.207939094               0.149168131               0.000000000               0.232277503               0.167987453               0.000000000               0.256615912               0.186806776               0.000000000               0.280954320               0.205626098               0.000000000               0.305292729               0.224445420               0.000000000               0.329631138               0.243264743               0.000000000               0.353969547               0.262084065               0.000000000               0.378307956               0.280903388               0.000000000               0.402646365               0.299722710               0.000000000               0.426984773               0.318542033               0.000000000               0.451323182               0.337361355               0.000000000               0.475661591               0.356180678               0.000000000               0.500000000               0.375000000               0.000000000               0.102810390               0.084374307               0.000000000               0.127634741               0.106444663               0.000000000               0.152459092               0.128515018               0.000000000               0.177283442               0.150585374               0.000000000               0.202107793               0.172655730               0.000000000               0.226932143               0.194726086               0.000000000               0.251756494               0.216796442               0.000000000               0.276580845               0.238866798               0.000000000               0.301405195               0.260937153               0.000000000               0.326229546               0.283007509               0.000000000               0.351053896               0.305077865               0.000000000               0.375878247               0.327148221               0.000000000               0.400702598               0.349218577               0.000000000               0.425526948               0.371288933               0.000000000               0.450351299               0.393359288               0.000000000               0.475175649               0.415429644               0.000000000               0.500000000               0.437500000               0.000000000               0.094045202               0.094045202               0.000000000               0.119417377               0.119417377               0.000000000               0.144789552               0.144789552               0.000000000               0.170161727               0.170161727               0.000000000               0.195533901               0.195533901               0.000000000               0.220906076               0.220906076               0.000000000               0.246278251               0.246278251               0.000000000               0.271650426               0.271650426               0.000000000               0.297022601               0.297022601               0.000000000               0.322394776               0.322394776               0.000000000               0.347766951               0.347766951               0.000000000               0.373139126               0.373139126               0.000000000               0.398511300               0.398511300               0.000000000               0.423883475               0.423883475               0.000000000               0.449255650               0.449255650               0.000000000               0.474627825               0.474627825               0.000000000               0.500000000               0.500000000               0.000000000               0.084374307               0.102810390               0.000000000               0.106444663               0.127634741               0.000000000               0.128515018               0.152459092               0.000000000               0.150585374               0.177283442               0.000000000               0.172655730               0.202107793               0.000000000               0.194726086               0.226932143               0.000000000               0.216796442               0.251756494               0.000000000               0.238866798               0.276580845               0.000000000               0.260937153               0.301405195               0.000000000               0.283007509               0.326229546               0.000000000               0.305077865               0.351053896               0.000000000               0.327148221               0.375878247               0.000000000               0.349218577               0.400702598               0.000000000               0.371288933               0.425526948               0.000000000               0.393359288               0.450351299               0.000000000               0.415429644               0.475175649               0.000000000               0.437500000               0.500000000               0.000000000               0.073890841               0.110585458               0.000000000               0.092710163               0.134923867               0.000000000               0.111529486               0.159262276               0.000000000               0.130348808               0.183600685               0.000000000               0.149168131               0.207939094               0.000000000               0.167987453               0.232277503               0.000000000               0.186806776               0.256615912               0.000000000               0.205626098               0.280954320               0.000000000               0.224445420               0.305292729               0.000000000               0.243264743               0.329631138               0.000000000               0.262084065               0.353969547               0.000000000               0.280903388               0.378307956               0.000000000               0.299722710               0.402646365               0.000000000               0.318542033               0.426984773               0.000000000               0.337361355               0.451323182               0.000000000               0.356180678               0.475661591               0.000000000               0.375000000               0.500000000               0.000000000               0.062695766               0.117295528               0.000000000               0.078308531               0.141214558               0.000000000               0.093921295               0.165133587               0.000000000               0.109534060               0.189052617               0.000000000               0.125146824               0.212971646               0.000000000               0.140759589               0.236890676               0.000000000               0.156372354               0.260809705               0.000000000               0.171985118               0.284728735               0.000000000               0.187597883               0.308647764               0.000000000               0.203210648               0.332566794               0.000000000               0.218823412               0.356485823               0.000000000               0.234436177               0.380404853               0.000000000               0.250048941               0.404323882               0.000000000               0.265661706               0.428242912               0.000000000               0.281274471               0.452161941               0.000000000               0.296887235               0.476080971               0.000000000               0.312500000               0.500000000               0.000000000               0.050896897               0.122875978               0.000000000               0.063340840               0.146446229               0.000000000               0.075784784               0.170016481               0.000000000               0.088228728               0.193586732               0.000000000               0.100672672               0.217156983               0.000000000               0.113116616               0.240727235               0.000000000               0.125560560               0.264297486               0.000000000               0.138004504               0.287867738               0.000000000               0.150448448               0.311437989               0.000000000               0.162892392               0.335008240               0.000000000               0.175336336               0.358578492               0.000000000               0.187780280               0.382148743               0.000000000               0.200224224               0.405718994               0.000000000               0.212668168               0.429289246               0.000000000               0.225112112               0.452859497               0.000000000               0.237556056               0.476429749               0.000000000               0.250000000               0.500000000               0.000000000               0.038607862               0.127273065               0.000000000               0.047913621               0.150568498               0.000000000               0.057219379               0.173863932               0.000000000               0.066525138               0.197159365               0.000000000               0.075830897               0.220454798               0.000000000               0.085136655               0.243750232               0.000000000               0.094442414               0.267045665               0.000000000               0.103748172               0.290341099               0.000000000               0.113053931               0.313636532               0.000000000               0.122359690               0.336931966               0.000000000               0.131665448               0.360227399               0.000000000               0.140971207               0.383522833               0.000000000               0.150276966               0.406818266               0.000000000               0.159582724               0.430113700               0.000000000               0.168888483               0.453409133               0.000000000               0.178194241               0.476704567               0.000000000               0.187500000               0.500000000               0.000000000               0.025947013               0.130444442               0.000000000               0.032137825               0.153541665               0.000000000               0.038328636               0.176638887               0.000000000               0.044519448               0.199736109               0.000000000               0.050710260               0.222833332               0.000000000               0.056901071               0.245930554               0.000000000               0.063091883               0.269027776               0.000000000               0.069282695               0.292124999               0.000000000               0.075473506               0.315222221               0.000000000               0.081664318               0.338319444               0.000000000               0.087855130               0.361416666               0.000000000               0.094045942               0.384513888               0.000000000               0.100236753               0.407611111               0.000000000               0.106427565               0.430708333               0.000000000               0.112618377               0.453805555               0.000000000               0.118809188               0.476902778               0.000000000               0.125000000               0.500000000               0.000000000               0.013036280               0.132359569               0.000000000               0.016127762               0.155337096               0.000000000               0.019219245               0.178314623               0.000000000               0.022310727               0.201292150               0.000000000               0.025402210               0.224269676               0.000000000               0.028493692               0.247247203               0.000000000               0.031585175               0.270224730               0.000000000               0.034676657               0.293202257               0.000000000               0.037768140               0.316179784               0.000000000               0.040859622               0.339157311               0.000000000               0.043951105               0.362134838               0.000000000               0.047042587               0.385112365               0.000000000               0.050134070               0.408089892               0.000000000               0.053225552               0.431067419               0.000000000               0.056317035               0.454044946               0.000000000               0.059408517               0.477022473               0.000000000               0.062500000               0.500000000               0.000000000               0.000000000               0.133000000               0.000000000               0.000000000               0.155937500               0.000000000               0.000000000               0.178875000               0.000000000               0.000000000               0.201812500               0.000000000               0.000000000               0.224750000               0.000000000               0.000000000               0.247687500               0.000000000               0.000000000               0.270625000               0.000000000               0.000000000               0.293562500               0.000000000               0.000000000               0.316500000               0.000000000               0.000000000               0.339437500               0.000000000               0.000000000               0.362375000               0.000000000               0.000000000               0.385312500               0.000000000               0.000000000               0.408250000               0.000000000               0.000000000               0.431187500               0.000000000               0.000000000               0.454125000               0.000000000               0.000000000               0.477062500               0.000000000               0.000000000               0.500000000               0.000000000               0.133000000               0.000000000               0.000000000               0.155937500               0.000000000               0.000000000               0.178875000               0.000000000               0.000000000               0.201812500               0.000000000               0.000000000               0.224750000               0.000000000               0.000000000               0.247687500               0.000000000               0.000000000               0.270625000               0.000000000               0.000000000               0.293562500               0.000000000               0.000000000               0.316500000               0.000000000               0.000000000               0.339437500               0.000000000               0.000000000               0.362375000               0.000000000               0.000000000               0.385312500               0.000000000               0.000000000               0.408250000               0.000000000               0.000000000               0.431187500               0.000000000               0.000000000               0.454125000               0.000000000               0.000000000               0.477062500               0.000000000               0.000000000               0.500000000               0.000000000               0.000000000               0.132359569              -0.013036280               0.000000000               0.155337096              -0.016127762               0.000000000               0.178314623              -0.019219245               0.000000000               0.201292150              -0.022310727               0.000000000               0.224269676              -0.025402210               0.000000000               0.247247203              -0.028493692               0.000000000               0.270224730              -0.031585175               0.000000000               0.293202257              -0.034676657               0.000000000               0.316179784              -0.037768140               0.000000000               0.339157311              -0.040859622               0.000000000               0.362134838              -0.043951105               0.000000000               0.385112365              -0.047042587               0.000000000               0.408089892              -0.050134070               0.000000000               0.431067419              -0.053225552               0.000000000               0.454044946              -0.056317035               0.000000000               0.477022473              -0.059408517               0.000000000               0.500000000              -0.062500000               0.000000000               0.130444442              -0.025947013               0.000000000               0.153541665              -0.032137825               0.000000000               0.176638887              -0.038328636               0.000000000               0.199736109              -0.044519448               0.000000000               0.222833332              -0.050710260               0.000000000               0.245930554              -0.056901071               0.000000000               0.269027776              -0.063091883               0.000000000               0.292124999              -0.069282695               0.000000000               0.315222221              -0.075473506               0.000000000               0.338319444              -0.081664318               0.000000000               0.361416666              -0.087855130               0.000000000               0.384513888              -0.094045942               0.000000000               0.407611111              -0.100236753               0.000000000               0.430708333              -0.106427565               0.000000000               0.453805555              -0.112618377               0.000000000               0.476902778              -0.118809188               0.000000000               0.500000000              -0.125000000               0.000000000               0.127273065              -0.038607862               0.000000000               0.150568498              -0.047913621               0.000000000               0.173863932              -0.057219379               0.000000000               0.197159365              -0.066525138               0.000000000               0.220454798              -0.075830897               0.000000000               0.243750232              -0.085136655               0.000000000               0.267045665              -0.094442414               0.000000000               0.290341099              -0.103748172               0.000000000               0.313636532              -0.113053931               0.000000000               0.336931966              -0.122359690               0.000000000               0.360227399              -0.131665448               0.000000000               0.383522833              -0.140971207               0.000000000               0.406818266              -0.150276966               0.000000000               0.430113700              -0.159582724               0.000000000               0.453409133              -0.168888483               0.000000000               0.476704567              -0.178194241               0.000000000               0.500000000              -0.187500000               0.000000000               0.122875978              -0.050896897               0.000000000               0.146446229              -0.063340840               0.000000000               0.170016481              -0.075784784               0.000000000               0.193586732              -0.088228728               0.000000000               0.217156983              -0.100672672               0.000000000               0.240727235              -0.113116616               0.000000000               0.264297486              -0.125560560               0.000000000               0.287867738              -0.138004504               0.000000000               0.311437989              -0.150448448               0.000000000               0.335008240              -0.162892392               0.000000000               0.358578492              -0.175336336               0.000000000               0.382148743              -0.187780280               0.000000000               0.405718994              -0.200224224               0.000000000               0.429289246              -0.212668168               0.000000000               0.452859497              -0.225112112               0.000000000               0.476429749              -0.237556056               0.000000000               0.500000000              -0.250000000               0.000000000               0.117295528              -0.062695766               0.000000000               0.141214558              -0.078308531               0.000000000               0.165133587              -0.093921295               0.000000000               0.189052617              -0.109534060               0.000000000               0.212971646              -0.125146824               0.000000000               0.236890676              -0.140759589               0.000000000               0.260809705              -0.156372354               0.000000000               0.284728735              -0.171985118               0.000000000               0.308647764              -0.187597883               0.000000000               0.332566794              -0.203210648               0.000000000               0.356485823              -0.218823412               0.000000000               0.380404853              -0.234436177               0.000000000               0.404323882              -0.250048941               0.000000000               0.428242912              -0.265661706               0.000000000               0.452161941              -0.281274471               0.000000000               0.476080971              -0.296887235               0.000000000               0.500000000              -0.312500000               0.000000000               0.110585458              -0.073890841               0.000000000               0.134923867              -0.092710163               0.000000000               0.159262276              -0.111529486               0.000000000               0.183600685              -0.130348808               0.000000000               0.207939094              -0.149168131               0.000000000               0.232277503              -0.167987453               0.000000000               0.256615912              -0.186806776               0.000000000               0.280954320              -0.205626098               0.000000000               0.305292729              -0.224445420               0.000000000               0.329631138              -0.243264743               0.000000000               0.353969547              -0.262084065               0.000000000               0.378307956              -0.280903388               0.000000000               0.402646365              -0.299722710               0.000000000               0.426984773              -0.318542033               0.000000000               0.451323182              -0.337361355               0.000000000               0.475661591              -0.356180678               0.000000000               0.500000000              -0.375000000               0.000000000               0.102810390              -0.084374307               0.000000000               0.127634741              -0.106444663               0.000000000               0.152459092              -0.128515018               0.000000000               0.177283442              -0.150585374               0.000000000               0.202107793              -0.172655730               0.000000000               0.226932143              -0.194726086               0.000000000               0.251756494              -0.216796442               0.000000000               0.276580845              -0.238866798               0.000000000               0.301405195              -0.260937153               0.000000000               0.326229546              -0.283007509               0.000000000               0.351053896              -0.305077865               0.000000000               0.375878247              -0.327148221               0.000000000               0.400702598              -0.349218577               0.000000000               0.425526948              -0.371288933               0.000000000               0.450351299              -0.393359288               0.000000000               0.475175649              -0.415429644               0.000000000               0.500000000              -0.437500000               0.000000000               0.094045202              -0.094045202               0.000000000               0.119417377              -0.119417377               0.000000000               0.144789552              -0.144789552               0.000000000               0.170161727              -0.170161727               0.000000000               0.195533901              -0.195533901               0.000000000               0.220906076              -0.220906076               0.000000000               0.246278251              -0.246278251               0.000000000               0.271650426              -0.271650426               0.000000000               0.297022601              -0.297022601               0.000000000               0.322394776              -0.322394776               0.000000000               0.347766951              -0.347766951               0.000000000               0.373139126              -0.373139126               0.000000000               0.398511300              -0.398511300               0.000000000               0.423883475              -0.423883475               0.000000000               0.449255650              -0.449255650               0.000000000               0.474627825              -0.474627825               0.000000000               0.500000000              -0.500000000               0.000000000               0.084374307              -0.102810390               0.000000000               0.106444663              -0.127634741               0.000000000               0.128515018              -0.152459092               0.000000000               0.150585374              -0.177283442               0.000000000               0.172655730              -0.202107793               0.000000000               0.194726086              -0.226932143               0.000000000               0.216796442              -0.251756494               0.000000000               0.238866798              -0.276580845               0.000000000               0.260937153              -0.301405195               0.000000000               0.283007509              -0.326229546               0.000000000               0.305077865              -0.351053896               0.000000000               0.327148221              -0.375878247               0.000000000               0.349218577              -0.400702598               0.000000000               0.371288933              -0.425526948               0.000000000               0.393359288              -0.450351299               0.000000000               0.415429644              -0.475175649               0.000000000               0.437500000              -0.500000000               0.000000000               0.073890841              -0.110585458               0.000000000               0.092710163              -0.134923867               0.000000000               0.111529486              -0.159262276               0.000000000               0.130348808              -0.183600685               0.000000000               0.149168131              -0.207939094               0.000000000               0.167987453              -0.232277503               0.000000000               0.186806776              -0.256615912               0.000000000               0.205626098              -0.280954320               0.000000000               0.224445420              -0.305292729               0.000000000               0.243264743              -0.329631138               0.000000000               0.262084065              -0.353969547               0.000000000               0.280903388              -0.378307956               0.000000000               0.299722710              -0.402646365               0.000000000               0.318542033              -0.426984773               0.000000000               0.337361355              -0.451323182               0.000000000               0.356180678              -0.475661591               0.000000000               0.375000000              -0.500000000               0.000000000               0.062695766              -0.117295528               0.000000000               0.078308531              -0.141214558               0.000000000               0.093921295              -0.165133587               0.000000000               0.109534060              -0.189052617               0.000000000               0.125146824              -0.212971646               0.000000000               0.140759589              -0.236890676               0.000000000               0.156372354              -0.260809705               0.000000000               0.171985118              -0.284728735               0.000000000               0.187597883              -0.308647764               0.000000000               0.203210648              -0.332566794               0.000000000               0.218823412              -0.356485823               0.000000000               0.234436177              -0.380404853               0.000000000               0.250048941              -0.404323882               0.000000000               0.265661706              -0.428242912               0.000000000               0.281274471              -0.452161941               0.000000000               0.296887235              -0.476080971               0.000000000               0.312500000              -0.500000000               0.000000000               0.050896897              -0.122875978               0.000000000               0.063340840              -0.146446229               0.000000000               0.075784784              -0.170016481               0.000000000               0.088228728              -0.193586732               0.000000000               0.100672672              -0.217156983               0.000000000               0.113116616              -0.240727235               0.000000000               0.125560560              -0.264297486               0.000000000               0.138004504              -0.287867738               0.000000000               0.150448448              -0.311437989               0.000000000               0.162892392              -0.335008240               0.000000000               0.175336336              -0.358578492               0.000000000               0.187780280              -0.382148743               0.000000000               0.200224224              -0.405718994               0.000000000               0.212668168              -0.429289246               0.000000000               0.225112112              -0.452859497               0.000000000               0.237556056              -0.476429749               0.000000000               0.250000000              -0.500000000               0.000000000               0.038607862              -0.127273065               0.000000000               0.047913621              -0.150568498               0.000000000               0.057219379              -0.173863932               0.000000000               0.066525138              -0.197159365               0.000000000               0.075830897              -0.220454798               0.000000000               0.085136655              -0.243750232               0.000000000               0.094442414              -0.267045665               0.000000000               0.103748172              -0.290341099               0.000000000               0.113053931              -0.313636532               0.000000000               0.122359690              -0.336931966               0.000000000               0.131665448              -0.360227399               0.000000000               0.140971207              -0.383522833               0.000000000               0.150276966              -0.406818266               0.000000000               0.159582724              -0.430113700               0.000000000               0.168888483              -0.453409133               0.000000000               0.178194241              -0.476704567               0.000000000               0.187500000              -0.500000000               0.000000000               0.025947013              -0.130444442               0.000000000               0.032137825              -0.153541665               0.000000000               0.038328636              -0.176638887               0.000000000               0.044519448              -0.199736109               0.000000000               0.050710260              -0.222833332               0.000000000               0.056901071              -0.245930554               0.000000000               0.063091883              -0.269027776               0.000000000               0.069282695              -0.292124999               0.000000000               0.075473506              -0.315222221               0.000000000               0.081664318              -0.338319444               0.000000000               0.087855130              -0.361416666               0.000000000               0.094045942              -0.384513888               0.000000000               0.100236753              -0.407611111               0.000000000               0.106427565              -0.430708333               0.000000000               0.112618377              -0.453805555               0.000000000               0.118809188              -0.476902778               0.000000000               0.125000000              -0.500000000               0.000000000               0.013036280              -0.132359569               0.000000000               0.016127762              -0.155337096               0.000000000               0.019219245              -0.178314623               0.000000000               0.022310727              -0.201292150               0.000000000               0.025402210              -0.224269676               0.000000000               0.028493692              -0.247247203               0.000000000               0.031585175              -0.270224730               0.000000000               0.034676657              -0.293202257               0.000000000               0.037768140              -0.316179784               0.000000000               0.040859622              -0.339157311               0.000000000               0.043951105              -0.362134838               0.000000000               0.047042587              -0.385112365               0.000000000               0.050134070              -0.408089892               0.000000000               0.053225552              -0.431067419               0.000000000               0.056317035              -0.454044946               0.000000000               0.059408517              -0.477022473               0.000000000               0.062500000              -0.500000000               0.000000000               0.000000000              -0.133000000               0.000000000               0.000000000              -0.155937500               0.000000000               0.000000000              -0.178875000               0.000000000               0.000000000              -0.201812500               0.000000000               0.000000000              -0.224750000               0.000000000               0.000000000              -0.247687500               0.000000000               0.000000000              -0.270625000               0.000000000               0.000000000              -0.293562500               0.000000000               0.000000000              -0.316500000               0.000000000               0.000000000              -0.339437500               0.000000000               0.000000000              -0.362375000               0.000000000               0.000000000              -0.385312500               0.000000000               0.000000000              -0.408250000               0.000000000               0.000000000              -0.431187500               0.000000000               0.000000000              -0.454125000               0.000000000               0.000000000              -0.477062500               0.000000000               0.000000000              -0.500000000               0.000000000              -0.133000000               0.000000000               0.000000000              -0.155937500               0.000000000               0.000000000              -0.178875000               0.000000000               0.000000000              -0.201812500               0.000000000               0.000000000              -0.224750000               0.000000000               0.000000000              -0.247687500               0.000000000               0.000000000              -0.270625000               0.000000000               0.000000000              -0.293562500               0.000000000               0.000000000              -0.316500000               0.000000000               0.000000000              -0.339437500               0.000000000               0.000000000              -0.362375000               0.000000000               0.000000000              -0.385312500               0.000000000               0.000000000              -0.408250000               0.000000000               0.000000000              -0.431187500               0.000000000               0.000000000              -0.454125000               0.000000000               0.000000000              -0.477062500               0.000000000               0.000000000              -0.500000000               0.000000000               0.000000000              -0.132359569              -0.013036280               0.000000000              -0.155337096              -0.016127762               0.000000000              -0.178314623              -0.019219245               0.000000000              -0.201292150              -0.022310727               0.000000000              -0.224269676              -0.025402210               0.000000000              -0.247247203              -0.028493692               0.000000000              -0.270224730              -0.031585175               0.000000000              -0.293202257              -0.034676657               0.000000000              -0.316179784              -0.037768140               0.000000000              -0.339157311              -0.040859622               0.000000000              -0.362134838              -0.043951105               0.000000000              -0.385112365              -0.047042587               0.000000000              -0.408089892              -0.050134070               0.000000000              -0.431067419              -0.053225552               0.000000000              -0.454044946              -0.056317035               0.000000000              -0.477022473              -0.059408517               0.000000000              -0.500000000              -0.062500000               0.000000000              -0.130444442              -0.025947013               0.000000000              -0.153541665              -0.032137825               0.000000000              -0.176638887              -0.038328636               0.000000000              -0.199736109              -0.044519448               0.000000000              -0.222833332              -0.050710260               0.000000000              -0.245930554              -0.056901071               0.000000000              -0.269027776              -0.063091883               0.000000000              -0.292124999              -0.069282695               0.000000000              -0.315222221              -0.075473506               0.000000000              -0.338319444              -0.081664318               0.000000000              -0.361416666              -0.087855130               0.000000000              -0.384513888              -0.094045942               0.000000000              -0.407611111              -0.100236753               0.000000000              -0.430708333              -0.106427565               0.000000000              -0.453805555              -0.112618377               0.000000000              -0.476902778              -0.118809188               0.000000000              -0.500000000              -0.125000000               0.000000000              -0.127273065              -0.038607862               0.000000000              -0.150568498              -0.047913621               0.000000000              -0.173863932              -0.057219379               0.000000000              -0.197159365              -0.066525138               0.000000000              -0.220454798              -0.075830897               0.000000000              -0.243750232              -0.085136655               0.000000000              -0.267045665              -0.094442414               0.000000000              -0.290341099              -0.103748172               0.000000000              -0.313636532              -0.113053931               0.000000000              -0.336931966              -0.122359690               0.000000000              -0.360227399              -0.131665448               0.000000000              -0.383522833              -0.140971207               0.000000000              -0.406818266              -0.150276966               0.000000000              -0.430113700              -0.159582724               0.000000000              -0.453409133              -0.168888483               0.000000000              -0.476704567              -0.178194241               0.000000000              -0.500000000              -0.187500000               0.000000000              -0.122875978              -0.050896897               0.000000000              -0.146446229              -0.063340840               0.000000000              -0.170016481              -0.075784784               0.000000000              -0.193586732              -0.088228728               0.000000000              -0.217156983              -0.100672672               0.000000000              -0.240727235              -0.113116616               0.000000000              -0.264297486              -0.125560560               0.000000000              -0.287867738              -0.138004504               0.000000000              -0.311437989              -0.150448448               0.000000000              -0.335008240              -0.162892392               0.000000000              -0.358578492              -0.175336336               0.000000000              -0.382148743              -0.187780280               0.000000000              -0.405718994              -0.200224224               0.000000000              -0.429289246              -0.212668168               0.000000000              -0.452859497              -0.225112112               0.000000000              -0.476429749              -0.237556056               0.000000000              -0.500000000              -0.250000000               0.000000000              -0.117295528              -0.062695766               0.000000000              -0.141214558              -0.078308531               0.000000000              -0.165133587              -0.093921295               0.000000000              -0.189052617              -0.109534060               0.000000000              -0.212971646              -0.125146824               0.000000000              -0.236890676              -0.140759589               0.000000000              -0.260809705              -0.156372354               0.000000000              -0.284728735              -0.171985118               0.000000000              -0.308647764              -0.187597883               0.000000000              -0.332566794              -0.203210648               0.000000000              -0.356485823              -0.218823412               0.000000000              -0.380404853              -0.234436177               0.000000000              -0.404323882              -0.250048941               0.000000000              -0.428242912              -0.265661706               0.000000000              -0.452161941              -0.281274471               0.000000000              -0.476080971              -0.296887235               0.000000000              -0.500000000              -0.312500000               0.000000000              -0.110585458              -0.073890841               0.000000000              -0.134923867              -0.092710163               0.000000000              -0.159262276              -0.111529486               0.000000000              -0.183600685              -0.130348808               0.000000000              -0.207939094              -0.149168131               0.000000000              -0.232277503              -0.167987453               0.000000000              -0.256615912              -0.186806776               0.000000000              -0.280954320              -0.205626098               0.000000000              -0.305292729              -0.224445420               0.000000000              -0.329631138              -0.243264743               0.000000000              -0.353969547              -0.262084065               0.000000000              -0.378307956              -0.280903388               0.000000000              -0.402646365              -0.299722710               0.000000000              -0.426984773              -0.318542033               0.000000000              -0.451323182              -0.337361355               0.000000000              -0.475661591              -0.356180678               0.000000000              -0.500000000              -0.375000000               0.000000000              -0.102810390              -0.084374307               0.000000000              -0.127634741              -0.106444663               0.000000000              -0.152459092              -0.128515018               0.000000000              -0.177283442              -0.150585374               0.000000000              -0.202107793              -0.172655730               0.000000000              -0.226932143              -0.194726086               0.000000000              -0.251756494              -0.216796442               0.000000000              -0.276580845              -0.238866798               0.000000000              -0.301405195              -0.260937153               0.000000000              -0.326229546              -0.283007509               0.000000000              -0.351053896              -0.305077865               0.000000000              -0.375878247              -0.327148221               0.000000000              -0.400702598              -0.349218577               0.000000000              -0.425526948              -0.371288933               0.000000000              -0.450351299              -0.393359288               0.000000000              -0.475175649              -0.415429644               0.000000000              -0.500000000              -0.437500000               0.000000000              -0.094045202              -0.094045202               0.000000000              -0.119417377              -0.119417377               0.000000000              -0.144789552              -0.144789552               0.000000000              -0.170161727              -0.170161727               0.000000000              -0.195533901              -0.195533901               0.000000000              -0.220906076              -0.220906076               0.000000000              -0.246278251              -0.246278251               0.000000000              -0.271650426              -0.271650426               0.000000000              -0.297022601              -0.297022601               0.000000000              -0.322394776              -0.322394776               0.000000000              -0.347766951              -0.347766951               0.000000000              -0.373139126              -0.373139126               0.000000000              -0.398511300              -0.398511300               0.000000000              -0.423883475              -0.423883475               0.000000000              -0.449255650              -0.449255650               0.000000000              -0.474627825              -0.474627825               0.000000000              -0.500000000              -0.500000000               0.000000000              -0.084374307              -0.102810390               0.000000000              -0.106444663              -0.127634741               0.000000000              -0.128515018              -0.152459092               0.000000000              -0.150585374              -0.177283442               0.000000000              -0.172655730              -0.202107793               0.000000000              -0.194726086              -0.226932143               0.000000000              -0.216796442              -0.251756494               0.000000000              -0.238866798              -0.276580845               0.000000000              -0.260937153              -0.301405195               0.000000000              -0.283007509              -0.326229546               0.000000000              -0.305077865              -0.351053896               0.000000000              -0.327148221              -0.375878247               0.000000000              -0.349218577              -0.400702598               0.000000000              -0.371288933              -0.425526948               0.000000000              -0.393359288              -0.450351299               0.000000000              -0.415429644              -0.475175649               0.000000000              -0.437500000              -0.500000000               0.000000000              -0.073890841              -0.110585458               0.000000000              -0.092710163              -0.134923867               0.000000000              -0.111529486              -0.159262276               0.000000000              -0.130348808              -0.183600685               0.000000000              -0.149168131              -0.207939094               0.000000000              -0.167987453              -0.232277503               0.000000000              -0.186806776              -0.256615912               0.000000000              -0.205626098              -0.280954320               0.000000000              -0.224445420              -0.305292729               0.000000000              -0.243264743              -0.329631138               0.000000000              -0.262084065              -0.353969547               0.000000000              -0.280903388              -0.378307956               0.000000000              -0.299722710              -0.402646365               0.000000000              -0.318542033              -0.426984773               0.000000000              -0.337361355              -0.451323182               0.000000000              -0.356180678              -0.475661591               0.000000000              -0.375000000              -0.500000000               0.000000000              -0.062695766              -0.117295528               0.000000000              -0.078308531              -0.141214558               0.000000000              -0.093921295              -0.165133587               0.000000000              -0.109534060              -0.189052617               0.000000000              -0.125146824              -0.212971646               0.000000000              -0.140759589              -0.236890676               0.000000000              -0.156372354              -0.260809705               0.000000000              -0.171985118              -0.284728735               0.000000000              -0.187597883              -0.308647764               0.000000000              -0.203210648              -0.332566794               0.000000000              -0.218823412              -0.356485823               0.000000000              -0.234436177              -0.380404853               0.000000000              -0.250048941              -0.404323882               0.000000000              -0.265661706              -0.428242912               0.000000000              -0.281274471              -0.452161941               0.000000000              -0.296887235              -0.476080971               0.000000000              -0.312500000              -0.500000000               0.000000000              -0.050896897              -0.122875978               0.000000000              -0.063340840              -0.146446229               0.000000000              -0.075784784              -0.170016481               0.000000000              -0.088228728              -0.193586732               0.000000000              -0.100672672              -0.217156983               0.000000000              -0.113116616              -0.240727235               0.000000000              -0.125560560              -0.264297486               0.000000000              -0.138004504              -0.287867738               0.000000000              -0.150448448              -0.311437989               0.000000000              -0.162892392              -0.335008240               0.000000000              -0.175336336              -0.358578492               0.000000000              -0.187780280              -0.382148743               0.000000000              -0.200224224              -0.405718994               0.000000000              -0.212668168              -0.429289246               0.000000000              -0.225112112              -0.452859497               0.000000000              -0.237556056              -0.476429749               0.000000000              -0.250000000              -0.500000000               0.000000000              -0.038607862              -0.127273065               0.000000000              -0.047913621              -0.150568498               0.000000000              -0.057219379              -0.173863932               0.000000000              -0.066525138              -0.197159365               0.000000000              -0.075830897              -0.220454798               0.000000000              -0.085136655              -0.243750232               0.000000000              -0.094442414              -0.267045665               0.000000000              -0.103748172              -0.290341099               0.000000000              -0.113053931              -0.313636532               0.000000000              -0.122359690              -0.336931966               0.000000000              -0.131665448              -0.360227399               0.000000000              -0.140971207              -0.383522833               0.000000000              -0.150276966              -0.406818266               0.000000000              -0.159582724              -0.430113700               0.000000000              -0.168888483              -0.453409133               0.000000000              -0.178194241              -0.476704567               0.000000000              -0.187500000              -0.500000000               0.000000000              -0.025947013              -0.130444442               0.000000000              -0.032137825              -0.153541665               0.000000000              -0.038328636              -0.176638887               0.000000000              -0.044519448              -0.199736109               0.000000000              -0.050710260              -0.222833332               0.000000000              -0.056901071              -0.245930554               0.000000000              -0.063091883              -0.269027776               0.000000000              -0.069282695              -0.292124999               0.000000000              -0.075473506              -0.315222221               0.000000000              -0.081664318              -0.338319444               0.000000000              -0.087855130              -0.361416666               0.000000000              -0.094045942              -0.384513888               0.000000000              -0.100236753              -0.407611111               0.000000000              -0.106427565              -0.430708333               0.000000000              -0.112618377              -0.453805555               0.000000000              -0.118809188              -0.476902778               0.000000000              -0.125000000              -0.500000000               0.000000000              -0.013036280              -0.132359569               0.000000000              -0.016127762              -0.155337096               0.000000000              -0.019219245              -0.178314623               0.000000000              -0.022310727              -0.201292150               0.000000000              -0.025402210              -0.224269676               0.000000000              -0.028493692              -0.247247203               0.000000000              -0.031585175              -0.270224730               0.000000000              -0.034676657              -0.293202257               0.000000000              -0.037768140              -0.316179784               0.000000000              -0.040859622              -0.339157311               0.000000000              -0.043951105              -0.362134838               0.000000000              -0.047042587              -0.385112365               0.000000000              -0.050134070              -0.408089892               0.000000000              -0.053225552              -0.431067419               0.000000000              -0.056317035              -0.454044946               0.000000000              -0.059408517              -0.477022473               0.000000000              -0.062500000              -0.500000000               0.000000000               0.000000000              -0.133000000               0.000000000               0.000000000              -0.155937500               0.000000000               0.000000000              -0.178875000               0.000000000               0.000000000              -0.201812500               0.000000000               0.000000000              -0.224750000               0.000000000               0.000000000              -0.247687500               0.000000000               0.000000000              -0.270625000               0.000000000               0.000000000              -0.293562500               0.000000000               0.000000000              -0.316500000               0.000000000               0.000000000              -0.339437500               0.000000000               0.000000000              -0.362375000               0.000000000               0.000000000              -0.385312500               0.000000000               0.000000000              -0.408250000               0.000000000               0.000000000              -0.431187500               0.000000000               0.000000000              -0.454125000               0.000000000               0.000000000              -0.477062500               0.000000000               0.000000000              -0.500000000               0.000000000              -0.133000000               0.000000000               0.000000000              -0.155937500               0.000000000               0.000000000              -0.178875000               0.000000000               0.000000000              -0.201812500               0.000000000               0.000000000              -0.224750000               0.000000000               0.000000000              -0.247687500               0.000000000               0.000000000              -0.270625000               0.000000000               0.000000000              -0.293562500               0.000000000               0.000000000              -0.316500000               0.000000000               0.000000000              -0.339437500               0.000000000               0.000000000              -0.362375000               0.000000000               0.000000000              -0.385312500               0.000000000               0.000000000              -0.408250000               0.000000000               0.000000000              -0.431187500               0.000000000               0.000000000              -0.454125000               0.000000000               0.000000000              -0.477062500               0.000000000               0.000000000              -0.500000000               0.000000000               0.000000000              -0.132359569               0.013036280               0.000000000              -0.155337096               0.016127762               0.000000000              -0.178314623               0.019219245               0.000000000              -0.201292150               0.022310727               0.000000000              -0.224269676               0.025402210               0.000000000              -0.247247203               0.028493692               0.000000000              -0.270224730               0.031585175               0.000000000              -0.293202257               0.034676657               0.000000000              -0.316179784               0.037768140               0.000000000              -0.339157311               0.040859622               0.000000000              -0.362134838               0.043951105               0.000000000              -0.385112365               0.047042587               0.000000000              -0.408089892               0.050134070               0.000000000              -0.431067419               0.053225552               0.000000000              -0.454044946               0.056317035               0.000000000              -0.477022473               0.059408517               0.000000000              -0.500000000               0.062500000               0.000000000              -0.130444442               0.025947013               0.000000000              -0.153541665               0.032137825               0.000000000              -0.176638887               0.038328636               0.000000000              -0.199736109               0.044519448               0.000000000              -0.222833332               0.050710260               0.000000000              -0.245930554               0.056901071               0.000000000              -0.269027776               0.063091883               0.000000000              -0.292124999               0.069282695               0.000000000              -0.315222221               0.075473506               0.000000000              -0.338319444               0.081664318               0.000000000              -0.361416666               0.087855130               0.000000000              -0.384513888               0.094045942               0.000000000              -0.407611111               0.100236753               0.000000000              -0.430708333               0.106427565               0.000000000              -0.453805555               0.112618377               0.000000000              -0.476902778               0.118809188               0.000000000              -0.500000000               0.125000000               0.000000000              -0.127273065               0.038607862               0.000000000              -0.150568498               0.047913621               0.000000000              -0.173863932               0.057219379               0.000000000              -0.197159365               0.066525138               0.000000000              -0.220454798               0.075830897               0.000000000              -0.243750232               0.085136655               0.000000000              -0.267045665               0.094442414               0.000000000              -0.290341099               0.103748172               0.000000000              -0.313636532               0.113053931               0.000000000              -0.336931966               0.122359690               0.000000000              -0.360227399               0.131665448               0.000000000              -0.383522833               0.140971207               0.000000000              -0.406818266               0.150276966               0.000000000              -0.430113700               0.159582724               0.000000000              -0.453409133               0.168888483               0.000000000              -0.476704567               0.178194241               0.000000000              -0.500000000               0.187500000               0.000000000              -0.122875978               0.050896897               0.000000000              -0.146446229               0.063340840               0.000000000              -0.170016481               0.075784784               0.000000000              -0.193586732               0.088228728               0.000000000              -0.217156983               0.100672672               0.000000000              -0.240727235               0.113116616               0.000000000              -0.264297486               0.125560560               0.000000000              -0.287867738               0.138004504               0.000000000              -0.311437989               0.150448448               0.000000000              -0.335008240               0.162892392               0.000000000              -0.358578492               0.175336336               0.000000000              -0.382148743               0.187780280               0.000000000              -0.405718994               0.200224224               0.000000000              -0.429289246               0.212668168               0.000000000              -0.452859497               0.225112112               0.000000000              -0.476429749               0.237556056               0.000000000              -0.500000000               0.250000000               0.000000000              -0.117295528               0.062695766               0.000000000              -0.141214558               0.078308531               0.000000000              -0.165133587               0.093921295               0.000000000              -0.189052617               0.109534060               0.000000000              -0.212971646               0.125146824               0.000000000              -0.236890676               0.140759589               0.000000000              -0.260809705               0.156372354               0.000000000              -0.284728735               0.171985118               0.000000000              -0.308647764               0.187597883               0.000000000              -0.332566794               0.203210648               0.000000000              -0.356485823               0.218823412               0.000000000              -0.380404853               0.234436177               0.000000000              -0.404323882               0.250048941               0.000000000              -0.428242912               0.265661706               0.000000000              -0.452161941               0.281274471               0.000000000              -0.476080971               0.296887235               0.000000000              -0.500000000               0.312500000               0.000000000              -0.110585458               0.073890841               0.000000000              -0.134923867               0.092710163               0.000000000              -0.159262276               0.111529486               0.000000000              -0.183600685               0.130348808               0.000000000              -0.207939094               0.149168131               0.000000000              -0.232277503               0.167987453               0.000000000              -0.256615912               0.186806776               0.000000000              -0.280954320               0.205626098               0.000000000              -0.305292729               0.224445420               0.000000000              -0.329631138               0.243264743               0.000000000              -0.353969547               0.262084065               0.000000000              -0.378307956               0.280903388               0.000000000              -0.402646365               0.299722710               0.000000000              -0.426984773               0.318542033               0.000000000              -0.451323182               0.337361355               0.000000000              -0.475661591               0.356180678               0.000000000              -0.500000000               0.375000000               0.000000000              -0.102810390               0.084374307               0.000000000              -0.127634741               0.106444663               0.000000000              -0.152459092               0.128515018               0.000000000              -0.177283442               0.150585374               0.000000000              -0.202107793               0.172655730               0.000000000              -0.226932143               0.194726086               0.000000000              -0.251756494               0.216796442               0.000000000              -0.276580845               0.238866798               0.000000000              -0.301405195               0.260937153               0.000000000              -0.326229546               0.283007509               0.000000000              -0.351053896               0.305077865               0.000000000              -0.375878247               0.327148221               0.000000000              -0.400702598               0.349218577               0.000000000              -0.425526948               0.371288933               0.000000000              -0.450351299               0.393359288               0.000000000              -0.475175649               0.415429644               0.000000000              -0.500000000               0.437500000               0.000000000              -0.094045202               0.094045202               0.000000000              -0.119417377               0.119417377               0.000000000              -0.144789552               0.144789552               0.000000000              -0.170161727               0.170161727               0.000000000              -0.195533901               0.195533901               0.000000000              -0.220906076               0.220906076               0.000000000              -0.246278251               0.246278251               0.000000000              -0.271650426               0.271650426               0.000000000              -0.297022601               0.297022601               0.000000000              -0.322394776               0.322394776               0.000000000              -0.347766951               0.347766951               0.000000000              -0.373139126               0.373139126               0.000000000              -0.398511300               0.398511300               0.000000000              -0.423883475               0.423883475               0.000000000              -0.449255650               0.449255650               0.000000000              -0.474627825               0.474627825               0.000000000              -0.500000000               0.500000000               0.000000000              -0.084374307               0.102810390               0.000000000              -0.106444663               0.127634741               0.000000000              -0.128515018               0.152459092               0.000000000              -0.150585374               0.177283442               0.000000000              -0.172655730               0.202107793               0.000000000              -0.194726086               0.226932143               0.000000000              -0.216796442               0.251756494               0.000000000              -0.238866798               0.276580845               0.000000000              -0.260937153               0.301405195               0.000000000              -0.283007509               0.326229546               0.000000000              -0.305077865               0.351053896               0.000000000              -0.327148221               0.375878247               0.000000000              -0.349218577               0.400702598               0.000000000              -0.371288933               0.425526948               0.000000000              -0.393359288               0.450351299               0.000000000              -0.415429644               0.475175649               0.000000000              -0.437500000               0.500000000               0.000000000              -0.073890841               0.110585458               0.000000000              -0.092710163               0.134923867               0.000000000              -0.111529486               0.159262276               0.000000000              -0.130348808               0.183600685               0.000000000              -0.149168131               0.207939094               0.000000000              -0.167987453               0.232277503               0.000000000              -0.186806776               0.256615912               0.000000000              -0.205626098               0.280954320               0.000000000              -0.224445420               0.305292729               0.000000000              -0.243264743               0.329631138               0.000000000              -0.262084065               0.353969547               0.000000000              -0.280903388               0.378307956               0.000000000              -0.299722710               0.402646365               0.000000000              -0.318542033               0.426984773               0.000000000              -0.337361355               0.451323182               0.000000000              -0.356180678               0.475661591               0.000000000              -0.375000000               0.500000000               0.000000000              -0.062695766               0.117295528               0.000000000              -0.078308531               0.141214558               0.000000000              -0.093921295               0.165133587               0.000000000              -0.109534060               0.189052617               0.000000000              -0.125146824               0.212971646               0.000000000              -0.140759589               0.236890676               0.000000000              -0.156372354               0.260809705               0.000000000              -0.171985118               0.284728735               0.000000000              -0.187597883               0.308647764               0.000000000              -0.203210648               0.332566794               0.000000000              -0.218823412               0.356485823               0.000000000              -0.234436177               0.380404853               0.000000000              -0.250048941               0.404323882               0.000000000              -0.265661706               0.428242912               0.000000000              -0.281274471               0.452161941               0.000000000              -0.296887235               0.476080971               0.000000000              -0.312500000               0.500000000               0.000000000              -0.050896897               0.122875978               0.000000000              -0.063340840               0.146446229               0.000000000              -0.075784784               0.170016481               0.000000000              -0.088228728               0.193586732               0.000000000              -0.100672672               0.217156983               0.000000000              -0.113116616               0.240727235               0.000000000              -0.125560560               0.264297486               0.000000000              -0.138004504               0.287867738               0.000000000              -0.150448448               0.311437989               0.000000000              -0.162892392               0.335008240               0.000000000              -0.175336336               0.358578492               0.000000000              -0.187780280               0.382148743               0.000000000              -0.200224224               0.405718994               0.000000000              -0.212668168               0.429289246               0.000000000              -0.225112112               0.452859497               0.000000000              -0.237556056               0.476429749               0.000000000              -0.250000000               0.500000000               0.000000000              -0.038607862               0.127273065               0.000000000              -0.047913621               0.150568498               0.000000000              -0.057219379               0.173863932               0.000000000              -0.066525138               0.197159365               0.000000000              -0.075830897               0.220454798               0.000000000              -0.085136655               0.243750232               0.000000000              -0.094442414               0.267045665               0.000000000              -0.103748172               0.290341099               0.000000000              -0.113053931               0.313636532               0.000000000              -0.122359690               0.336931966               0.000000000              -0.131665448               0.360227399               0.000000000              -0.140971207               0.383522833               0.000000000              -0.150276966               0.406818266               0.000000000              -0.159582724               0.430113700               0.000000000              -0.168888483               0.453409133               0.000000000              -0.178194241               0.476704567               0.000000000              -0.187500000               0.500000000               0.000000000              -0.025947013               0.130444442               0.000000000              -0.032137825               0.153541665               0.000000000              -0.038328636               0.176638887               0.000000000              -0.044519448               0.199736109               0.000000000              -0.050710260               0.222833332               0.000000000              -0.056901071               0.245930554               0.000000000              -0.063091883               0.269027776               0.000000000              -0.069282695               0.292124999               0.000000000              -0.075473506               0.315222221               0.000000000              -0.081664318               0.338319444               0.000000000              -0.087855130               0.361416666               0.000000000              -0.094045942               0.384513888               0.000000000              -0.100236753               0.407611111               0.000000000              -0.106427565               0.430708333               0.000000000              -0.112618377               0.453805555               0.000000000              -0.118809188               0.476902778               0.000000000              -0.125000000               0.500000000               0.000000000              -0.013036280               0.132359569               0.000000000              -0.016127762               0.155337096               0.000000000              -0.019219245               0.178314623               0.000000000              -0.022310727               0.201292150               0.000000000              -0.025402210               0.224269676               0.000000000              -0.028493692               0.247247203               0.000000000              -0.031585175               0.270224730               0.000000000              -0.034676657               0.293202257               0.000000000              -0.037768140               0.316179784               0.000000000              -0.040859622               0.339157311               0.000000000              -0.043951105               0.362134838               0.000000000              -0.047042587               0.385112365               0.000000000              -0.050134070               0.408089892               0.000000000              -0.053225552               0.431067419               0.000000000              -0.056317035               0.454044946               0.000000000              -0.059408517               0.477022473               0.000000000              -0.062500000               0.500000000               0.000000000               0.000000000               0.133000000               0.000000000               0.000000000               0.155937500               0.000000000               0.000000000               0.178875000               0.000000000               0.000000000               0.201812500               0.000000000               0.000000000               0.224750000               0.000000000               0.000000000               0.247687500               0.000000000               0.000000000               0.270625000               0.000000000               0.000000000               0.293562500               0.000000000               0.000000000               0.316500000               0.000000000               0.000000000               0.339437500               0.000000000               0.000000000               0.362375000               0.000000000               0.000000000               0.385312500               0.000000000               0.000000000               0.408250000               0.000000000               0.000000000               0.431187500               0.000000000               0.000000000               0.454125000               0.000000000               0.000000000               0.477062500               0.000000000               0.000000000               0.500000000               0.000000000 </DataArray>
</Points>
<Cells>
<DataArray type="Int32"                                    Name="connectivity"                                                      NumberOfComponents=" 1" format="ascii">
         0          1         18         17          1          2         19         18          2          3         20         19          3          4         21         20          4          5         22         21          5          6         23         22          6          7         24         23          7          8         25         24          8          9         26         25          9         10         27         26         10         11         28         27         11         12         29         28         12         13         30         29         13         14         31         30         14         15         32         31         15         16         33         32         17         18         35         34         18         19         36         35         19         20         37         36         20         21         38         37         21         22         39         38         22         23         40         39         23         24         41         40         24         25         42         41         25         26         43         42         26         27         44         43         27         28         45         44         28         29         46         45         29         30         47         46         30         31         48         47         31         32         49         48         32         33         50         49         34         35         52         51         35         36         53         52         36         37         54         53         37         38         55         54         38         39         56         55         39         40         57         56         40         41         58         57         41         42         59         58         42         43         60         59         43         44         61         60         44         45         62         61         45         46         63         62         46         47         64         63         47         48         65         64         48         49         66         65         49         50         67         66         51         52         69         68         52         53         70         69         53         54         71         70         54         55         72         71         55         56         73         72         56         57         74         73         57         58         75         74         58         59         76         75         59         60         77         76         60         61         78         77         61         62         79         78         62         63         80         79         63         64         81         80         64         65         82         81         65         66         83         82         66         67         84         83         68         69         86         85         69         70         87         86         70         71         88         87         71         72         89         88         72         73         90         89         73         74         91         90         74         75         92         91         75         76         93         92         76         77         94         93         77         78         95         94         78         79         96         95         79         80         97         96         80         81         98         97         81         82         99         98         82         83        100         99         83         84        101        100         85         86        103        102         86         87        104        103         87         88        105        104         88         89        106        105         89         90        107        106         90         91        108        107         91         92        109        108         92         93        110        109         93         94        111        110         94         95        112        111         95         96        113        112         96         97        114        113         97         98        115        114         98         99        116        115         99        100        117        116        100        101        118        117        102        103        120        119        103        104        121        120        104        105        122        121        105        106        123        122        106        107        124        123        107        108        125        124        108        109        126        125        109        110        127        126        110        111        128        127        111        112        129        128        112        113        130        129        113        114        131        130        114        115        132        131        115        116        133        132        116        117        134        133        117        118        135        134        119        120        137        136        120        121        138        137        121        122        139        138        122        123        140        139        123        124        141        140        124        125        142        141        125        126        143        142        126        127        144        143        127        128        145        144        128        129        146        145        129        130        147        146        130        131        148        147        131        132        149        148        132        133        150        149        133        134        151        150        134        135        152        151        136        137        154        153        137        138        155        154        138        139        156        155        139        140        157        156        140        141        158        157        141        142        159        158        142        143        160        159        143        144        161        160        144        145        162        161        145        146        163        162        146        147        164        163        147        148        165        164        148        149        166        165        149        150        167        166        150        151        168        167        151        152        169        168        153        154        171        170        154        155        172        171        155        156        173        172        156        157        174        173        157        158        175        174        158        159        176        175        159        160        177        176        160        161        178        177        161        162        179        178        162        163        180        179        163        164        181        180        164        165        182        181        165        166        183        182        166        167        184        183        167        168        185        184        168        169        186        185        170        171        188        187        171        172        189        188        172        173        190        189        173        174        191        190        174        175        192        191        175        176        193        192        176        177        194        193        177        178        195        194        178        179        196        195        179        180        197        196        180        181        198        197        181        182        199        198        182        183        200        199        183        184        201        200        184        185        202        201        185        186        203        202        187        188        205        204        188        189        206        205        189        190        207        206        190        191        208        207        191        192        209        208        192        193        210        209        193        194        211        210        194        195        212        211        195        196        213        212        196        197        214        213        197        198        215        214        198        199        216        215        199        200        217        216        200        201        218        217        201        202        219        218        202        203        220        219        204        205        222        221        205        206        223        222        206        207        224        223        207        208        225        224        208        209        226        225        209        210        227        226        210        211        228        227        211        212        229        228        212        213        230        229        213        214        231        230        214        215        232        231        215        216        233        232        216        217        234        233        217        218        235        234        218        219        236        235        219        220        237        236        221        222        239        238        222        223        240        239        223        224        241        240        224        225        242        241        225        226        243        242        226        227        244        243        227        228        245        244        228        229        246        245        229        230        247        246        230        231        248        247        231        232        249        248        232        233        250        249        233        234        251        250        234        235        252        251        235        236        253        252        236        237        254        253        238        239        256        255        239        240        257        256        240        241        258        257        241        242        259        258        242        243        260        259        243        244        261        260        244        245        262        261        245        246        263        262        246        247        264        263        247        248        265        264        248        249        266        265        249        250        267        266        250        251        268        267        251        252        269        268        252        253        270        269        253        254        271        270        255        256        273        272        256        257        274        273        257        258        275        274        258        259        276        275        259        260        277        276        260        261        278        277        261        262        279        278        262        263        280        279        263        264        281        280        264        265        282        281        265        266        283        282        266        267        284        283        267        268        285        284        268        269        286        285        269        270        287        286        270        271        288        287        306        307          1          0        307        308          2          1        308        309          3          2        309        310          4          3        310        311          5          4        311        312          6          5        312        313          7          6        313        314          8          7        314        315          9          8        315        316         10          9        316        317         11         10        317        318         12         11        318        319         13         12        319        320         14         13        320        321         15         14        321        322         16         15        323        324        307        306        324        325        308        307        325        326        309        308        326        327        310        309        327        328        311        310        328        329        312        311        329        330        313        312        330        331        314        313        331        332        315        314        332        333        316        315        333        334        317        316        334        335        318        317        335        336        319        318        336        337        320        319        337        338        321        320        338        339        322        321        340        341        324        323        341        342        325        324        342        343        326        325        343        344        327        326        344        345        328        327        345        346        329        328        346        347        330        329        347        348        331        330        348        349        332        331        349        350        333        332        350        351        334        333        351        352        335        334        352        353        336        335        353        354        337        336        354        355        338        337        355        356        339        338        357        358        341        340        358        359        342        341        359        360        343        342        360        361        344        343        361        362        345        344        362        363        346        345        363        364        347        346        364        365        348        347        365        366        349        348        366        367        350        349        367        368        351        350        368        369        352        351        369        370        353        352        370        371        354        353        371        372        355        354        372        373        356        355        374        375        358        357        375        376        359        358        376        377        360        359        377        378        361        360        378        379        362        361        379        380        363        362        380        381        364        363        381        382        365        364        382        383        366        365        383        384        367        366        384        385        368        367        385        386        369        368        386        387        370        369        387        388        371        370        388        389        372        371        389        390        373        372        391        392        375        374        392        393        376        375        393        394        377        376        394        395        378        377        395        396        379        378        396        397        380        379        397        398        381        380        398        399        382        381        399        400        383        382        400        401        384        383        401        402        385        384        402        403        386        385        403        404        387        386        404        405        388        387        405        406        389        388        406        407        390        389        408        409        392        391        409        410        393        392        410        411        394        393        411        412        395        394        412        413        396        395        413        414        397        396        414        415        398        397        415        416        399        398        416        417        400        399        417        418        401        400        418        419        402        401        419        420        403        402        420        421        404        403        421        422        405        404        422        423        406        405        423        424        407        406        425        426        409        408        426        427        410        409        427        428        411        410        428        429        412        411        429        430        413        412        430        431        414        413        431        432        415        414        432        433        416        415        433        434        417        416        434        435        418        417        435        436        419        418        436        437        420        419        437        438        421        420        438        439        422        421        439        440        423        422        440        441        424        423        442        443        426        425        443        444        427        426        444        445        428        427        445        446        429        428        446        447        430        429        447        448        431        430        448        449        432        431        449        450        433        432        450        451        434        433        451        452        435        434        452        453        436        435        453        454        437        436        454        455        438        437        455        456        439        438        456        457        440        439        457        458        441        440        459        460        443        442        460        461        444        443        461        462        445        444        462        463        446        445        463        464        447        446        464        465        448        447        465        466        449        448        466        467        450        449        467        468        451        450        468        469        452        451        469        470        453        452        470        471        454        453        471        472        455        454        472        473        456        455        473        474        457        456        474        475        458        457        476        477        460        459        477        478        461        460        478        479        462        461        479        480        463        462        480        481        464        463        481        482        465        464        482        483        466        465        483        484        467        466        484        485        468        467        485        486        469        468        486        487        470        469        487        488        471        470        488        489        472        471        489        490        473        472        490        491        474        473        491        492        475        474        493        494        477        476        494        495        478        477        495        496        479        478        496        497        480        479        497        498        481        480        498        499        482        481        499        500        483        482        500        501        484        483        501        502        485        484        502        503        486        485        503        504        487        486        504        505        488        487        505        506        489        488        506        507        490        489        507        508        491        490        508        509        492        491        510        511        494        493        511        512        495        494        512        513        496        495        513        514        497        496        514        515        498        497        515        516        499        498        516        517        500        499        517        518        501        500        518        519        502        501        519        520        503        502        520        521        504        503        521        522        505        504        522        523        506        505        523        524        507        506        524        525        508        507        525        526        509        508        527        528        511        510        528        529        512        511        529        530        513        512        530        531        514        513        531        532        515        514        532        533        516        515        533        534        517        516        534        535        518        517        535        536        519        518        536        537        520        519        537        538        521        520        538        539        522        521        539        540        523        522        540        541        524        523        541        542        525        524        542        543        526        525        544        545        528        527        545        546        529        528        546        547        530        529        547        548        531        530        548        549        532        531        549        550        533        532        550        551        534        533        551        552        535        534        552        553        536        535        553        554        537        536        554        555        538        537        555        556        539        538        556        557        540        539        557        558        541        540        558        559        542        541        559        560        543        542        561        562        545        544        562        563        546        545        563        564        547        546        564        565        548        547        565        566        549        548        566        567        550        549        567        568        551        550        568        569        552        551        569        570        553        552        570        571        554        553        571        572        555        554        572        573        556        555        573        574        557        556        574        575        558        557        575        576        559        558        576        577        560        559        578        579        596        595        579        580        597        596        580        581        598        597        581        582        599        598        582        583        600        599        583        584        601        600        584        585        602        601        585        586        603        602        586        587        604        603        587        588        605        604        588        589        606        605        589        590        607        606        590        591        608        607        591        592        609        608        592        593        610        609        593        594        611        610        595        596        613        612        596        597        614        613        597        598        615        614        598        599        616        615        599        600        617        616        600        601        618        617        601        602        619        618        602        603        620        619        603        604        621        620        604        605        622        621        605        606        623        622        606        607        624        623        607        608        625        624        608        609        626        625        609        610        627        626        610        611        628        627        612        613        630        629        613        614        631        630        614        615        632        631        615        616        633        632        616        617        634        633        617        618        635        634        618        619        636        635        619        620        637        636        620        621        638        637        621        622        639        638        622        623        640        639        623        624        641        640        624        625        642        641        625        626        643        642        626        627        644        643        627        628        645        644        629        630        647        646        630        631        648        647        631        632        649        648        632        633        650        649        633        634        651        650        634        635        652        651        635        636        653        652        636        637        654        653        637        638        655        654        638        639        656        655        639        640        657        656        640        641        658        657        641        642        659        658        642        643        660        659        643        644        661        660        644        645        662        661        646        647        664        663        647        648        665        664        648        649        666        665        649        650        667        666        650        651        668        667        651        652        669        668        652        653        670        669        653        654        671        670        654        655        672        671        655        656        673        672        656        657        674        673        657        658        675        674        658        659        676        675        659        660        677        676        660        661        678        677        661        662        679        678        663        664        681        680        664        665        682        681        665        666        683        682        666        667        684        683        667        668        685        684        668        669        686        685        669        670        687        686        670        671        688        687        671        672        689        688        672        673        690        689        673        674        691        690        674        675        692        691        675        676        693        692        676        677        694        693        677        678        695        694        678        679        696        695        680        681        698        697        681        682        699        698        682        683        700        699        683        684        701        700        684        685        702        701        685        686        703        702        686        687        704        703        687        688        705        704        688        689        706        705        689        690        707        706        690        691        708        707        691        692        709        708        692        693        710        709        693        694        711        710        694        695        712        711        695        696        713        712        697        698        715        714        698        699        716        715        699        700        717        716        700        701        718        717        701        702        719        718        702        703        720        719        703        704        721        720        704        705        722        721        705        706        723        722        706        707        724        723        707        708        725        724        708        709        726        725        709        710        727        726        710        711        728        727        711        712        729        728        712        713        730        729        714        715        732        731        715        716        733        732        716        717        734        733        717        718        735        734        718        719        736        735        719        720        737        736        720        721        738        737        721        722        739        738        722        723        740        739        723        724        741        740        724        725        742        741        725        726        743        742        726        727        744        743        727        728        745        744        728        729        746        745        729        730        747        746        731        732        749        748        732        733        750        749        733        734        751        750        734        735        752        751        735        736        753        752        736        737        754        753        737        738        755        754        738        739        756        755        739        740        757        756        740        741        758        757        741        742        759        758        742        743        760        759        743        744        761        760        744        745        762        761        745        746        763        762        746        747        764        763        748        749        766        765        749        750        767        766        750        751        768        767        751        752        769        768        752        753        770        769        753        754        771        770        754        755        772        771        755        756        773        772        756        757        774        773        757        758        775        774        758        759        776        775        759        760        777        776        760        761        778        777        761        762        779        778        762        763        780        779        763        764        781        780        765        766        783        782        766        767        784        783        767        768        785        784        768        769        786        785        769        770        787        786        770        771        788        787        771        772        789        788        772        773        790        789        773        774        791        790        774        775        792        791        775        776        793        792        776        777        794        793        777        778        795        794        778        779        796        795        779        780        797        796        780        781        798        797        782        783        800        799        783        784        801        800        784        785        802        801        785        786        803        802        786        787        804        803        787        788        805        804        788        789        806        805        789        790        807        806        790        791        808        807        791        792        809        808        792        793        810        809        793        794        811        810        794        795        812        811        795        796        813        812        796        797        814        813        797        798        815        814        799        800        817        816        800        801        818        817        801        802        819        818        802        803        820        819        803        804        821        820        804        805        822        821        805        806        823        822        806        807        824        823        807        808        825        824        808        809        826        825        809        810        827        826        810        811        828        827        811        812        829        828        812        813        830        829        813        814        831        830        814        815        832        831        816        817        834        833        817        818        835        834        818        819        836        835        819        820        837        836        820        821        838        837        821        822        839        838        822        823        840        839        823        824        841        840        824        825        842        841        825        826        843        842        826        827        844        843        827        828        845        844        828        829        846        845        829        830        847        846        830        831        848        847        831        832        849        848        833        834        562        561        834        835        563        562        835        836        564        563        836        837        565        564        837        838        566        565        838        839        567        566        839        840        568        567        840        841        569        568        841        842        570        569        842        843        571        570        843        844        572        571        844        845        573        572        845        846        574        573        846        847        575        574        847        848        576        575        848        849        577        576        884        885        579        578        885        886        580        579        886        887        581        580        887        888        582        581        888        889        583        582        889        890        584        583        890        891        585        584        891        892        586        585        892        893        587        586        893        894        588        587        894        895        589        588        895        896        590        589        896        897        591        590        897        898        592        591        898        899        593        592        899        900        594        593        901        902        885        884        902        903        886        885        903        904        887        886        904        905        888        887        905        906        889        888        906        907        890        889        907        908        891        890        908        909        892        891        909        910        893        892        910        911        894        893        911        912        895        894        912        913        896        895        913        914        897        896        914        915        898        897        915        916        899        898        916        917        900        899        918        919        902        901        919        920        903        902        920        921        904        903        921        922        905        904        922        923        906        905        923        924        907        906        924        925        908        907        925        926        909        908        926        927        910        909        927        928        911        910        928        929        912        911        929        930        913        912        930        931        914        913        931        932        915        914        932        933        916        915        933        934        917        916        935        936        919        918        936        937        920        919        937        938        921        920        938        939        922        921        939        940        923        922        940        941        924        923        941        942        925        924        942        943        926        925        943        944        927        926        944        945        928        927        945        946        929        928        946        947        930        929        947        948        931        930        948        949        932        931        949        950        933        932        950        951        934        933        952        953        936        935        953        954        937        936        954        955        938        937        955        956        939        938        956        957        940        939        957        958        941        940        958        959        942        941        959        960        943        942        960        961        944        943        961        962        945        944        962        963        946        945        963        964        947        946        964        965        948        947        965        966        949        948        966        967        950        949        967        968        951        950        969        970        953        952        970        971        954        953        971        972        955        954        972        973        956        955        973        974        957        956        974        975        958        957        975        976        959        958        976        977        960        959        977        978        961        960        978        979        962        961        979        980        963        962        980        981        964        963        981        982        965        964        982        983        966        965        983        984        967        966        984        985        968        967        986        987        970        969        987        988        971        970        988        989        972        971        989        990        973        972        990        991        974        973        991        992        975        974        992        993        976        975        993        994        977        976        994        995        978        977        995        996        979        978        996        997        980        979        997        998        981        980        998        999        982        981        999       1000        983        982       1000       1001        984        983       1001       1002        985        984       1003       1004        987        986       1004       1005        988        987       1005       1006        989        988       1006       1007        990        989       1007       1008        991        990       1008       1009        992        991       1009       1010        993        992       1010       1011        994        993       1011       1012        995        994       1012       1013        996        995       1013       1014        997        996       1014       1015        998        997       1015       1016        999        998       1016       1017       1000        999       1017       1018       1001       1000       1018       1019       1002       1001       1020       1021       1004       1003       1021       1022       1005       1004       1022       1023       1006       1005       1023       1024       1007       1006       1024       1025       1008       1007       1025       1026       1009       1008       1026       1027       1010       1009       1027       1028       1011       1010       1028       1029       1012       1011       1029       1030       1013       1012       1030       1031       1014       1013       1031       1032       1015       1014       1032       1033       1016       1015       1033       1034       1017       1016       1034       1035       1018       1017       1035       1036       1019       1018       1037       1038       1021       1020       1038       1039       1022       1021       1039       1040       1023       1022       1040       1041       1024       1023       1041       1042       1025       1024       1042       1043       1026       1025       1043       1044       1027       1026       1044       1045       1028       1027       1045       1046       1029       1028       1046       1047       1030       1029       1047       1048       1031       1030       1048       1049       1032       1031       1049       1050       1033       1032       1050       1051       1034       1033       1051       1052       1035       1034       1052       1053       1036       1035       1054       1055       1038       1037       1055       1056       1039       1038       1056       1057       1040       1039       1057       1058       1041       1040       1058       1059       1042       1041       1059       1060       1043       1042       1060       1061       1044       1043       1061       1062       1045       1044       1062       1063       1046       1045       1063       1064       1047       1046       1064       1065       1048       1047       1065       1066       1049       1048       1066       1067       1050       1049       1067       1068       1051       1050       1068       1069       1052       1051       1069       1070       1053       1052       1071       1072       1055       1054       1072       1073       1056       1055       1073       1074       1057       1056       1074       1075       1058       1057       1075       1076       1059       1058       1076       1077       1060       1059       1077       1078       1061       1060       1078       1079       1062       1061       1079       1080       1063       1062       1080       1081       1064       1063       1081       1082       1065       1064       1082       1083       1066       1065       1083       1084       1067       1066       1084       1085       1068       1067       1085       1086       1069       1068       1086       1087       1070       1069       1088       1089       1072       1071       1089       1090       1073       1072       1090       1091       1074       1073       1091       1092       1075       1074       1092       1093       1076       1075       1093       1094       1077       1076       1094       1095       1078       1077       1095       1096       1079       1078       1096       1097       1080       1079       1097       1098       1081       1080       1098       1099       1082       1081       1099       1100       1083       1082       1100       1101       1084       1083       1101       1102       1085       1084       1102       1103       1086       1085       1103       1104       1087       1086       1105       1106       1089       1088       1106       1107       1090       1089       1107       1108       1091       1090       1108       1109       1092       1091       1109       1110       1093       1092       1110       1111       1094       1093       1111       1112       1095       1094       1112       1113       1096       1095       1113       1114       1097       1096       1114       1115       1098       1097       1115       1116       1099       1098       1116       1117       1100       1099       1117       1118       1101       1100       1118       1119       1102       1101       1119       1120       1103       1102       1120       1121       1104       1103       1122       1123       1106       1105       1123       1124       1107       1106       1124       1125       1108       1107       1125       1126       1109       1108       1126       1127       1110       1109       1127       1128       1111       1110       1128       1129       1112       1111       1129       1130       1113       1112       1130       1131       1114       1113       1131       1132       1115       1114       1132       1133       1116       1115       1133       1134       1117       1116       1134       1135       1118       1117       1135       1136       1119       1118       1136       1137       1120       1119       1137       1138       1121       1120        272        273       1123       1122        273        274       1124       1123        274        275       1125       1124        275        276       1126       1125        276        277       1127       1126        277        278       1128       1127        278        279       1129       1128        279        280       1130       1129        280        281       1131       1130        281        282       1132       1131        282        283       1133       1132        283        284       1134       1133        284        285       1135       1134        285        286       1136       1135        286        287       1137       1136        287        288       1138       1137 </DataArray>
<DataArray type="Int32"                                    Name="offsets"                                                      NumberOfComponents=" 1" format="ascii">
         4          8         12         16         20         24         28         32         36         40         44         48         52         56         60         64         68         72         76         80         84         88         92         96        100        104        108        112        116        120        124        128        132        136        140        144        148        152        156        160        164        168        172        176        180        184        188        192        196        200        204        208        212        216        220        224        228        232        236        240        244        248        252        256        260        264        268        272        276        280        284        288        292        296        300        304        308        312        316        320        324        328        332        336        340        344        348        352        356        360        364        368        372        376        380        384        388        392        396        400        404        408        412        416        420        424        428        432        436        440        444        448        452        456        460        464        468        472        476        480        484        488        492        496        500        504        508        512        516        520        524        528        532        536        540        544        548        552        556        560        564        568        572        576        580        584        588        592        596        600        604        608        612        616        620        624        628        632        636        640        644        648        652        656        660        664        668        672        676        680        684        688        692        696        700        704        708        712        716        720        724        728        732        736        740        744        748        752        756        760        764        768        772        776        780        784        788        792        796        800        804        808        812        816        820        824        828        832        836        840        844        848        852        856        860        864        868        872        876        880        884        888        892        896        900        904        908        912        916        920        924        928        932        936        940        944        948        952        956        960        964        968        972        976        980        984        988        992        996       1000       1004       1008       1012       1016       1020       1024       1028       1032       1036       1040       1044       1048       1052       1056       1060       1064       1068       1072       1076       1080       1084       1088       1092       1096       1100       1104       1108       1112       1116       1120       1124       1128       1132       1136       1140       1144       1148       1152       1156       1160       1164       1168       1172       1176       1180       1184       1188       1192       1196       1200       1204       1208       1212       1216       1220       1224       1228       1232       1236       1240       1244       1248       1252       1256       1260       1264       1268       1272       1276       1280       1284       1288       1292       1296       1300       1304       1308       1312       1316       1320       1324       1328       1332       1336       1340       1344       1348       1352       1356       1360       1364       1368       1372       1376       1380       1384       1388       1392       1396       1400       1404       1408       1412       1416       1420       1424       1428       1432       1436       1440       1444       1448       1452       1456       1460       1464       1468       1472       1476       1480       1484       1488       1492       1496       1500       1504       1508       1512       1516       1520       1524       1528       1532       1536       1540       1544       1548       1552       1556       1560       1564       1568       1572       1576       1580       1584       1588       1592       1596       1600       1604       1608       1612       1616       1620       1624       1628       1632       1636       1640       1644       1648       1652       1656       1660       1664       1668       1672       1676       1680       1684       1688       1692       1696       1700       1704       1708       1712       1716       1720       1724       1728       1732       1736       1740       1744       1748       1752       1756       1760       1764       1768       1772       1776       1780       1784       1788       1792       1796       1800       1804       1808       1812       1816       1820       1824       1828       1832       1836       1840       1844       1848       1852       1856       1860       1864       1868       1872       1876       1880       1884       1888       1892       1896       1900       1904       1908       1912       1916       1920       1924       1928       1932       1936       1940       1944       1948       1952       1956       1960       1964       1968       1972       1976       1980       1984       1988       1992       1996       2000       2004       2008       2012       2016       2020       2024       2028       2032       2036       2040       2044       2048       2052       2056       2060       2064       2068       2072       2076       2080       2084       2088       2092       2096       2100       2104       2108       2112       2116       2120       2124       2128       2132       2136       2140       2144       2148       2152       2156       2160       2164       2168       2172       2176       2180       2184       2188       2192       2196       2200       2204       2208       2212       2216       2220       2224       2228       2232       2236       2240       2244       2248       2252       2256       2260       2264       2268       2272       2276       2280       2284       2288       2292       2296       2300       2304       2308       2312       2316       2320       2324       2328       2332       2336       2340       2344       2348       2352       2356       2360       2364       2368       2372       2376       2380       2384       2388       2392       2396       2400       2404       2408       2412       2416       2420       2424       2428       2432       2436       2440       2444       2448       2452       2456       2460       2464       2468       2472       2476       2480       2484       2488       2492       2496       2500       2504       2508       2512       2516       2520       2524       2528       2532       2536       2540       2544       2548       2552       2556       2560       2564       2568       2572       2576       2580       2584       2588       2592       2596       2600       2604       2608       2612       2616       2620       2624       2628       2632       2636       2640       2644       2648       2652       2656       2660       2664       2668       2672       2676       2680       2684       2688       2692       2696       2700       2704       2708       2712       2716       2720       2724       2728       2732       2736       2740       2744       2748       2752       2756       2760       2764       2768       2772       2776       2780       2784       2788       2792       2796       2800       2804       2808       2812       2816       2820       2824       2828       2832       2836       2840       2844       2848       2852       2856       2860       2864       2868       2872       2876       2880       2884       2888       2892       2896       2900       2904       2908       2912       2916       2920       2924       2928       2932       2936       2940       2944       2948       2952       2956       2960       2964       2968       2972       2976       2980       2984       2988       2992       2996       3000       3004       3008       3012       3016       3020       3024       3028       3032       3036       3040       3044       3048       3052       3056       3060       3064       3068       3072       3076       3080       3084       3088       3092       3096       3100       3104       3108       3112       3116       3120       3124       3128       3132       3136       3140       3144       3148       3152       3156       3160       3164       3168       3172       3176       3180       3184       3188       3192       3196       3200       3204       3208       3212       3216       3220       3224       3228       3232       3236       3240       3244       3248       3252       3256       3260       3264       3268       3272       3276       3280       3284       3288       3292       3296       3300       3304       3308       3312       3316       3320       3324       3328       3332       3336       3340       3344       3348       3352       3356       3360       3364       3368       3372       3376       3380       3384       3388       3392       3396       3400       3404       3408       3412       3416       3420       3424       3428       3432       3436       3440       3444       3448       3452       3456       3460       3464       3468       3472       3476       3480       3484       3488       3492       3496       3500       3504       3508       3512       3516       3520       3524       3528       3532       3536       3540       3544       3548       3552       3556       3560       3564       3568       3572       3576       3580       3584       3588       3592       3596       3600       3604       3608       3612       3616       3620       3624       3628       3632       3636       3640       3644       3648       3652       3656       3660       3664       3668       3672       3676       3680       3684       3688       3692       3696       3700       3704       3708       3712       3716       3720       3724       3728       3732       3736       3740       3744       3748       3752       3756       3760       3764       3768       3772       3776       3780       3784       3788       3792       3796       3800       3804       3808       3812       3816       3820       3824       3828       3832       3836       3840       3844       3848       3852       3856       3860       3864       3868       3872       3876       3880       3884       3888       3892       3896       3900       3904       3908       3912       3916       3920       3924       3928       3932       3936       3940       3944       3948       3952       3956       3960       3964       3968       3972       3976       3980       3984       3988       3992       3996       4000       4004       4008       4012       4016       4020       4024       4028       4032       4036       4040       4044       4048       4052       4056       4060       4064       4068       4072       4076       4080       4084       4088       4092       4096 </DataArray>
<DataArray type="UInt8"                                    Name="types"                                                      NumberOfComponents=" 1" format="ascii">
         9          9          9          9          9          9          9          9          9          9          9          9          9          9          9          9          9          9          9          9          9          9          9          9          9          9          9          9          9          9          9          9          9          9          9          9          9          9          9          9          9          9          9          9          9          9          9          9          9          9          9          9          9          9          9          9          9          9          9          9          9          9          9          9          9          9          9          9          9          9          9          9          9          9          9          9          9          9          9          9          9          9          9          9          9          9          9          9          9          9          9          9          9          9          9          9          9          9          9          9          9          9          9          9          9          9          9          9          9          9          9          9          9          9          9          9          9          9          9          9          9          9          9          9          9          9          9          9          9          9          9          9          9          9          9          9          9          9          9          9          9          9          9          9          9          9          9          9          9          9          9          9          9          9          9          9          9          9          9          9          9          9          9          9          9          9          9          9          9          9          9          9          9          9          9          9          9          9          9          9          9          9          9          9          9          9          9          9          9          9          9          9          9          9          9          9          9          9          9          9          9          9          9          9          9          9          9          9          9          9          9          9          9          9          9          9          9          9          9          9          9          9          9          9          9          9          9          9          9          9          9          9          9          9          9          9          9          9          9          9          9          9          9          9          9          9          9          9          9          9          9          9          9          9          9          9          9          9          9          9          9          9          9          9          9          9          9          9          9          9          9          9          9          9          9          9          9          9          9          9          9          9          9          9          9          9          9          9          9          9          9          9          9          9          9          9          9          9          9          9          9          9          9          9          9          9          9          9          9          9          9          9          9          9          9          9          9          9          9          9          9          9          9          9          9          9          9          9          9          9          9          9          9          9          9          9          9          9          9          9          9          9          9          9          9          9          9          9          9          9          9          9          9          9          9          9          9          9          9          9          9          9          9          9          9          9          9          9          9          9          9          9          9          9          9          9          9          9          9          9          9          9          9          9          9          9          9          9          9          9          9          9          9          9          9          9          9          9          9          9          9          9          9          9          9          9          9          9          9          9          9          9          9          9          9          9          9          9          9          9          9          9          9          9          9          9          9          9          9          9          9          9          9          9          9          9          9          9          9          9          9          9          9          9          9          9          9          9          9          9          9          9          9          9          9          9          9          9          9          9          9          9          9          9          9          9          9          9          9          9          9          9          9          9          9          9          9          9          9          9          9          9          9          9          9          9          9          9          9          9          9          9          9          9          9          9          9          9          9          9          9          9          9          9          9          9          9          9          9          9          9          9          9          9          9          9          9          9          9          9          9          9          9          9          9          9          9          9          9          9          9          9          9          9          9          9          9          9          9          9          9          9          9          9          9          9          9          9          9          9          9          9          9          9          9          9          9          9          9          9          9          9          9          9          9          9          9          9          9          9          9          9          9          9          9          9          9          9          9          9          9          9          9          9          9          9          9          9          9          9          9          9          9          9          9          9          9          9          9          9          9          9          9          9          9          9          9          9          9          9          9          9          9          9          9          9          9          9          9          9          9          9          9          9          9          9          9          9          9          9          9          9          9          9          9          9          9          9          9          9          9          9          9          9          9          9          9          9          9          9          9          9          9          9          9          9          9          9          9          9          9          9          9          9          9          9          9          9          9          9          9          9          9          9          9          9          9          9          9          9          9          9          9          9          9          9          9          9          9          9          9          9          9          9          9          9          9          9          9          9          9          9          9          9          9          9          9          9          9          9          9          9          9          9          9          9          9          9          9          9          9          9          9          9          9          9          9          9          9          9          9          9          9          9          9          9          9          9          9          9          9          9          9          9          9          9          9          9          9          9          9          9          9          9          9          9          9          9          9          9          9          9          9          9          9          9          9          9          9          9          9          9          9          9          9          9          9          9          9          9          9          9          9          9          9          9          9          9          9          9          9          9          9          9          9          9          9          9          9          9          9          9          9          9          9          9          9          9          9          9          9          9          9          9          9          9          9          9          9          9          9          9          9          9          9          9          9          9          9          9          9          9          9          9          9          9          9          9          9          9          9          9          9          9          9          9          9          9          9          9          9          9          9          9          9          9          9          9          9          9          9          9          9          9          9          9          9          9          9          9          9          9          9          9          9          9          9          9          9          9          9          9          9          9          9          9          9          9          9          9          9          9          9          9          9          9          9          9          9          9          9          9          9          9          9          9          9          9          9          9          9          9          9          9          9          9          9          9          9          9          9          9          9          9          9          9          9          9          9          9          9          9          9          9          9          9          9          9          9          9          9          9          9          9          9          9          9          9          9          9          9          9          9          9          9          9          9          9          9          9          9          9          9          9          9          9          9          9          9          9          9          9          9          9          9          9          9          9          9          9          9          9          9          9          9          9          9          9          9          9          9          9          9          9          9          9          9          9          9          9          9          9          9          9          9          9          9          9          9          9          9          9          9          9          9          9          9          9          9          9          9          9          9          9 </DataArray>
</Cells>
<CellData>
<DataArray type="Int32"                                    Name="material"                                                      NumberOfComponents=" 1" format="ascii">
         1          1          1          1          1          1          1          1          1          1          1          1          1          1          1          1          1          1          1          1          1          1          1          1          1          1          1          1          1          1          1          1          1          1          1          1          1          1          1          1          1          1          1          1          1          1          1          1          1          1          1          1          1          1          1          1          1          1          1          1          1          1          1          1          1          1          1          1          1          1          1          1          1          1          1          1          1          1          1          1          1          1          1          1          1          1          1          1          1          1          1          1          1          1          1          1          1          1          1          1          1          1          1          1          1          1          1          1          1          1          1          1          1          1          1          1          1          1          1          1          1          1          1          1          1          1          1          1          1          1          1          1          1          1          1          1          1          1          1          1          1          1          1          1          1          1          1          1          1          1          1          1          1          1          1          1          1          1          1          1          1          1          1          1          1          1          1          1          1          1          1          1          1          1          1          1          1          1          1          1          1          1          1          1          1          1          1          1          1          1          1          1          1          1          1          1          1          1          1          1          1          1          1          1          1          1          1          1          1          1          1          1          1          1          1          1          1          1          1          1          1          1          1          1          1          1          1          1          1          1          1          1          1          1          1          1          1          1          1          1          1          1          1          1          1          1          1          1          1          1          1          1          1          1          1          1          1          1          1          1          1          1          1          1          1          1          1          1          1          1          1          1          1          1          1          1          1          1          1          1          1          1          1          1          1          1          1          1          1          1          1          1          1          1          1          1          1          1          1          1          1          1          1          1          1          1          1          1          1          1          1          1          1          1          1          1          1          1          1          1          1          1          1          1          1          1          1          1          1          1          1          1          1          1          1          1          1          1          1          1          1          1          1          1          1          1          1          1          1          1          1          1          1          1          1          1          1          1          1          1          1          1          1          1          1          1          1          1          1          1          1          1          1          1          1          1          1          1          1          1          1          1          1          1          1          1          1          1          1          1          1          1          1          1          1          1          1          1          1          1          1          1          1          1          1          1          1          1          1          1          1          1          1          1          1          1          1          1          1          1          1          1          1          1          1          1          1          1          1          1          1          1          1          1          1          1          1          1          1          1          1          1          1          1          1          1          1          1          1          1          1          1          1          1          1          1          1          1          1          1          1          1          1          1          1          1          1          1          1          1          1          1          1          1          1          1          1          1          1          1          1          1          1          1          1          1          1          1          1          1          1          1          1          1          1          1          1          1          1          1          1          1          1          1          1          1          1          1          1          1          1          1          1          1          1          1          1          1          1          1          1          1          1          1          1          1          1          1          1          1          1          1          1          1          1          1          1          1          1          1          1          1          1          1          1          1          1          1          1          1          1          1          1          1          1          1          1          1          1          1          1          1          1          1          1          1          1          1          1          1          1          1          1          1          1          1          1          1          1          1          1          1          1          1          1          1          1          1          1          1          1          1          1          1          1          1          1          1          1          1          1          1          1          1          1          1          1          1          1          1          1          1          1          1          1          1          1          1          1          1          1          1          1          1          1          1          1          1          1          1          1          1          1          1          1          1          1          1          1          1          1          1          1          1          1          1          1          1          1          1          1          1          1          1          1          1          1          1          1          1          1          1          1          1          1          1          1          1          1          1          1          1          1          1          1          1          1          1          1          1          1          1          1          1          1          1          1          1          1          1          1          1          1          1          1          1          1          1          1          1          1          1          1          1          1          1          1          1          1          1          1          1          1          1          1          1          1          1          1          1          1          1          1          1          1          1          1          1          1          1          1          1          1          1          1          1          1          1          1          1          1          1          1          1          1          1          1          1          1          1          1          1          1          1          1          1          1          1          1          1          1          1          1          1          1          1          1          1          1          1          1          1          1          1          1          1          1          1          1          1          1          1          1          1          1          1          1          1          1          1          1          1          1          1          1          1          1          1          1          1          1          1          1          1          1          1          1          1          1          1          1          1          1          1          1          1          1          1          1          1          1          1          1          1          1          1          1          1          1          1          1          1          1          1          1          1          1          1          1          1          1          1          1          1          1          1          1          1          1          1          1          1          1          1          1          1          1          1          1          1          1          1          1          1          1          1          1          1          1          1          1          1          1          1          1          1          1          1          1          1          1          1          1          1          1          1          1          1          1          1          1          1          1          1          1          1          1          1          1          1          1          1          1          1          1          1          1          1          1          1          1          1          1          1          1          1          1          1          1          1          1          1          1          1          1          1          1          1          1          1          1          1          1          1          1          1          1          1          1          1          1          1          1          1          1          1          1          1          1          1          1          1          1          1          1          1          1          1          1          1          1          1          1          1          1          1          1          1          1          1          1          1          1          1          1          1          1          1          1          1          1          1          1          1          1          1          1          1          1          1          1          1          1          1          1          1          1          1          1          1          1          1          1          1          1          1          1          1          1          1          1          1          1          1          1          1          1          1          1          1          1          1          1          1 </DataArray>
</CellData>
<PointData>
<DataArray type="Float64"                                    Name="u"                                                      NumberOfComponents=" 3" format="ascii">
             -0.000785352               0.000000000               0.999999989              -0.000828935               0.000000000               0.999999989              -0.000847325               0.000000000               0.999999989              -0.000857515               0.000000000               0.999999989              -0.000865627               0.000000000               0.999999989              -0.000873865              -0.000000000               0.999999989              -0.000882895               0.000000000               0.999999989              -0.000892571              -0.000000000               0.999999989              -0.000902801               0.000000000               0.999999989              -0.000913209               0.000000000               0.999999989              -0.000923596               0.000000000               0.999999989              -0.000933879               0.000000000               0.999999989              -0.000943679               0.000000000               0.999999989              -0.000952516              -0.000000000               0.999999989              -0.000959997               0.000000000               0.999999989              -0.000965589               0.000000000               0.999999989              -0.000968498              -0.000000000               0.999999989              -0.000780932               0.000113921               0.999999989              -0.000820763               0.000090152               0.999999989              -0.000836685               0.000079169               0.999999989              -0.000845296               0.000074339               0.999999989              -0.000852396               0.000072654               0.999999989              -0.000859890               0.000072300               0.999999989              -0.000868184               0.000072563               0.999999989              -0.000877135               0.000072636               0.999999989              -0.000886475               0.000072073               0.999999989              -0.000895965               0.000070631               0.999999989              -0.000905362               0.000068120               0.999999989              -0.000914269               0.000064268               0.999999989              -0.000922398               0.000058756               0.999999989              -0.000929356               0.000051172               0.999999989              -0.000934781               0.000041033               0.999999989              -0.000938164               0.000027532               0.999999989              -0.000938861               0.000009624               0.999999989              -0.000767674               0.000226772               0.999999989              -0.000796667               0.000180030               0.999999989              -0.000805998               0.000159176               0.999999989              -0.000810536               0.000150574               0.999999989              -0.000814902               0.000147815               0.999999989              -0.000820238               0.000147599               0.999999989              -0.000826479               0.000148172               0.999999989              -0.000833317               0.000148352               0.999999989              -0.000840309               0.000147242               0.999999989              -0.000847069               0.000144441               0.999999989              -0.000853285               0.000139488               0.999999989              -0.000858474               0.000131717               0.999999989              -0.000862283               0.000120789               0.999999989              -0.000864383               0.000106137               0.999999989              -0.000864315               0.000086716               0.999999989              -0.000861718               0.000061568               0.999999989              -0.000856371               0.000029205               0.999999989              -0.000746060               0.000337465               0.999999989              -0.000758170               0.000269460               0.999999989              -0.000758059               0.000240730               0.999999989              -0.000757079               0.000229901               0.999999989              -0.000757842               0.000227188               0.999999989              -0.000760251               0.000227678               0.999999989              -0.000763671               0.000228848               0.999999989              -0.000767452               0.000229199               0.999999989              -0.000770968               0.000227591               0.999999989              -0.000773558               0.000223464               0.999999989              -0.000774718               0.000216036               0.999999989              -0.000774050               0.000204679               0.999999989              -0.000771196               0.000188836               0.999999989              -0.000765733               0.000167905               0.999999989              -0.000757431               0.000140846               0.999999989              -0.000746302               0.000106919               0.999999989              -0.000732652               0.000065664               0.999999989              -0.000716739               0.000445071               0.999999989              -0.000707323               0.000358321               0.999999989              -0.000696460               0.000324303               0.999999989              -0.000689916               0.000312951               0.999999989              -0.000687140               0.000311219               0.999999989              -0.000686466               0.000312860               0.999999989              -0.000686799               0.000314963               0.999999989              -0.000687023               0.000315691               0.999999989              -0.000686182               0.000313533               0.999999989              -0.000683448               0.000307972               0.999999989              -0.000678182               0.000298246               0.999999989              -0.000669942               0.000283592               0.999999989              -0.000658477               0.000263628               0.999999989              -0.000643581               0.000237677               0.999999989              -0.000625480               0.000205444               0.999999989              -0.000604845               0.000167013               0.999999989              -0.000582611               0.000123342               0.999999989              -0.000680066               0.000548827               0.999999989              -0.000646523               0.000446749               0.999999989              -0.000625733               0.000409946               0.999999989              -0.000614737               0.000399434               0.999999989              -0.000609116               0.000399287               0.999999989              -0.000605964               0.000402398               0.999999989              -0.000603345               0.000405546               0.999999989              -0.000599738               0.000406568               0.999999989              -0.000593872               0.000403846               0.999999989              -0.000584740               0.000396860               0.999999989              -0.000571902               0.000384825               0.999999989              -0.000555115               0.000367241               0.999999989              -0.000534215               0.000343652               0.999999989              -0.000509521               0.000314134               0.999999989              -0.000481844               0.000279060               0.999999989              -0.000452218               0.000239794               0.999999989              -0.000421661               0.000197757               0.999999989              -0.000636905               0.000647718               0.999999989              -0.000578911               0.000534751               0.999999989              -0.000550373               0.000497364               0.999999989              -0.000536876               0.000488395               0.999999989              -0.000529866               0.000489903               0.999999989              -0.000524856               0.000494447               0.999999989              -0.000519343               0.000498528               0.999999989              -0.000511465               0.000499771               0.999999989              -0.000499693               0.000496412               0.999999989              -0.000483278               0.000487856               0.999999989              -0.000461926               0.000473709               0.999999989              -0.000435555               0.000453573               0.999999989              -0.000404575               0.000427514               0.999999989              -0.000369865               0.000396005               0.999999989              -0.000332496               0.000360597               0.999999989              -0.000293610               0.000322678               0.999999989              -0.000254162               0.000283790               0.999999989              -0.000588061               0.000740758               0.999999989              -0.000507429               0.000622304               0.999999989              -0.000474430               0.000585836               0.999999989              -0.000460783               0.000578373               0.999999989              -0.000453545               0.000581338               0.999999989              -0.000447050               0.000587070               0.999999989              -0.000438469               0.000591870               0.999999989              -0.000425573               0.000593066               0.999999989              -0.000406998               0.000588956               0.999999989              -0.000382171               0.000579056               0.999999989              -0.000351088               0.000563080               0.999999989              -0.000314016               0.000541128               0.999999989              -0.000271943               0.000514096               0.999999989              -0.000226139               0.000483187               0.999999989              -0.000178150               0.000449900               0.999999989              -0.000129255               0.000415515               0.999999989              -0.000080506               0.000381464               0.999999989              -0.000535023               0.000826250               0.999999989              -0.000434536               0.000709310               0.999999989              -0.000401776               0.000674029               0.999999989              -0.000389696               0.000667557               0.999999989              -0.000382932               0.000671602               0.999999989              -0.000375053               0.000678097               0.999999989              -0.000362834               0.000683364               0.999999989              -0.000343906               0.000684337               0.999999989              -0.000317299               0.000679570               0.999999989              -0.000282737               0.000668501               0.999999989              -0.000240369               0.000651375               0.999999989              -0.000191040               0.000629050               0.999999989              -0.000136552               0.000603070               0.999999989              -0.000078815               0.000575068               0.999999989              -0.000019564               0.000546419               0.999999989               0.000039817               0.000518254               0.999999989               0.000098618               0.000491025               0.999999989              -0.000480083               0.000907402               0.999999989              -0.000373299               0.000807560               0.999999989              -0.000338142               0.000769427               0.999999989              -0.000325696               0.000758947               0.999999989              -0.000319673               0.000760411               0.999999989              -0.000313171               0.000766558               0.999999989              -0.000303420               0.000773453               0.999999989              -0.000288039               0.000778718               0.999999989              -0.000265931               0.000780437               0.999999989              -0.000236561               0.000777691               0.999999989              -0.000199649               0.000770307               0.999999989              -0.000155208               0.000758479               0.999999989              -0.000104308               0.000743036               0.999999989              -0.000048617               0.000725213               0.999999989               0.000010216               0.000706515               0.999999989               0.000070467               0.000687905               0.999999989               0.000131003               0.000670143               0.999999989              -0.000420165               0.000981598               0.999999989              -0.000314360               0.000902987               0.999999989              -0.000277122               0.000867533               0.999999989              -0.000263468               0.000855321               0.999999989              -0.000257344               0.000855356               0.999999989              -0.000251870               0.000861424               0.999999989              -0.000243907               0.000869774               0.999999989              -0.000231627               0.000878226               0.999999989              -0.000213737               0.000885150               0.999999989              -0.000189337               0.000889420               0.999999989              -0.000157823               0.000890468               0.999999989              -0.000119137               0.000887979               0.999999989              -0.000073432               0.000882146               0.999999989              -0.000021601               0.000873737               0.999999989               0.000034999               0.000864074               0.999999989               0.000094622               0.000854204               0.999999989               0.000155438               0.000844988               0.999999989              -0.000356409               0.001047003               0.999999989              -0.000257705               0.000992644               0.999999989              -0.000219999               0.000964071               0.999999989              -0.000205018               0.000953115               0.999999989              -0.000198194               0.000953316               0.999999989              -0.000193186               0.000960053               0.999999989              -0.000186676               0.000970142               0.999999989              -0.000176824               0.000981610               0.999999989              -0.000162457               0.000992988               0.999999989              -0.000142733               0.001003229               0.999999989              -0.000116755               0.001011454               0.999999989              -0.000084416               0.001017226               0.999999989              -0.000045047               0.001020335               0.999999989               0.000001350               0.001020938               0.999999989               0.000054041               0.001019781               0.999999989               0.000111819               0.001017934               0.999999989               0.000172796               0.001016496               0.999999989              -0.000289300               0.001102497               0.999999989              -0.000203233               0.001072922               0.999999989              -0.000167577               0.001054079               0.999999989              -0.000152195               0.001047020               0.999999989              -0.000144749               0.001049090               0.999999989              -0.000139810               0.001057502               0.999999989              -0.000134312               0.001069910               0.999999989              -0.000126401               0.001084635               0.999999989              -0.000115011               0.001100280               0.999999989              -0.000099416               0.001115937               0.999999989              -0.000078940               0.001130763               0.999999989              -0.000052780               0.001144144               0.999999989              -0.000020481               0.001155639               0.999999989               0.000018918               0.001165148               0.999999989               0.000065765               0.001172806               0.999999989               0.000119702               0.001179155               0.999999989               0.000179902               0.001185245               0.999999989              -0.000219476               0.001146895               0.999999989              -0.000150735               0.001140082               0.999999989              -0.000120128               0.001132116               0.999999989              -0.000105885               0.001130611               0.999999989              -0.000098631               0.001135912               0.999999989              -0.000093912               0.001146862               0.999999989              -0.000089173               0.001162046               0.999999989              -0.000082960               0.001180132               0.999999989              -0.000074270               0.001199881               0.999999989              -0.000062519               0.001220585               0.999999989              -0.000047202               0.001241490               0.999999989              -0.000027600               0.001261859               0.999999989              -0.000002843               0.001281266               0.999999989               0.000028302               0.001299320               0.999999989               0.000066871               0.001315877               0.999999989               0.000113640               0.001331033               0.999999989               0.000169015               0.001345172               0.999999989              -0.000147562               0.001179316               0.999999989              -0.000099748               0.001190749               0.999999989              -0.000077175               0.001192849               0.999999989              -0.000066057               0.001197051               0.999999989              -0.000060164               0.001206057               0.999999989              -0.000056367               0.001219883               0.999999989              -0.000052681               0.001237686               0.999999989              -0.000048170               0.001258712               0.999999989              -0.000042179               0.001282039               0.999999989              -0.000034207               0.001307005               0.999999989              -0.000024049               0.001332940               0.999999989              -0.000011048               0.001359323               0.999999989               0.000005707               0.001385651               0.999999989               0.000027374               0.001411494               0.999999989               0.000055324               0.001436423               0.999999989               0.000090569               0.001459994               0.999999989               0.000134519               0.001482040               0.999999989              -0.000074166               0.001199121               0.999999989              -0.000049680               0.001222306               0.999999989              -0.000037654               0.001231453               0.999999989              -0.000031513               0.001239992               0.999999989              -0.000028168               0.001251804               0.999999989              -0.000026073               0.001267754               0.999999989              -0.000024019               0.001287616               0.999999989              -0.000021543               0.001310769               0.999999989              -0.000018381               0.001336461               0.999999989              -0.000014391               0.001364228               0.999999989              -0.000009330               0.001393640               0.999999989              -0.000002893               0.001424286               0.999999989               0.000005547               0.001455646               0.999999989               0.000016691               0.001487247               0.999999989               0.000031374               0.001518461               0.999999989               0.000050693               0.001548496               0.999999989               0.000075648               0.001576579               0.999999989              -0.000000000               0.001205745               0.999999989              -0.000000000               0.001233026               0.999999989               0.000000000               0.001244734               0.999999989              -0.000000000               0.001254786               0.999999989               0.000000000               0.001267629               0.999999989               0.000000000               0.001284511               0.999999989              -0.000000000               0.001305087               0.999999989               0.000000000               0.001328847               0.999999989               0.000000000               0.001355317               0.999999989               0.000000000               0.001384080               0.999999989              -0.000000000               0.001414781               0.999999989              -0.000000000               0.001447013               0.999999989               0.000000000               0.001480279               0.999999989               0.000000000               0.001514144               0.999999989              -0.000000000               0.001547904               0.999999989               0.000000000               0.001580594               0.999999989              -0.000000000               0.001611094               0.999999989              -0.000785352               0.000000000               0.999999989              -0.000828935               0.000000000               0.999999989              -0.000847325               0.000000000               0.999999989              -0.000857515               0.000000000               0.999999989              -0.000865627               0.000000000               0.999999989              -0.000873865              -0.000000000               0.999999989              -0.000882895               0.000000000               0.999999989              -0.000892571              -0.000000000               0.999999989              -0.000902801               0.000000000               0.999999989              -0.000913209               0.000000000               0.999999989              -0.000923596               0.000000000               0.999999989              -0.000933879               0.000000000               0.999999989              -0.000943679               0.000000000               0.999999989              -0.000952516              -0.000000000               0.999999989              -0.000959997               0.000000000               0.999999989              -0.000965589               0.000000000               0.999999989              -0.000968498              -0.000000000               0.999999989              -0.000780932              -0.000113921               0.999999989              -0.000820763              -0.000090152               0.999999989              -0.000836685              -0.000079169               0.999999989              -0.000845296              -0.000074339               0.999999989              -0.000852396              -0.000072654               0.999999989              -0.000859890              -0.000072300               0.999999989              -0.000868184              -0.000072563               0.999999989              -0.000877135              -0.000072636               0.999999989              -0.000886475              -0.000072073               0.999999989              -0.000895965              -0.000070631               0.999999989              -0.000905362              -0.000068120               0.999999989              -0.000914269              -0.000064268               0.999999989              -0.000922398              -0.000058756               0.999999989              -0.000929356              -0.000051172               0.999999989              -0.000934781              -0.000041033               0.999999989              -0.000938164              -0.000027532               0.999999989              -0.000938861              -0.000009624               0.999999989              -0.000767674              -0.000226772               0.999999989              -0.000796667              -0.000180030               0.999999989              -0.000805998              -0.000159176               0.999999989              -0.000810536              -0.000150574               0.999999989              -0.000814902              -0.000147815               0.999999989              -0.000820238              -0.000147599               0.999999989              -0.000826479              -0.000148172               0.999999989              -0.000833317              -0.000148352               0.999999989              -0.000840309              -0.000147242               0.999999989              -0.000847069              -0.000144441               0.999999989              -0.000853285              -0.000139488               0.999999989              -0.000858474              -0.000131717               0.999999989              -0.000862283              -0.000120789               0.999999989              -0.000864383              -0.000106137               0.999999989              -0.000864315              -0.000086716               0.999999989              -0.000861718              -0.000061568               0.999999989              -0.000856371              -0.000029205               0.999999989              -0.000746060              -0.000337465               0.999999989              -0.000758170              -0.000269460               0.999999989              -0.000758059              -0.000240730               0.999999989              -0.000757079              -0.000229901               0.999999989              -0.000757842              -0.000227188               0.999999989              -0.000760251              -0.000227678               0.999999989              -0.000763671              -0.000228848               0.999999989              -0.000767452              -0.000229199               0.999999989              -0.000770968              -0.000227591               0.999999989              -0.000773558              -0.000223464               0.999999989              -0.000774718              -0.000216036               0.999999989              -0.000774050              -0.000204679               0.999999989              -0.000771196              -0.000188836               0.999999989              -0.000765733              -0.000167905               0.999999989              -0.000757431              -0.000140846               0.999999989              -0.000746302              -0.000106919               0.999999989              -0.000732652              -0.000065664               0.999999989              -0.000716739              -0.000445071               0.999999989              -0.000707323              -0.000358321               0.999999989              -0.000696460              -0.000324303               0.999999989              -0.000689916              -0.000312951               0.999999989              -0.000687140              -0.000311219               0.999999989              -0.000686466              -0.000312860               0.999999989              -0.000686799              -0.000314963               0.999999989              -0.000687023              -0.000315691               0.999999989              -0.000686182              -0.000313533               0.999999989              -0.000683448              -0.000307972               0.999999989              -0.000678182              -0.000298246               0.999999989              -0.000669942              -0.000283592               0.999999989              -0.000658477              -0.000263628               0.999999989              -0.000643581              -0.000237677               0.999999989              -0.000625480              -0.000205444               0.999999989              -0.000604845              -0.000167013               0.999999989              -0.000582611              -0.000123342               0.999999989              -0.000680066              -0.000548827               0.999999989              -0.000646523              -0.000446749               0.999999989              -0.000625733              -0.000409946               0.999999989              -0.000614737              -0.000399434               0.999999989              -0.000609116              -0.000399287               0.999999989              -0.000605964              -0.000402398               0.999999989              -0.000603345              -0.000405546               0.999999989              -0.000599738              -0.000406568               0.999999989              -0.000593872              -0.000403846               0.999999989              -0.000584740              -0.000396860               0.999999989              -0.000571902              -0.000384825               0.999999989              -0.000555115              -0.000367241               0.999999989              -0.000534215              -0.000343652               0.999999989              -0.000509521              -0.000314134               0.999999989              -0.000481844              -0.000279060               0.999999989              -0.000452218              -0.000239794               0.999999989              -0.000421661              -0.000197757               0.999999989              -0.000636905              -0.000647718               0.999999989              -0.000578911              -0.000534751               0.999999989              -0.000550373              -0.000497364               0.999999989              -0.000536876              -0.000488395               0.999999989              -0.000529866              -0.000489903               0.999999989              -0.000524856              -0.000494447               0.999999989              -0.000519343              -0.000498528               0.999999989              -0.000511465              -0.000499771               0.999999989              -0.000499693              -0.000496412               0.999999989              -0.000483278              -0.000487856               0.999999989              -0.000461926              -0.000473709               0.999999989              -0.000435555              -0.000453573               0.999999989              -0.000404575              -0.000427514               0.999999989              -0.000369865              -0.000396005               0.999999989              -0.000332496              -0.000360597               0.999999989              -0.000293610              -0.000322678               0.999999989              -0.000254162              -0.000283790               0.999999989              -0.000588061              -0.000740758               0.999999989              -0.000507429              -0.000622304               0.999999989              -0.000474430              -0.000585836               0.999999989              -0.000460783              -0.000578373               0.999999989              -0.000453545              -0.000581338               0.999999989              -0.000447050              -0.000587070               0.999999989              -0.000438469              -0.000591870               0.999999989              -0.000425573              -0.000593066               0.999999989              -0.000406998              -0.000588956               0.999999989              -0.000382171              -0.000579056               0.999999989              -0.000351088              -0.000563080               0.999999989              -0.000314016              -0.000541128               0.999999989              -0.000271943              -0.000514096               0.999999989              -0.000226139              -0.000483187               0.999999989              -0.000178150              -0.000449900               0.999999989              -0.000129255              -0.000415515               0.999999989              -0.000080506              -0.000381464               0.999999989              -0.000535023              -0.000826250               0.999999989              -0.000434536              -0.000709310               0.999999989              -0.000401776              -0.000674029               0.999999989              -0.000389696              -0.000667557               0.999999989              -0.000382932              -0.000671602               0.999999989              -0.000375053              -0.000678097               0.999999989              -0.000362834              -0.000683364               0.999999989              -0.000343906              -0.000684337               0.999999989              -0.000317299              -0.000679570               0.999999989              -0.000282737              -0.000668501               0.999999989              -0.000240369              -0.000651375               0.999999989              -0.000191040              -0.000629050               0.999999989              -0.000136552              -0.000603070               0.999999989              -0.000078815              -0.000575068               0.999999989              -0.000019564              -0.000546419               0.999999989               0.000039817              -0.000518254               0.999999989               0.000098618              -0.000491025               0.999999989              -0.000480083              -0.000907402               0.999999989              -0.000373299              -0.000807560               0.999999989              -0.000338142              -0.000769427               0.999999989              -0.000325696              -0.000758947               0.999999989              -0.000319673              -0.000760411               0.999999989              -0.000313171              -0.000766558               0.999999989              -0.000303420              -0.000773453               0.999999989              -0.000288039              -0.000778718               0.999999989              -0.000265931              -0.000780437               0.999999989              -0.000236561              -0.000777691               0.999999989              -0.000199649              -0.000770307               0.999999989              -0.000155208              -0.000758479               0.999999989              -0.000104308              -0.000743036               0.999999989              -0.000048617              -0.000725213               0.999999989               0.000010216              -0.000706515               0.999999989               0.000070467              -0.000687905               0.999999989               0.000131003              -0.000670143               0.999999989              -0.000420165              -0.000981598               0.999999989              -0.000314360              -0.000902987               0.999999989              -0.000277122              -0.000867533               0.999999989              -0.000263468              -0.000855321               0.999999989              -0.000257344              -0.000855356               0.999999989              -0.000251870              -0.000861424               0.999999989              -0.000243907              -0.000869774               0.999999989              -0.000231627              -0.000878226               0.999999989              -0.000213737              -0.000885150               0.999999989              -0.000189337              -0.000889420               0.999999989              -0.000157823              -0.000890468               0.999999989              -0.000119137              -0.000887979               0.999999989              -0.000073432              -0.000882146               0.999999989              -0.000021601              -0.000873737               0.999999989               0.000034999              -0.000864074               0.999999989               0.000094622              -0.000854204               0.999999989               0.000155438              -0.000844988               0.999999989              -0.000356409              -0.001047003               0.999999989              -0.000257705              -0.000992644               0.999999989              -0.000219999              -0.000964071               0.999999989              -0.000205018              -0.000953115               0.999999989              -0.000198194              -0.000953316               0.999999989              -0.000193186              -0.000960053               0.999999989              -0.000186676              -0.000970142               0.999999989              -0.000176824              -0.000981610               0.999999989              -0.000162457              -0.000992988               0.999999989              -0.000142733              -0.001003229               0.999999989              -0.000116755              -0.001011454               0.999999989              -0.000084416              -0.001017226               0.999999989              -0.000045047              -0.001020335               0.999999989               0.000001350              -0.001020938               0.999999989               0.000054041              -0.001019781               0.999999989               0.000111819              -0.001017934               0.999999989               0.000172796              -0.001016496               0.999999989              -0.000289300              -0.001102497               0.999999989              -0.000203233              -0.001072922               0.999999989              -0.000167577              -0.001054079               0.999999989              -0.000152195              -0.001047020               0.999999989              -0.000144749              -0.001049090               0.999999989              -0.000139810              -0.001057502               0.999999989              -0.000134312              -0.001069910               0.999999989              -0.000126401              -0.001084635               0.999999989              -0.000115011              -0.001100280               0.999999989              -0.000099416              -0.001115937               0.999999989              -0.000078940              -0.001130763               0.999999989              -0.000052780              -0.001144144               0.999999989              -0.000020481              -0.001155639               0.999999989               0.000018918              -0.001165148               0.999999989               0.000065765              -0.001172806               0.999999989               0.000119702              -0.001179155               0.999999989               0.000179902              -0.001185245               0.999999989              -0.000219476              -0.001146895               0.999999989              -0.000150735              -0.001140082               0.999999989              -0.000120128              -0.001132116               0.999999989              -0.000105885              -0.001130611               0.999999989              -0.000098631              -0.001135912               0.999999989              -0.000093912              -0.001146862               0.999999989              -0.000089173              -0.001162046               0.999999989              -0.000082960              -0.001180132               0.999999989              -0.000074270              -0.001199881               0.999999989              -0.000062519              -0.001220585               0.999999989              -0.000047202              -0.001241490               0.999999989              -0.000027600              -0.001261859               0.999999989              -0.000002843              -0.001281266               0.999999989               0.000028302              -0.001299320               0.999999989               0.000066871              -0.001315877               0.999999989               0.000113640              -0.001331033               0.999999989               0.000169015              -0.001345172               0.999999989              -0.000147562              -0.001179316               0.999999989              -0.000099748              -0.001190749               0.999999989              -0.000077175              -0.001192849               0.999999989              -0.000066057              -0.001197051               0.999999989              -0.000060164              -0.001206057               0.999999989              -0.000056367              -0.001219883               0.999999989              -0.000052681              -0.001237686               0.999999989              -0.000048170              -0.001258712               0.999999989              -0.000042179              -0.001282039               0.999999989              -0.000034207              -0.001307005               0.999999989              -0.000024049              -0.001332940               0.999999989              -0.000011048              -0.001359323               0.999999989               0.000005707              -0.001385651               0.999999989               0.000027374              -0.001411494               0.999999989               0.000055324              -0.001436423               0.999999989               0.000090569              -0.001459994               0.999999989               0.000134519              -0.001482040               0.999999989              -0.000074166              -0.001199121               0.999999989              -0.000049680              -0.001222306               0.999999989              -0.000037654              -0.001231453               0.999999989              -0.000031513              -0.001239992               0.999999989              -0.000028168              -0.001251804               0.999999989              -0.000026073              -0.001267754               0.999999989              -0.000024019              -0.001287616               0.999999989              -0.000021543              -0.001310769               0.999999989              -0.000018381              -0.001336461               0.999999989              -0.000014391              -0.001364228               0.999999989              -0.000009330              -0.001393640               0.999999989              -0.000002893              -0.001424286               0.999999989               0.000005547              -0.001455646               0.999999989               0.000016691              -0.001487247               0.999999989               0.000031374              -0.001518461               0.999999989               0.000050693              -0.001548496               0.999999989               0.000075648              -0.001576579               0.999999989               0.000000000              -0.001205745               0.999999989               0.000000000              -0.001233026               0.999999989              -0.000000000              -0.001244734               0.999999989              -0.000000000              -0.001254786               0.999999989               0.000000000              -0.001267629               0.999999989               0.000000000              -0.001284511               0.999999989               0.000000000              -0.001305087               0.999999989               0.000000000              -0.001328847               0.999999989               0.000000000              -0.001355317               0.999999989               0.000000000              -0.001384080               0.999999989               0.000000000              -0.001414781               0.999999989              -0.000000000              -0.001447013               0.999999989              -0.000000000              -0.001480279               0.999999989              -0.000000000              -0.001514144               0.999999989              -0.000000000              -0.001547904               0.999999989              -0.000000000              -0.001580594               0.999999989               0.000000000              -0.001611094               0.999999989               0.000785352              -0.000000000               0.999999989               0.000828935              -0.000000000               0.999999989               0.000847325              -0.000000000               0.999999989               0.000857515               0.000000000               0.999999989               0.000865627              -0.000000000               0.999999989               0.000873865              -0.000000000               0.999999989               0.000882895              -0.000000000               0.999999989               0.000892571              -0.000000000               0.999999989               0.000902801              -0.000000000               0.999999989               0.000913209               0.000000000               0.999999989               0.000923596              -0.000000000               0.999999989               0.000933879               0.000000000               0.999999989               0.000943679               0.000000000               0.999999989               0.000952516              -0.000000000               0.999999989               0.000959997              -0.000000000               0.999999989               0.000965589               0.000000000               0.999999989               0.000968498               0.000000000               0.999999989               0.000780932              -0.000113921               0.999999989               0.000820763              -0.000090152               0.999999989               0.000836685              -0.000079169               0.999999989               0.000845296              -0.000074339               0.999999989               0.000852396              -0.000072654               0.999999989               0.000859890              -0.000072300               0.999999989               0.000868184              -0.000072563               0.999999989               0.000877135              -0.000072636               0.999999989               0.000886475              -0.000072073               0.999999989               0.000895965              -0.000070631               0.999999989               0.000905362              -0.000068120               0.999999989               0.000914269              -0.000064268               0.999999989               0.000922398              -0.000058756               0.999999989               0.000929356              -0.000051172               0.999999989               0.000934781              -0.000041033               0.999999989               0.000938164              -0.000027532               0.999999989               0.000938861              -0.000009624               0.999999989               0.000767674              -0.000226772               0.999999989               0.000796667              -0.000180030               0.999999989               0.000805998              -0.000159176               0.999999989               0.000810536              -0.000150574               0.999999989               0.000814902              -0.000147815               0.999999989               0.000820238              -0.000147599               0.999999989               0.000826479              -0.000148172               0.999999989               0.000833317              -0.000148352               0.999999989               0.000840309              -0.000147242               0.999999989               0.000847069              -0.000144441               0.999999989               0.000853285              -0.000139488               0.999999989               0.000858474              -0.000131717               0.999999989               0.000862283              -0.000120789               0.999999989               0.000864383              -0.000106137               0.999999989               0.000864315              -0.000086716               0.999999989               0.000861718              -0.000061568               0.999999989               0.000856371              -0.000029205               0.999999989               0.000746060              -0.000337465               0.999999989               0.000758170              -0.000269460               0.999999989               0.000758059              -0.000240730               0.999999989               0.000757079              -0.000229901               0.999999989               0.000757842              -0.000227188               0.999999989               0.000760251              -0.000227678               0.999999989               0.000763671              -0.000228848               0.999999989               0.000767452              -0.000229199               0.999999989               0.000770968              -0.000227591               0.999999989               0.000773558              -0.000223464               0.999999989               0.000774718              -0.000216036               0.999999989               0.000774050              -0.000204679               0.999999989               0.000771196              -0.000188836               0.999999989               0.000765733              -0.000167905               0.999999989               0.000757431              -0.000140846               0.999999989               0.000746302              -0.000106919               0.999999989               0.000732652              -0.000065664               0.999999989               0.000716739              -0.000445071               0.999999989               0.000707323              -0.000358321               0.999999989               0.000696460              -0.000324303               0.999999989               0.000689916              -0.000312951               0.999999989               0.000687140              -0.000311219               0.999999989               0.000686466              -0.000312860               0.999999989               0.000686799              -0.000314963               0.999999989               0.000687023              -0.000315691               0.999999989               0.000686182              -0.000313533               0.999999989               0.000683448              -0.000307972               0.999999989               0.000678182              -0.000298246               0.999999989               0.000669942              -0.000283592               0.999999989               0.000658477              -0.000263628               0.999999989               0.000643581              -0.000237677               0.999999989               0.000625480              -0.000205444               0.999999989               0.000604845              -0.000167013               0.999999989               0.000582611              -0.000123342               0.999999989               0.000680066              -0.000548827               0.999999989               0.000646523              -0.000446749               0.999999989               0.000625733              -0.000409946               0.999999989               0.000614737              -0.000399434               0.999999989               0.000609116              -0.000399287               0.999999989               0.000605964              -0.000402398               0.999999989               0.000603345              -0.000405546               0.999999989               0.000599738              -0.000406568               0.999999989               0.000593872              -0.000403846               0.999999989               0.000584740              -0.000396860               0.999999989               0.000571902              -0.000384825               0.999999989               0.000555115              -0.000367241               0.999999989               0.000534215              -0.000343652               0.999999989               0.000509521              -0.000314134               0.999999989               0.000481844              -0.000279060               0.999999989               0.000452218              -0.000239794               0.999999989               0.000421661              -0.000197757               0.999999989               0.000636905              -0.000647718               0.999999989               0.000578911              -0.000534751               0.999999989               0.000550373              -0.000497364               0.999999989               0.000536876              -0.000488395               0.999999989               0.000529866              -0.000489903               0.999999989               0.000524856              -0.000494447               0.999999989               0.000519343              -0.000498528               0.999999989               0.000511465              -0.000499771               0.999999989               0.000499693              -0.000496412               0.999999989               0.000483278              -0.000487856               0.999999989               0.000461926              -0.000473709               0.999999989               0.000435555              -0.000453573               0.999999989               0.000404575              -0.000427514               0.999999989               0.000369865              -0.000396005               0.999999989               0.000332496              -0.000360597               0.999999989               0.000293610              -0.000322678               0.999999989               0.000254162              -0.000283790               0.999999989               0.000588061              -0.000740758               0.999999989               0.000507429              -0.000622304               0.999999989               0.000474430              -0.000585836               0.999999989               0.000460783              -0.000578373               0.999999989               0.000453545              -0.000581338               0.999999989               0.000447050              -0.000587070               0.999999989               0.000438469              -0.000591870               0.999999989               0.000425573              -0.000593066               0.999999989               0.000406998              -0.000588956               0.999999989               0.000382171              -0.000579056               0.999999989               0.000351088              -0.000563080               0.999999989               0.000314016              -0.000541128               0.999999989               0.000271943              -0.000514096               0.999999989               0.000226139              -0.000483187               0.999999989               0.000178150              -0.000449900               0.999999989               0.000129255              -0.000415515               0.999999989               0.000080506              -0.000381464               0.999999989               0.000535023              -0.000826250               0.999999989               0.000434536              -0.000709310               0.999999989               0.000401776              -0.000674029               0.999999989               0.000389696              -0.000667557               0.999999989               0.000382932              -0.000671602               0.999999989               0.000375053              -0.000678097               0.999999989               0.000362834              -0.000683364               0.999999989               0.000343906              -0.000684337               0.999999989               0.000317299              -0.000679570               0.999999989               0.000282737              -0.000668501               0.999999989               0.000240369              -0.000651375               0.999999989               0.000191040              -0.000629050               0.999999989               0.000136552              -0.000603070               0.999999989               0.000078815              -0.000575068               0.999999989               0.000019564              -0.000546419               0.999999989              -0.000039817              -0.000518254               0.999999989              -0.000098618              -0.000491025               0.999999989               0.000480083              -0.000907402               0.999999989               0.000373299              -0.000807560               0.999999989               0.000338142              -0.000769427               0.999999989               0.000325696              -0.000758947               0.999999989               0.000319673              -0.000760411               0.999999989               0.000313171              -0.000766558               0.999999989               0.000303420              -0.000773453               0.999999989               0.000288039              -0.000778718               0.999999989               0.000265931              -0.000780437               0.999999989               0.000236561              -0.000777691               0.999999989               0.000199649              -0.000770307               0.999999989               0.000155208              -0.000758479               0.999999989               0.000104308              -0.000743036               0.999999989               0.000048617              -0.000725213               0.999999989              -0.000010216              -0.000706515               0.999999989              -0.000070467              -0.000687905               0.999999989              -0.000131003              -0.000670143               0.999999989               0.000420165              -0.000981598               0.999999989               0.000314360              -0.000902987               0.999999989               0.000277122              -0.000867533               0.999999989               0.000263468              -0.000855321               0.999999989               0.000257344              -0.000855356               0.999999989               0.000251870              -0.000861424               0.999999989               0.000243907              -0.000869774               0.999999989               0.000231627              -0.000878226               0.999999989               0.000213737              -0.000885150               0.999999989               0.000189337              -0.000889420               0.999999989               0.000157823              -0.000890468               0.999999989               0.000119137              -0.000887979               0.999999989               0.000073432              -0.000882146               0.999999989               0.000021601              -0.000873737               0.999999989              -0.000034999              -0.000864074               0.999999989              -0.000094622              -0.000854204               0.999999989              -0.000155438              -0.000844988               0.999999989               0.000356409              -0.001047003               0.999999989               0.000257705              -0.000992644               0.999999989               0.000219999              -0.000964071               0.999999989               0.000205018              -0.000953115               0.999999989               0.000198194              -0.000953316               0.999999989               0.000193186              -0.000960053               0.999999989               0.000186676              -0.000970142               0.999999989               0.000176824              -0.000981610               0.999999989               0.000162457              -0.000992988               0.999999989               0.000142733              -0.001003229               0.999999989               0.000116755              -0.001011454               0.999999989               0.000084416              -0.001017226               0.999999989               0.000045047              -0.001020335               0.999999989              -0.000001350              -0.001020938               0.999999989              -0.000054041              -0.001019781               0.999999989              -0.000111819              -0.001017934               0.999999989              -0.000172796              -0.001016496               0.999999989               0.000289300              -0.001102497               0.999999989               0.000203233              -0.001072922               0.999999989               0.000167577              -0.001054079               0.999999989               0.000152195              -0.001047020               0.999999989               0.000144749              -0.001049090               0.999999989               0.000139810              -0.001057502               0.999999989               0.000134312              -0.001069910               0.999999989               0.000126401              -0.001084635               0.999999989               0.000115011              -0.001100280               0.999999989               0.000099416              -0.001115937               0.999999989               0.000078940              -0.001130763               0.999999989               0.000052780              -0.001144144               0.999999989               0.000020481              -0.001155639               0.999999989              -0.000018918              -0.001165148               0.999999989              -0.000065765              -0.001172806               0.999999989              -0.000119702              -0.001179155               0.999999989              -0.000179902              -0.001185245               0.999999989               0.000219476              -0.001146895               0.999999989               0.000150735              -0.001140082               0.999999989               0.000120128              -0.001132116               0.999999989               0.000105885              -0.001130611               0.999999989               0.000098631              -0.001135912               0.999999989               0.000093912              -0.001146862               0.999999989               0.000089173              -0.001162046               0.999999989               0.000082960              -0.001180132               0.999999989               0.000074270              -0.001199881               0.999999989               0.000062519              -0.001220585               0.999999989               0.000047202              -0.001241490               0.999999989               0.000027600              -0.001261859               0.999999989               0.000002843              -0.001281266               0.999999989              -0.000028302              -0.001299320               0.999999989              -0.000066871              -0.001315877               0.999999989              -0.000113640              -0.001331033               0.999999989              -0.000169015              -0.001345172               0.999999989               0.000147562              -0.001179316               0.999999989               0.000099748              -0.001190749               0.999999989               0.000077175              -0.001192849               0.999999989               0.000066057              -0.001197051               0.999999989               0.000060164              -0.001206057               0.999999989               0.000056367              -0.001219883               0.999999989               0.000052681              -0.001237686               0.999999989               0.000048170              -0.001258712               0.999999989               0.000042179              -0.001282039               0.999999989               0.000034207              -0.001307005               0.999999989               0.000024049              -0.001332940               0.999999989               0.000011048              -0.001359323               0.999999989              -0.000005707              -0.001385651               0.999999989              -0.000027374              -0.001411494               0.999999989              -0.000055324              -0.001436423               0.999999989              -0.000090569              -0.001459994               0.999999989              -0.000134519              -0.001482040               0.999999989               0.000074166              -0.001199121               0.999999989               0.000049680              -0.001222306               0.999999989               0.000037654              -0.001231453               0.999999989               0.000031513              -0.001239992               0.999999989               0.000028168              -0.001251804               0.999999989               0.000026073              -0.001267754               0.999999989               0.000024019              -0.001287616               0.999999989               0.000021543              -0.001310769               0.999999989               0.000018381              -0.001336461               0.999999989               0.000014391              -0.001364228               0.999999989               0.000009330              -0.001393640               0.999999989               0.000002893              -0.001424286               0.999999989              -0.000005547              -0.001455646               0.999999989              -0.000016691              -0.001487247               0.999999989              -0.000031374              -0.001518461               0.999999989              -0.000050693              -0.001548496               0.999999989              -0.000075648              -0.001576579               0.999999989               0.000000000              -0.001205745               0.999999989               0.000000000              -0.001233026               0.999999989              -0.000000000              -0.001244734               0.999999989              -0.000000000              -0.001254786               0.999999989               0.000000000              -0.001267629               0.999999989               0.000000000              -0.001284511               0.999999989               0.000000000              -0.001305087               0.999999989               0.000000000              -0.001328847               0.999999989               0.000000000              -0.001355317               0.999999989               0.000000000              -0.001384080               0.999999989               0.000000000              -0.001414781               0.999999989              -0.000000000              -0.001447013               0.999999989              -0.000000000              -0.001480279               0.999999989              -0.000000000              -0.001514144               0.999999989              -0.000000000              -0.001547904               0.999999989              -0.000000000              -0.001580594               0.999999989               0.000000000              -0.001611094               0.999999989               0.000785352              -0.000000000               0.999999989               0.000828935              -0.000000000               0.999999989               0.000847325              -0.000000000               0.999999989               0.000857515               0.000000000               0.999999989               0.000865627              -0.000000000               0.999999989               0.000873865              -0.000000000               0.999999989               0.000882895              -0.000000000               0.999999989               0.000892571              -0.000000000               0.999999989               0.000902801              -0.000000000               0.999999989               0.000913209               0.000000000               0.999999989               0.000923596              -0.000000000               0.999999989               0.000933879               0.000000000               0.999999989               0.000943679               0.000000000               0.999999989               0.000952516              -0.000000000               0.999999989               0.000959997              -0.000000000               0.999999989               0.000965589               0.000000000               0.999999989               0.000968498               0.000000000               0.999999989               0.000780932               0.000113921               0.999999989               0.000820763               0.000090152               0.999999989               0.000836685               0.000079169               0.999999989               0.000845296               0.000074339               0.999999989               0.000852396               0.000072654               0.999999989               0.000859890               0.000072300               0.999999989               0.000868184               0.000072563               0.999999989               0.000877135               0.000072636               0.999999989               0.000886475               0.000072073               0.999999989               0.000895965               0.000070631               0.999999989               0.000905362               0.000068120               0.999999989               0.000914269               0.000064268               0.999999989               0.000922398               0.000058756               0.999999989               0.000929356               0.000051172               0.999999989               0.000934781               0.000041033               0.999999989               0.000938164               0.000027532               0.999999989               0.000938861               0.000009624               0.999999989               0.000767674               0.000226772               0.999999989               0.000796667               0.000180030               0.999999989               0.000805998               0.000159176               0.999999989               0.000810536               0.000150574               0.999999989               0.000814902               0.000147815               0.999999989               0.000820238               0.000147599               0.999999989               0.000826479               0.000148172               0.999999989               0.000833317               0.000148352               0.999999989               0.000840309               0.000147242               0.999999989               0.000847069               0.000144441               0.999999989               0.000853285               0.000139488               0.999999989               0.000858474               0.000131717               0.999999989               0.000862283               0.000120789               0.999999989               0.000864383               0.000106137               0.999999989               0.000864315               0.000086716               0.999999989               0.000861718               0.000061568               0.999999989               0.000856371               0.000029205               0.999999989               0.000746060               0.000337465               0.999999989               0.000758170               0.000269460               0.999999989               0.000758059               0.000240730               0.999999989               0.000757079               0.000229901               0.999999989               0.000757842               0.000227188               0.999999989               0.000760251               0.000227678               0.999999989               0.000763671               0.000228848               0.999999989               0.000767452               0.000229199               0.999999989               0.000770968               0.000227591               0.999999989               0.000773558               0.000223464               0.999999989               0.000774718               0.000216036               0.999999989               0.000774050               0.000204679               0.999999989               0.000771196               0.000188836               0.999999989               0.000765733               0.000167905               0.999999989               0.000757431               0.000140846               0.999999989               0.000746302               0.000106919               0.999999989               0.000732652               0.000065664               0.999999989               0.000716739               0.000445071               0.999999989               0.000707323               0.000358321               0.999999989               0.000696460               0.000324303               0.999999989               0.000689916               0.000312951               0.999999989               0.000687140               0.000311219               0.999999989               0.000686466               0.000312860               0.999999989               0.000686799               0.000314963               0.999999989               0.000687023               0.000315691               0.999999989               0.000686182               0.000313533               0.999999989               0.000683448               0.000307972               0.999999989               0.000678182               0.000298246               0.999999989               0.000669942               0.000283592               0.999999989               0.000658477               0.000263628               0.999999989               0.000643581               0.000237677               0.999999989               0.000625480               0.000205444               0.999999989               0.000604845               0.000167013               0.999999989               0.000582611               0.000123342               0.999999989               0.000680066               0.000548827               0.999999989               0.000646523               0.000446749               0.999999989               0.000625733               0.000409946               0.999999989               0.000614737               0.000399434               0.999999989               0.000609116               0.000399287               0.999999989               0.000605964               0.000402398               0.999999989               0.000603345               0.000405546               0.999999989               0.000599738               0.000406568               0.999999989               0.000593872               0.000403846               0.999999989               0.000584740               0.000396860               0.999999989               0.000571902               0.000384825               0.999999989               0.000555115               0.000367241               0.999999989               0.000534215               0.000343652               0.999999989               0.000509521               0.000314134               0.999999989               0.000481844               0.000279060               0.999999989               0.000452218               0.000239794               0.999999989               0.000421661               0.000197757               0.999999989               0.000636905               0.000647718               0.999999989               0.000578911               0.000534751               0.999999989               0.000550373               0.000497364               0.999999989               0.000536876               0.000488395               0.999999989               0.000529866               0.000489903               0.999999989               0.000524856               0.000494447               0.999999989               0.000519343               0.000498528               0.999999989               0.000511465               0.000499771               0.999999989               0.000499693               0.000496412               0.999999989               0.000483278               0.000487856               0.999999989               0.000461926               0.000473709               0.999999989               0.000435555               0.000453573               0.999999989               0.000404575               0.000427514               0.999999989               0.000369865               0.000396005               0.999999989               0.000332496               0.000360597               0.999999989               0.000293610               0.000322678               0.999999989               0.000254162               0.000283790               0.999999989               0.000588061               0.000740758               0.999999989               0.000507429               0.000622304               0.999999989               0.000474430               0.000585836               0.999999989               0.000460783               0.000578373               0.999999989               0.000453545               0.000581338               0.999999989               0.000447050               0.000587070               0.999999989               0.000438469               0.000591870               0.999999989               0.000425573               0.000593066               0.999999989               0.000406998               0.000588956               0.999999989               0.000382171               0.000579056               0.999999989               0.000351088               0.000563080               0.999999989               0.000314016               0.000541128               0.999999989               0.000271943               0.000514096               0.999999989               0.000226139               0.000483187               0.999999989               0.000178150               0.000449900               0.999999989               0.000129255               0.000415515               0.999999989               0.000080506               0.000381464               0.999999989               0.000535023               0.000826250               0.999999989               0.000434536               0.000709310               0.999999989               0.000401776               0.000674029               0.999999989               0.000389696               0.000667557               0.999999989               0.000382932               0.000671602               0.999999989               0.000375053               0.000678097               0.999999989               0.000362834               0.000683364               0.999999989               0.000343906               0.000684337               0.999999989               0.000317299               0.000679570               0.999999989               0.000282737               0.000668501               0.999999989               0.000240369               0.000651375               0.999999989               0.000191040               0.000629050               0.999999989               0.000136552               0.000603070               0.999999989               0.000078815               0.000575068               0.999999989               0.000019564               0.000546419               0.999999989              -0.000039817               0.000518254               0.999999989              -0.000098618               0.000491025               0.999999989               0.000480083               0.000907402               0.999999989               0.000373299               0.000807560               0.999999989               0.000338142               0.000769427               0.999999989               0.000325696               0.000758947               0.999999989               0.000319673               0.000760411               0.999999989               0.000313171               0.000766558               0.999999989               0.000303420               0.000773453               0.999999989               0.000288039               0.000778718               0.999999989               0.000265931               0.000780437               0.999999989               0.000236561               0.000777691               0.999999989               0.000199649               0.000770307               0.999999989               0.000155208               0.000758479               0.999999989               0.000104308               0.000743036               0.999999989               0.000048617               0.000725213               0.999999989              -0.000010216               0.000706515               0.999999989              -0.000070467               0.000687905               0.999999989              -0.000131003               0.000670143               0.999999989               0.000420165               0.000981598               0.999999989               0.000314360               0.000902987               0.999999989               0.000277122               0.000867533               0.999999989               0.000263468               0.000855321               0.999999989               0.000257344               0.000855356               0.999999989               0.000251870               0.000861424               0.999999989               0.000243907               0.000869774               0.999999989               0.000231627               0.000878226               0.999999989               0.000213737               0.000885150               0.999999989               0.000189337               0.000889420               0.999999989               0.000157823               0.000890468               0.999999989               0.000119137               0.000887979               0.999999989               0.000073432               0.000882146               0.999999989               0.000021601               0.000873737               0.999999989              -0.000034999               0.000864074               0.999999989              -0.000094622               0.000854204               0.999999989              -0.000155438               0.000844988               0.999999989               0.000356409               0.001047003               0.999999989               0.000257705               0.000992644               0.999999989               0.000219999               0.000964071               0.999999989               0.000205018               0.000953115               0.999999989               0.000198194               0.000953316               0.999999989               0.000193186               0.000960053               0.999999989               0.000186676               0.000970142               0.999999989               0.000176824               0.000981610               0.999999989               0.000162457               0.000992988               0.999999989               0.000142733               0.001003229               0.999999989               0.000116755               0.001011454               0.999999989               0.000084416               0.001017226               0.999999989               0.000045047               0.001020335               0.999999989              -0.000001350               0.001020938               0.999999989              -0.000054041               0.001019781               0.999999989              -0.000111819               0.001017934               0.999999989              -0.000172796               0.001016496               0.999999989               0.000289300               0.001102497               0.999999989               0.000203233               0.001072922               0.999999989               0.000167577               0.001054079               0.999999989               0.000152195               0.001047020               0.999999989               0.000144749               0.001049090               0.999999989               0.000139810               0.001057502               0.999999989               0.000134312               0.001069910               0.999999989               0.000126401               0.001084635               0.999999989               0.000115011               0.001100280               0.999999989               0.000099416               0.001115937               0.999999989               0.000078940               0.001130763               0.999999989               0.000052780               0.001144144               0.999999989               0.000020481               0.001155639               0.999999989              -0.000018918               0.001165148               0.999999989              -0.000065765               0.001172806               0.999999989              -0.000119702               0.001179155               0.999999989              -0.000179902               0.001185245               0.999999989               0.000219476               0.001146895               0.999999989               0.000150735               0.001140082               0.999999989               0.000120128               0.001132116               0.999999989               0.000105885               0.001130611               0.999999989               0.000098631               0.001135912               0.999999989               0.000093912               0.001146862               0.999999989               0.000089173               0.001162046               0.999999989               0.000082960               0.001180132               0.999999989               0.000074270               0.001199881               0.999999989               0.000062519               0.001220585               0.999999989               0.000047202               0.001241490               0.999999989               0.000027600               0.001261859               0.999999989               0.000002843               0.001281266               0.999999989              -0.000028302               0.001299320               0.999999989              -0.000066871               0.001315877               0.999999989              -0.000113640               0.001331033               0.999999989              -0.000169015               0.001345172               0.999999989               0.000147562               0.001179316               0.999999989               0.000099748               0.001190749               0.999999989               0.000077175               0.001192849               0.999999989               0.000066057               0.001197051               0.999999989               0.000060164               0.001206057               0.999999989               0.000056367               0.001219883               0.999999989               0.000052681               0.001237686               0.999999989               0.000048170               0.001258712               0.999999989               0.000042179               0.001282039               0.999999989               0.000034207               0.001307005               0.999999989               0.000024049               0.001332940               0.999999989               0.000011048               0.001359323               0.999999989              -0.000005707               0.001385651               0.999999989              -0.000027374               0.001411494               0.999999989              -0.000055324               0.001436423               0.999999989              -0.000090569               0.001459994               0.999999989              -0.000134519               0.001482040               0.999999989               0.000074166               0.001199121               0.999999989               0.000049680               0.001222306               0.999999989               0.000037654               0.001231453               0.999999989               0.000031513               0.001239992               0.999999989               0.000028168               0.001251804               0.999999989               0.000026073               0.001267754               0.999999989               0.000024019               0.001287616               0.999999989               0.000021543               0.001310769               0.999999989               0.000018381               0.001336461               0.999999989               0.000014391               0.001364228               0.999999989               0.000009330               0.001393640               0.999999989               0.000002893               0.001424286               0.999999989              -0.000005547               0.001455646               0.999999989              -0.000016691               0.001487247               0.999999989              -0.000031374               0.001518461               0.999999989              -0.000050693               0.001548496               0.999999989              -0.000075648               0.001576579               0.999999989              -0.000000000               0.001205745               0.999999989              -0.000000000               0.001233026               0.999999989               0.000000000               0.001244734               0.999999989              -0.000000000               0.001254786               0.999999989               0.000000000               0.001267629               0.999999989               0.000000000               0.001284511               0.999999989              -0.000000000               0.001305087               0.999999989               0.000000000               0.001328847               0.999999989               0.000000000               0.001355317               0.999999989               0.000000000               0.001384080               0.999999989              -0.000000000               0.001414781               0.999999989              -0.000000000               0.001447013               0.999999989               0.000000000               0.001480279               0.999999989               0.000000000               0.001514144               0.999999989              -0.000000000               0.001547904               0.999999989               0.000000000               0.001580594               0.999999989              -0.000000000               0.001611094               0.999999989 </DataArray>
<DataArray type="Float64"                                    Name="defo"                                                      NumberOfComponents=" 3" format="ascii">
             -0.000785352               0.000000000               0.999999989              -0.000828935               0.000000000               0.999999989              -0.000847325               0.000000000               0.999999989              -0.000857515               0.000000000               0.999999989              -0.000865627               0.000000000               0.999999989              -0.000873865              -0.000000000               0.999999989              -0.000882895               0.000000000               0.999999989              -0.000892571              -0.000000000               0.999999989              -0.000902801               0.000000000               0.999999989              -0.000913209               0.000000000               0.999999989              -0.000923596               0.000000000               0.999999989              -0.000933879               0.000000000               0.999999989              -0.000943679               0.000000000               0.999999989              -0.000952516              -0.000000000               0.999999989              -0.000959997               0.000000000               0.999999989              -0.000965589               0.000000000               0.999999989              -0.000968498              -0.000000000               0.999999989              -0.000780932               0.000113921               0.999999989              -0.000820763               0.000090152               0.999999989              -0.000836685               0.000079169               0.999999989              -0.000845296               0.000074339               0.999999989              -0.000852396               0.000072654               0.999999989              -0.000859890               0.000072300               0.999999989              -0.000868184               0.000072563               0.999999989              -0.000877135               0.000072636               0.999999989              -0.000886475               0.000072073               0.999999989              -0.000895965               0.000070631               0.999999989              -0.000905362               0.000068120               0.999999989              -0.000914269               0.000064268               0.999999989              -0.000922398               0.000058756               0.999999989              -0.000929356               0.000051172               0.999999989              -0.000934781               0.000041033               0.999999989              -0.000938164               0.000027532               0.999999989              -0.000938861               0.000009624               0.999999989              -0.000767674               0.000226772               0.999999989              -0.000796667               0.000180030               0.999999989              -0.000805998               0.000159176               0.999999989              -0.000810536               0.000150574               0.999999989              -0.000814902               0.000147815               0.999999989              -0.000820238               0.000147599               0.999999989              -0.000826479               0.000148172               0.999999989              -0.000833317               0.000148352               0.999999989              -0.000840309               0.000147242               0.999999989              -0.000847069               0.000144441               0.999999989              -0.000853285               0.000139488               0.999999989              -0.000858474               0.000131717               0.999999989              -0.000862283               0.000120789               0.999999989              -0.000864383               0.000106137               0.999999989              -0.000864315               0.000086716               0.999999989              -0.000861718               0.000061568               0.999999989              -0.000856371               0.000029205               0.999999989              -0.000746060               0.000337465               0.999999989              -0.000758170               0.000269460               0.999999989              -0.000758059               0.000240730               0.999999989              -0.000757079               0.000229901               0.999999989              -0.000757842               0.000227188               0.999999989              -0.000760251               0.000227678               0.999999989              -0.000763671               0.000228848               0.999999989              -0.000767452               0.000229199               0.999999989              -0.000770968               0.000227591               0.999999989              -0.000773558               0.000223464               0.999999989              -0.000774718               0.000216036               0.999999989              -0.000774050               0.000204679               0.999999989              -0.000771196               0.000188836               0.999999989              -0.000765733               0.000167905               0.999999989              -0.000757431               0.000140846               0.999999989              -0.000746302               0.000106919               0.999999989              -0.000732652               0.000065664               0.999999989              -0.000716739               0.000445071               0.999999989              -0.000707323               0.000358321               0.999999989              -0.000696460               0.000324303               0.999999989              -0.000689916               0.000312951               0.999999989              -0.000687140               0.000311219               0.999999989              -0.000686466               0.000312860               0.999999989              -0.000686799               0.000314963               0.999999989              -0.000687023               0.000315691               0.999999989              -0.000686182               0.000313533               0.999999989              -0.000683448               0.000307972               0.999999989              -0.000678182               0.000298246               0.999999989              -0.000669942               0.000283592               0.999999989              -0.000658477               0.000263628               0.999999989              -0.000643581               0.000237677               0.999999989              -0.000625480               0.000205444               0.999999989              -0.000604845               0.000167013               0.999999989              -0.000582611               0.000123342               0.999999989              -0.000680066               0.000548827               0.999999989              -0.000646523               0.000446749               0.999999989              -0.000625733               0.000409946               0.999999989              -0.000614737               0.000399434               0.999999989              -0.000609116               0.000399287               0.999999989              -0.000605964               0.000402398               0.999999989              -0.000603345               0.000405546               0.999999989              -0.000599738               0.000406568               0.999999989              -0.000593872               0.000403846               0.999999989              -0.000584740               0.000396860               0.999999989              -0.000571902               0.000384825               0.999999989              -0.000555115               0.000367241               0.999999989              -0.000534215               0.000343652               0.999999989              -0.000509521               0.000314134               0.999999989              -0.000481844               0.000279060               0.999999989              -0.000452218               0.000239794               0.999999989              -0.000421661               0.000197757               0.999999989              -0.000636905               0.000647718               0.999999989              -0.000578911               0.000534751               0.999999989              -0.000550373               0.000497364               0.999999989              -0.000536876               0.000488395               0.999999989              -0.000529866               0.000489903               0.999999989              -0.000524856               0.000494447               0.999999989              -0.000519343               0.000498528               0.999999989              -0.000511465               0.000499771               0.999999989              -0.000499693               0.000496412               0.999999989              -0.000483278               0.000487856               0.999999989              -0.000461926               0.000473709               0.999999989              -0.000435555               0.000453573               0.999999989              -0.000404575               0.000427514               0.999999989              -0.000369865               0.000396005               0.999999989              -0.000332496               0.000360597               0.999999989              -0.000293610               0.000322678               0.999999989              -0.000254162               0.000283790               0.999999989              -0.000588061               0.000740758               0.999999989              -0.000507429               0.000622304               0.999999989              -0.000474430               0.000585836               0.999999989              -0.000460783               0.000578373               0.999999989              -0.000453545               0.000581338               0.999999989              -0.000447050               0.000587070               0.999999989              -0.000438469               0.000591870               0.999999989              -0.000425573               0.000593066               0.999999989              -0.000406998               0.000588956               0.999999989              -0.000382171               0.000579056               0.999999989              -0.000351088               0.000563080               0.999999989              -0.000314016               0.000541128               0.999999989              -0.000271943               0.000514096               0.999999989              -0.000226139               0.000483187               0.999999989              -0.000178150               0.000449900               0.999999989              -0.000129255               0.000415515               0.999999989              -0.000080506               0.000381464               0.999999989              -0.000535023               0.000826250               0.999999989              -0.000434536               0.000709310               0.999999989              -0.000401776               0.000674029               0.999999989              -0.000389696               0.000667557               0.999999989              -0.000382932               0.000671602               0.999999989              -0.000375053               0.000678097               0.999999989              -0.000362834               0.000683364               0.999999989              -0.000343906               0.000684337               0.999999989              -0.000317299               0.000679570               0.999999989              -0.000282737               0.000668501               0.999999989              -0.000240369               0.000651375               0.999999989              -0.000191040               0.000629050               0.999999989              -0.000136552               0.000603070               0.999999989              -0.000078815               0.000575068               0.999999989              -0.000019564               0.000546419               0.999999989               0.000039817               0.000518254               0.999999989               0.000098618               0.000491025               0.999999989              -0.000480083               0.000907402               0.999999989              -0.000373299               0.000807560               0.999999989              -0.000338142               0.000769427               0.999999989              -0.000325696               0.000758947               0.999999989              -0.000319673               0.000760411               0.999999989              -0.000313171               0.000766558               0.999999989              -0.000303420               0.000773453               0.999999989              -0.000288039               0.000778718               0.999999989              -0.000265931               0.000780437               0.999999989              -0.000236561               0.000777691               0.999999989              -0.000199649               0.000770307               0.999999989              -0.000155208               0.000758479               0.999999989              -0.000104308               0.000743036               0.999999989              -0.000048617               0.000725213               0.999999989               0.000010216               0.000706515               0.999999989               0.000070467               0.000687905               0.999999989               0.000131003               0.000670143               0.999999989              -0.000420165               0.000981598               0.999999989              -0.000314360               0.000902987               0.999999989              -0.000277122               0.000867533               0.999999989              -0.000263468               0.000855321               0.999999989              -0.000257344               0.000855356               0.999999989              -0.000251870               0.000861424               0.999999989              -0.000243907               0.000869774               0.999999989              -0.000231627               0.000878226               0.999999989              -0.000213737               0.000885150               0.999999989              -0.000189337               0.000889420               0.999999989              -0.000157823               0.000890468               0.999999989              -0.000119137               0.000887979               0.999999989              -0.000073432               0.000882146               0.999999989              -0.000021601               0.000873737               0.999999989               0.000034999               0.000864074               0.999999989               0.000094622               0.000854204               0.999999989               0.000155438               0.000844988               0.999999989              -0.000356409               0.001047003               0.999999989              -0.000257705               0.000992644               0.999999989              -0.000219999               0.000964071               0.999999989              -0.000205018               0.000953115               0.999999989              -0.000198194               0.000953316               0.999999989              -0.000193186               0.000960053               0.999999989              -0.000186676               0.000970142               0.999999989              -0.000176824               0.000981610               0.999999989              -0.000162457               0.000992988               0.999999989              -0.000142733               0.001003229               0.999999989              -0.000116755               0.001011454               0.999999989              -0.000084416               0.001017226               0.999999989              -0.000045047               0.001020335               0.999999989               0.000001350               0.001020938               0.999999989               0.000054041               0.001019781               0.999999989               0.000111819               0.001017934               0.999999989               0.000172796               0.001016496               0.999999989              -0.000289300               0.001102497               0.999999989              -0.000203233               0.001072922               0.999999989              -0.000167577               0.001054079               0.999999989              -0.000152195               0.001047020               0.999999989              -0.000144749               0.001049090               0.999999989              -0.000139810               0.001057502               0.999999989              -0.000134312               0.001069910               0.999999989              -0.000126401               0.001084635               0.999999989              -0.000115011               0.001100280               0.999999989              -0.000099416               0.001115937               0.999999989              -0.000078940               0.001130763               0.999999989              -0.000052780               0.001144144               0.999999989              -0.000020481               0.001155639               0.999999989               0.000018918               0.001165148               0.999999989               0.000065765               0.001172806               0.999999989               0.000119702               0.001179155               0.999999989               0.000179902               0.001185245               0.999999989              -0.000219476               0.001146895               0.999999989              -0.000150735               0.001140082               0.999999989              -0.000120128               0.001132116               0.999999989              -0.000105885               0.001130611               0.999999989              -0.000098631               0.001135912               0.999999989              -0.000093912               0.001146862               0.999999989              -0.000089173               0.001162046               0.999999989              -0.000082960               0.001180132               0.999999989              -0.000074270               0.001199881               0.999999989              -0.000062519               0.001220585               0.999999989              -0.000047202               0.001241490               0.999999989              -0.000027600               0.001261859               0.999999989              -0.000002843               0.001281266               0.999999989               0.000028302               0.001299320               0.999999989               0.000066871               0.001315877               0.999999989               0.000113640               0.001331033               0.999999989               0.000169015               0.001345172               0.999999989              -0.000147562               0.001179316               0.999999989              -0.000099748               0.001190749               0.999999989              -0.000077175               0.001192849               0.999999989              -0.000066057               0.001197051               0.999999989              -0.000060164               0.001206057               0.999999989              -0.000056367               0.001219883               0.999999989              -0.000052681               0.001237686               0.999999989              -0.000048170               0.001258712               0.999999989              -0.000042179               0.001282039               0.999999989              -0.000034207               0.001307005               0.999999989              -0.000024049               0.001332940               0.999999989              -0.000011048               0.001359323               0.999999989               0.000005707               0.001385651               0.999999989               0.000027374               0.001411494               0.999999989               0.000055324               0.001436423               0.999999989               0.000090569               0.001459994               0.999999989               0.000134519               0.001482040               0.999999989              -0.000074166               0.001199121               0.999999989              -0.000049680               0.001222306               0.999999989              -0.000037654               0.001231453               0.999999989              -0.000031513               0.001239992               0.999999989              -0.000028168               0.001251804               0.999999989              -0.000026073               0.001267754               0.999999989              -0.000024019               0.001287616               0.999999989              -0.000021543               0.001310769               0.999999989              -0.000018381               0.001336461               0.999999989              -0.000014391               0.001364228               0.999999989              -0.000009330               0.001393640               0.999999989              -0.000002893               0.001424286               0.999999989               0.000005547               0.001455646               0.999999989               0.000016691               0.001487247               0.999999989               0.000031374               0.001518461               0.999999989               0.000050693               0.001548496               0.999999989               0.000075648               0.001576579               0.999999989              -0.000000000               0.001205745               0.999999989              -0.000000000               0.001233026               0.999999989               0.000000000               0.001244734               0.999999989              -0.000000000               0.001254786               0.999999989               0.000000000               0.001267629               0.999999989               0.000000000               0.001284511               0.999999989              -0.000000000               0.001305087               0.999999989               0.000000000               0.001328847               0.999999989               0.000000000               0.001355317               0.999999989               0.000000000               0.001384080               0.999999989              -0.000000000               0.001414781               0.999999989              -0.000000000               0.001447013               0.999999989               0.000000000               0.001480279               0.999999989               0.000000000               0.001514144               0.999999989              -0.000000000               0.001547904               0.999999989               0.000000000               0.001580594               0.999999989              -0.000000000               0.001611094               0.999999989              -0.000785352               0.000000000               0.999999989              -0.000828935               0.000000000               0.999999989              -0.000847325               0.000000000               0.999999989              -0.000857515               0.000000000               0.999999989              -0.000865627               0.000000000               0.999999989              -0.000873865              -0.000000000               0.999999989              -0.000882895               0.000000000               0.999999989              -0.000892571              -0.000000000               0.999999989              -0.000902801               0.000000000               0.999999989              -0.000913209               0.000000000               0.999999989              -0.000923596               0.000000000               0.999999989              -0.000933879               0.000000000               0.999999989              -0.000943679               0.000000000               0.999999989              -0.000952516              -0.000000000               0.999999989              -0.000959997               0.000000000               0.999999989              -0.000965589               0.000000000               0.999999989              -0.000968498              -0.000000000               0.999999989              -0.000780932              -0.000113921               0.999999989              -0.000820763              -0.000090152               0.999999989              -0.000836685              -0.000079169               0.999999989              -0.000845296              -0.000074339               0.999999989              -0.000852396              -0.000072654               0.999999989              -0.000859890              -0.000072300               0.999999989              -0.000868184              -0.000072563               0.999999989              -0.000877135              -0.000072636               0.999999989              -0.000886475              -0.000072073               0.999999989              -0.000895965              -0.000070631               0.999999989              -0.000905362              -0.000068120               0.999999989              -0.000914269              -0.000064268               0.999999989              -0.000922398              -0.000058756               0.999999989              -0.000929356              -0.000051172               0.999999989              -0.000934781              -0.000041033               0.999999989              -0.000938164              -0.000027532               0.999999989              -0.000938861              -0.000009624               0.999999989              -0.000767674              -0.000226772               0.999999989              -0.000796667              -0.000180030               0.999999989              -0.000805998              -0.000159176               0.999999989              -0.000810536              -0.000150574               0.999999989              -0.000814902              -0.000147815               0.999999989              -0.000820238              -0.000147599               0.999999989              -0.000826479              -0.000148172               0.999999989              -0.000833317              -0.000148352               0.999999989              -0.000840309              -0.000147242               0.999999989              -0.000847069              -0.000144441               0.999999989              -0.000853285              -0.000139488               0.999999989              -0.000858474              -0.000131717               0.999999989              -0.000862283              -0.000120789               0.999999989              -0.000864383              -0.000106137               0.999999989              -0.000864315              -0.000086716               0.999999989              -0.000861718              -0.000061568               0.999999989              -0.000856371              -0.000029205               0.999999989              -0.000746060              -0.000337465               0.999999989              -0.000758170              -0.000269460               0.999999989              -0.000758059              -0.000240730               0.999999989              -0.000757079              -0.000229901               0.999999989              -0.000757842              -0.000227188               0.999999989              -0.000760251              -0.000227678               0.999999989              -0.000763671              -0.000228848               0.999999989              -0.000767452              -0.000229199               0.999999989              -0.000770968              -0.000227591               0.999999989              -0.000773558              -0.000223464               0.999999989              -0.000774718              -0.000216036               0.999999989              -0.000774050              -0.000204679               0.999999989              -0.000771196              -0.000188836               0.999999989              -0.000765733              -0.000167905               0.999999989              -0.000757431              -0.000140846               0.999999989              -0.000746302              -0.000106919               0.999999989              -0.000732652              -0.000065664               0.999999989              -0.000716739              -0.000445071               0.999999989              -0.000707323              -0.000358321               0.999999989              -0.000696460              -0.000324303               0.999999989              -0.000689916              -0.000312951               0.999999989              -0.000687140              -0.000311219               0.999999989              -0.000686466              -0.000312860               0.999999989              -0.000686799              -0.000314963               0.999999989              -0.000687023              -0.000315691               0.999999989              -0.000686182              -0.000313533               0.999999989              -0.000683448              -0.000307972               0.999999989              -0.000678182              -0.000298246               0.999999989              -0.000669942              -0.000283592               0.999999989              -0.000658477              -0.000263628               0.999999989              -0.000643581              -0.000237677               0.999999989              -0.000625480              -0.000205444               0.999999989              -0.000604845              -0.000167013               0.999999989              -0.000582611              -0.000123342               0.999999989              -0.000680066              -0.000548827               0.999999989              -0.000646523              -0.000446749               0.999999989              -0.000625733              -0.000409946               0.999999989              -0.000614737              -0.000399434               0.999999989              -0.000609116              -0.000399287               0.999999989              -0.000605964              -0.000402398               0.999999989              -0.000603345              -0.000405546               0.999999989              -0.000599738              -0.000406568               0.999999989              -0.000593872              -0.000403846               0.999999989              -0.000584740              -0.000396860               0.999999989              -0.000571902              -0.000384825               0.999999989              -0.000555115              -0.000367241               0.999999989              -0.000534215              -0.000343652               0.999999989              -0.000509521              -0.000314134               0.999999989              -0.000481844              -0.000279060               0.999999989              -0.000452218              -0.000239794               0.999999989              -0.000421661              -0.000197757               0.999999989              -0.000636905              -0.000647718               0.999999989              -0.000578911              -0.000534751               0.999999989              -0.000550373              -0.000497364               0.999999989              -0.000536876              -0.000488395               0.999999989              -0.000529866              -0.000489903               0.999999989              -0.000524856              -0.000494447               0.999999989              -0.000519343              -0.000498528               0.999999989              -0.000511465              -0.000499771               0.999999989              -0.000499693              -0.000496412               0.999999989              -0.000483278              -0.000487856               0.999999989              -0.000461926              -0.000473709               0.999999989              -0.000435555              -0.000453573               0.999999989              -0.000404575              -0.000427514               0.999999989              -0.000369865              -0.000396005               0.999999989              -0.000332496              -0.000360597               0.999999989              -0.000293610              -0.000322678               0.999999989              -0.000254162              -0.000283790               0.999999989              -0.000588061              -0.000740758               0.999999989              -0.000507429              -0.000622304               0.999999989              -0.000474430              -0.000585836               0.999999989              -0.000460783              -0.000578373               0.999999989              -0.000453545              -0.000581338               0.999999989              -0.000447050              -0.000587070               0.999999989              -0.000438469              -0.000591870               0.999999989              -0.000425573              -0.000593066               0.999999989              -0.000406998              -0.000588956               0.999999989              -0.000382171              -0.000579056               0.999999989              -0.000351088              -0.000563080               0.999999989              -0.000314016              -0.000541128               0.999999989              -0.000271943              -0.000514096               0.999999989              -0.000226139              -0.000483187               0.999999989              -0.000178150              -0.000449900               0.999999989              -0.000129255              -0.000415515               0.999999989              -0.000080506              -0.000381464               0.999999989              -0.000535023              -0.000826250               0.999999989              -0.000434536              -0.000709310               0.999999989              -0.000401776              -0.000674029               0.999999989              -0.000389696              -0.000667557               0.999999989              -0.000382932              -0.000671602               0.999999989              -0.000375053              -0.000678097               0.999999989              -0.000362834              -0.000683364               0.999999989              -0.000343906              -0.000684337               0.999999989              -0.000317299              -0.000679570               0.999999989              -0.000282737              -0.000668501               0.999999989              -0.000240369              -0.000651375               0.999999989              -0.000191040              -0.000629050               0.999999989              -0.000136552              -0.000603070               0.999999989              -0.000078815              -0.000575068               0.999999989              -0.000019564              -0.000546419               0.999999989               0.000039817              -0.000518254               0.999999989               0.000098618              -0.000491025               0.999999989              -0.000480083              -0.000907402               0.999999989              -0.000373299              -0.000807560               0.999999989              -0.000338142              -0.000769427               0.999999989              -0.000325696              -0.000758947               0.999999989              -0.000319673              -0.000760411               0.999999989              -0.000313171              -0.000766558               0.999999989              -0.000303420              -0.000773453               0.999999989              -0.000288039              -0.000778718               0.999999989              -0.000265931              -0.000780437               0.999999989              -0.000236561              -0.000777691               0.999999989              -0.000199649              -0.000770307               0.999999989              -0.000155208              -0.000758479               0.999999989              -0.000104308              -0.000743036               0.999999989              -0.000048617              -0.000725213               0.999999989               0.000010216              -0.000706515               0.999999989               0.000070467              -0.000687905               0.999999989               0.000131003              -0.000670143               0.999999989              -0.000420165              -0.000981598               0.999999989              -0.000314360              -0.000902987               0.999999989              -0.000277122              -0.000867533               0.999999989              -0.000263468              -0.000855321               0.999999989              -0.000257344              -0.000855356               0.999999989              -0.000251870              -0.000861424               0.999999989              -0.000243907              -0.000869774               0.999999989              -0.000231627              -0.000878226               0.999999989              -0.000213737              -0.000885150               0.999999989              -0.000189337              -0.000889420               0.999999989              -0.000157823              -0.000890468               0.999999989              -0.000119137              -0.000887979               0.999999989              -0.000073432              -0.000882146               0.999999989              -0.000021601              -0.000873737               0.999999989               0.000034999              -0.000864074               0.999999989               0.000094622              -0.000854204               0.999999989               0.000155438              -0.000844988               0.999999989              -0.000356409              -0.001047003               0.999999989              -0.000257705              -0.000992644               0.999999989              -0.000219999              -0.000964071               0.999999989              -0.000205018              -0.000953115               0.999999989              -0.000198194              -0.000953316               0.999999989              -0.000193186              -0.000960053               0.999999989              -0.000186676              -0.000970142               0.999999989              -0.000176824              -0.000981610               0.999999989              -0.000162457              -0.000992988               0.999999989              -0.000142733              -0.001003229               0.999999989              -0.000116755              -0.001011454               0.999999989              -0.000084416              -0.001017226               0.999999989              -0.000045047              -0.001020335               0.999999989               0.000001350              -0.001020938               0.999999989               0.000054041              -0.001019781               0.999999989               0.000111819              -0.001017934               0.999999989               0.000172796              -0.001016496               0.999999989              -0.000289300              -0.001102497               0.999999989              -0.000203233              -0.001072922               0.999999989              -0.000167577              -0.001054079               0.999999989              -0.000152195              -0.001047020               0.999999989              -0.000144749              -0.001049090               0.999999989              -0.000139810              -0.001057502               0.999999989              -0.000134312              -0.001069910               0.999999989              -0.000126401              -0.001084635               0.999999989              -0.000115011              -0.001100280               0.999999989              -0.000099416              -0.001115937               0.999999989              -0.000078940              -0.001130763               0.999999989              -0.000052780              -0.001144144               0.999999989              -0.000020481              -0.001155639               0.999999989               0.000018918              -0.001165148               0.999999989               0.000065765              -0.001172806               0.999999989               0.000119702              -0.001179155               0.999999989               0.000179902              -0.001185245               0.999999989              -0.000219476              -0.001146895               0.999999989              -0.000150735              -0.001140082               0.999999989              -0.000120128              -0.001132116               0.999999989              -0.000105885              -0.001130611               0.999999989              -0.000098631              -0.001135912               0.999999989              -0.000093912              -0.001146862               0.999999989              -0.000089173              -0.001162046               0.999999989              -0.000082960              -0.001180132               0.999999989              -0.000074270              -0.001199881               0.999999989              -0.000062519              -0.001220585               0.999999989              -0.000047202              -0.001241490               0.999999989              -0.000027600              -0.001261859               0.999999989              -0.000002843              -0.001281266               0.999999989               0.000028302              -0.001299320               0.999999989               0.000066871              -0.001315877               0.999999989               0.000113640              -0.001331033               0.999999989               0.000169015              -0.001345172               0.999999989              -0.000147562              -0.001179316               0.999999989              -0.000099748              -0.001190749               0.999999989              -0.000077175              -0.001192849               0.999999989              -0.000066057              -0.001197051               0.999999989              -0.000060164              -0.001206057               0.999999989              -0.000056367              -0.001219883               0.999999989              -0.000052681              -0.001237686               0.999999989              -0.000048170              -0.001258712               0.999999989              -0.000042179              -0.001282039               0.999999989              -0.000034207              -0.001307005               0.999999989              -0.000024049              -0.001332940               0.999999989              -0.000011048              -0.001359323               0.999999989               0.000005707              -0.001385651               0.999999989               0.000027374              -0.001411494               0.999999989               0.000055324              -0.001436423               0.999999989               0.000090569              -0.001459994               0.999999989               0.000134519              -0.001482040               0.999999989              -0.000074166              -0.001199121               0.999999989              -0.000049680              -0.001222306               0.999999989              -0.000037654              -0.001231453               0.999999989              -0.000031513              -0.001239992               0.999999989              -0.000028168              -0.001251804               0.999999989              -0.000026073              -0.001267754               0.999999989              -0.000024019              -0.001287616               0.999999989              -0.000021543              -0.001310769               0.999999989              -0.000018381              -0.001336461               0.999999989              -0.000014391              -0.001364228               0.999999989              -0.000009330              -0.001393640               0.999999989              -0.000002893              -0.001424286               0.999999989               0.000005547              -0.001455646               0.999999989               0.000016691              -0.001487247               0.999999989               0.000031374              -0.001518461               0.999999989               0.000050693              -0.001548496               0.999999989               0.000075648              -0.001576579               0.999999989               0.000000000              -0.001205745               0.999999989               0.000000000              -0.001233026               0.999999989              -0.000000000              -0.001244734               0.999999989              -0.000000000              -0.001254786               0.999999989               0.000000000              -0.001267629               0.999999989               0.000000000              -0.001284511               0.999999989               0.000000000              -0.001305087               0.999999989               0.000000000              -0.001328847               0.999999989               0.000000000              -0.001355317               0.999999989               0.000000000              -0.001384080               0.999999989               0.000000000              -0.001414781               0.999999989              -0.000000000              -0.001447013               0.999999989              -0.000000000              -0.001480279               0.999999989              -0.000000000              -0.001514144               0.999999989              -0.000000000              -0.001547904               0.999999989              -0.000000000              -0.001580594               0.999999989               0.000000000              -0.001611094               0.999999989               0.000785352              -0.000000000               0.999999989               0.000828935              -0.000000000               0.999999989               0.000847325              -0.000000000               0.999999989               0.000857515               0.000000000               0.999999989               0.000865627              -0.000000000               0.999999989               0.000873865              -0.000000000               0.999999989               0.000882895              -0.000000000               0.999999989               0.000892571              -0.000000000               0.999999989               0.000902801              -0.000000000               0.999999989               0.000913209               0.000000000               0.999999989               0.000923596              -0.000000000               0.999999989               0.000933879               0.000000000               0.999999989               0.000943679               0.000000000               0.999999989               0.000952516              -0.000000000               0.999999989               0.000959997              -0.000000000               0.999999989               0.000965589               0.000000000               0.999999989               0.000968498               0.000000000               0.999999989               0.000780932              -0.000113921               0.999999989               0.000820763              -0.000090152               0.999999989               0.000836685              -0.000079169               0.999999989               0.000845296              -0.000074339               0.999999989               0.000852396              -0.000072654               0.999999989               0.000859890              -0.000072300               0.999999989               0.000868184              -0.000072563               0.999999989               0.000877135              -0.000072636               0.999999989               0.000886475              -0.000072073               0.999999989               0.000895965              -0.000070631               0.999999989               0.000905362              -0.000068120               0.999999989               0.000914269              -0.000064268               0.999999989               0.000922398              -0.000058756               0.999999989               0.000929356              -0.000051172               0.999999989               0.000934781              -0.000041033               0.999999989               0.000938164              -0.000027532               0.999999989               0.000938861              -0.000009624               0.999999989               0.000767674              -0.000226772               0.999999989               0.000796667              -0.000180030               0.999999989               0.000805998              -0.000159176               0.999999989               0.000810536              -0.000150574               0.999999989               0.000814902              -0.000147815               0.999999989               0.000820238              -0.000147599               0.999999989               0.000826479              -0.000148172               0.999999989               0.000833317              -0.000148352               0.999999989               0.000840309              -0.000147242               0.999999989               0.000847069              -0.000144441               0.999999989               0.000853285              -0.000139488               0.999999989               0.000858474              -0.000131717               0.999999989               0.000862283              -0.000120789               0.999999989               0.000864383              -0.000106137               0.999999989               0.000864315              -0.000086716               0.999999989               0.000861718              -0.000061568               0.999999989               0.000856371              -0.000029205               0.999999989               0.000746060              -0.000337465               0.999999989               0.000758170              -0.000269460               0.999999989               0.000758059              -0.000240730               0.999999989               0.000757079              -0.000229901               0.999999989               0.000757842              -0.000227188               0.999999989               0.000760251              -0.000227678               0.999999989               0.000763671              -0.000228848               0.999999989               0.000767452              -0.000229199               0.999999989               0.000770968              -0.000227591               0.999999989               0.000773558              -0.000223464               0.999999989               0.000774718              -0.000216036               0.999999989               0.000774050              -0.000204679               0.999999989               0.000771196              -0.000188836               0.999999989               0.000765733              -0.000167905               0.999999989               0.000757431              -0.000140846               0.999999989               0.000746302              -0.000106919               0.999999989               0.000732652              -0.000065664               0.999999989               0.000716739              -0.000445071               0.999999989               0.000707323              -0.000358321               0.999999989               0.000696460              -0.000324303               0.999999989               0.000689916              -0.000312951               0.999999989               0.000687140              -0.000311219               0.999999989               0.000686466              -0.000312860               0.999999989               0.000686799              -0.000314963               0.999999989               0.000687023              -0.000315691               0.999999989               0.000686182              -0.000313533               0.999999989               0.000683448              -0.000307972               0.999999989               0.000678182              -0.000298246               0.999999989               0.000669942              -0.000283592               0.999999989               0.000658477              -0.000263628               0.999999989               0.000643581              -0.000237677               0.999999989               0.000625480              -0.000205444               0.999999989               0.000604845              -0.000167013               0.999999989               0.000582611              -0.000123342               0.999999989               0.000680066              -0.000548827               0.999999989               0.000646523              -0.000446749               0.999999989               0.000625733              -0.000409946               0.999999989               0.000614737              -0.000399434               0.999999989               0.000609116              -0.000399287               0.999999989               0.000605964              -0.000402398               0.999999989               0.000603345              -0.000405546               0.999999989               0.000599738              -0.000406568               0.999999989               0.000593872              -0.000403846               0.999999989               0.000584740              -0.000396860               0.999999989               0.000571902              -0.000384825               0.999999989               0.000555115              -0.000367241               0.999999989               0.000534215              -0.000343652               0.999999989               0.000509521              -0.000314134               0.999999989               0.000481844              -0.000279060               0.999999989               0.000452218              -0.000239794               0.999999989               0.000421661              -0.000197757               0.999999989               0.000636905              -0.000647718               0.999999989               0.000578911              -0.000534751               0.999999989               0.000550373              -0.000497364               0.999999989               0.000536876              -0.000488395               0.999999989               0.000529866              -0.000489903               0.999999989               0.000524856              -0.000494447               0.999999989               0.000519343              -0.000498528               0.999999989               0.000511465              -0.000499771               0.999999989               0.000499693              -0.000496412               0.999999989               0.000483278              -0.000487856               0.999999989               0.000461926              -0.000473709               0.999999989               0.000435555              -0.000453573               0.999999989               0.000404575              -0.000427514               0.999999989               0.000369865              -0.000396005               0.999999989               0.000332496              -0.000360597               0.999999989               0.000293610              -0.000322678               0.999999989               0.000254162              -0.000283790               0.999999989               0.000588061              -0.000740758               0.999999989               0.000507429              -0.000622304               0.999999989               0.000474430              -0.000585836               0.999999989               0.000460783              -0.000578373               0.999999989               0.000453545              -0.000581338               0.999999989               0.000447050              -0.000587070               0.999999989               0.000438469              -0.000591870               0.999999989               0.000425573              -0.000593066               0.999999989               0.000406998              -0.000588956               0.999999989               0.000382171              -0.000579056               0.999999989               0.000351088              -0.000563080               0.999999989               0.000314016              -0.000541128               0.999999989               0.000271943              -0.000514096               0.999999989               0.000226139              -0.000483187               0.999999989               0.000178150              -0.000449900               0.999999989               0.000129255              -0.000415515               0.999999989               0.000080506              -0.000381464               0.999999989               0.000535023              -0.000826250               0.999999989               0.000434536              -0.000709310               0.999999989               0.000401776              -0.000674029               0.999999989               0.000389696              -0.000667557               0.999999989               0.000382932              -0.000671602               0.999999989               0.000375053              -0.000678097               0.999999989               0.000362834              -0.000683364               0.999999989               0.000343906              -0.000684337               0.999999989               0.000317299              -0.000679570               0.999999989               0.000282737              -0.000668501               0.999999989               0.000240369              -0.000651375               0.999999989               0.000191040              -0.000629050               0.999999989               0.000136552              -0.000603070               0.999999989               0.000078815              -0.000575068               0.999999989               0.000019564              -0.000546419               0.999999989              -0.000039817              -0.000518254               0.999999989              -0.000098618              -0.000491025               0.999999989               0.000480083              -0.000907402               0.999999989               0.000373299              -0.000807560               0.999999989               0.000338142              -0.000769427               0.999999989               0.000325696              -0.000758947               0.999999989               0.000319673              -0.000760411               0.999999989               0.000313171              -0.000766558               0.999999989               0.000303420              -0.000773453               0.999999989               0.000288039              -0.000778718               0.999999989               0.000265931              -0.000780437               0.999999989               0.000236561              -0.000777691               0.999999989               0.000199649              -0.000770307               0.999999989               0.000155208              -0.000758479               0.999999989               0.000104308              -0.000743036               0.999999989               0.000048617              -0.000725213               0.999999989              -0.000010216              -0.000706515               0.999999989              -0.000070467              -0.000687905               0.999999989              -0.000131003              -0.000670143               0.999999989               0.000420165              -0.000981598               0.999999989               0.000314360              -0.000902987               0.999999989               0.000277122              -0.000867533               0.999999989               0.000263468              -0.000855321               0.999999989               0.000257344              -0.000855356               0.999999989               0.000251870              -0.000861424               0.999999989               0.000243907              -0.000869774               0.999999989               0.000231627              -0.000878226               0.999999989               0.000213737              -0.000885150               0.999999989               0.000189337              -0.000889420               0.999999989               0.000157823              -0.000890468               0.999999989               0.000119137              -0.000887979               0.999999989               0.000073432              -0.000882146               0.999999989               0.000021601              -0.000873737               0.999999989              -0.000034999              -0.000864074               0.999999989              -0.000094622              -0.000854204               0.999999989              -0.000155438              -0.000844988               0.999999989               0.000356409              -0.001047003               0.999999989               0.000257705              -0.000992644               0.999999989               0.000219999              -0.000964071               0.999999989               0.000205018              -0.000953115               0.999999989               0.000198194              -0.000953316               0.999999989               0.000193186              -0.000960053               0.999999989               0.000186676              -0.000970142               0.999999989               0.000176824              -0.000981610               0.999999989               0.000162457              -0.000992988               0.999999989               0.000142733              -0.001003229               0.999999989               0.000116755              -0.001011454               0.999999989               0.000084416              -0.001017226               0.999999989               0.000045047              -0.001020335               0.999999989              -0.000001350              -0.001020938               0.999999989              -0.000054041              -0.001019781               0.999999989              -0.000111819              -0.001017934               0.999999989              -0.000172796              -0.001016496               0.999999989               0.000289300              -0.001102497               0.999999989               0.000203233              -0.001072922               0.999999989               0.000167577              -0.001054079               0.999999989               0.000152195              -0.001047020               0.999999989               0.000144749              -0.001049090               0.999999989               0.000139810              -0.001057502               0.999999989               0.000134312              -0.001069910               0.999999989               0.000126401              -0.001084635               0.999999989               0.000115011              -0.001100280               0.999999989               0.000099416              -0.001115937               0.999999989               0.000078940              -0.001130763               0.999999989               0.000052780              -0.001144144               0.999999989               0.000020481              -0.001155639               0.999999989              -0.000018918              -0.001165148               0.999999989              -0.000065765              -0.001172806               0.999999989              -0.000119702              -0.001179155               0.999999989              -0.000179902              -0.001185245               0.999999989               0.000219476              -0.001146895               0.999999989               0.000150735              -0.001140082               0.999999989               0.000120128              -0.001132116               0.999999989               0.000105885              -0.001130611               0.999999989               0.000098631              -0.001135912               0.999999989               0.000093912              -0.001146862               0.999999989               0.000089173              -0.001162046               0.999999989               0.000082960              -0.001180132               0.999999989               0.000074270              -0.001199881               0.999999989               0.000062519              -0.001220585               0.999999989               0.000047202              -0.001241490               0.999999989               0.000027600              -0.001261859               0.999999989               0.000002843              -0.001281266               0.999999989              -0.000028302              -0.001299320               0.999999989              -0.000066871              -0.001315877               0.999999989              -0.000113640              -0.001331033               0.999999989              -0.000169015              -0.001345172               0.999999989               0.000147562              -0.001179316               0.999999989               0.000099748              -0.001190749               0.999999989               0.000077175              -0.001192849               0.999999989               0.000066057              -0.001197051               0.999999989               0.000060164              -0.001206057               0.999999989               0.000056367              -0.001219883               0.999999989               0.000052681              -0.001237686               0.999999989               0.000048170              -0.001258712               0.999999989               0.000042179              -0.001282039               0.999999989               0.000034207              -0.001307005               0.999999989               0.000024049              -0.001332940               0.999999989               0.000011048              -0.001359323               0.999999989              -0.000005707              -0.001385651               0.999999989              -0.000027374              -0.001411494               0.999999989              -0.000055324              -0.001436423               0.999999989              -0.000090569              -0.001459994               0.999999989              -0.000134519              -0.001482040               0.999999989               0.000074166              -0.001199121               0.999999989               0.000049680              -0.001222306               0.999999989               0.000037654              -0.001231453               0.999999989               0.000031513              -0.001239992               0.999999989               0.000028168              -0.001251804               0.999999989               0.000026073              -0.001267754               0.999999989               0.000024019              -0.001287616               0.999999989               0.000021543              -0.001310769               0.999999989               0.000018381              -0.001336461               0.999999989               0.000014391              -0.001364228               0.999999989               0.000009330              -0.001393640               0.999999989               0.000002893              -0.001424286               0.999999989              -0.000005547              -0.001455646               0.999999989              -0.000016691              -0.001487247               0.999999989              -0.000031374              -0.001518461               0.999999989              -0.000050693              -0.001548496               0.999999989              -0.000075648              -0.001576579               0.999999989               0.000000000              -0.001205745               0.999999989               0.000000000              -0.001233026               0.999999989              -0.000000000              -0.001244734               0.999999989              -0.000000000              -0.001254786               0.999999989               0.000000000              -0.001267629               0.999999989               0.000000000              -0.001284511               0.999999989               0.000000000              -0.001305087               0.999999989               0.000000000              -0.001328847               0.999999989               0.000000000              -0.001355317               0.999999989               0.000000000              -0.001384080               0.999999989               0.000000000              -0.001414781               0.999999989              -0.000000000              -0.001447013               0.999999989              -0.000000000              -0.001480279               0.999999989              -0.000000000              -0.001514144               0.999999989              -0.000000000              -0.001547904               0.999999989              -0.000000000              -0.001580594               0.999999989               0.000000000              -0.001611094               0.999999989               0.000785352              -0.000000000               0.999999989               0.000828935              -0.000000000               0.999999989               0.000847325              -0.000000000               0.999999989               0.000857515               0.000000000               0.999999989               0.000865627              -0.000000000               0.999999989               0.000873865              -0.000000000               0.999999989               0.000882895              -0.000000000               0.999999989               0.000892571              -0.000000000               0.999999989               0.000902801              -0.000000000               0.999999989               0.000913209               0.000000000               0.999999989               0.000923596              -0.000000000               0.999999989               0.000933879               0.000000000               0.999999989               0.000943679               0.000000000               0.999999989               0.000952516              -0.000000000               0.999999989               0.000959997              -0.000000000               0.999999989               0.000965589               0.000000000               0.999999989               0.000968498               0.000000000               0.999999989               0.000780932               0.000113921               0.999999989               0.000820763               0.000090152               0.999999989               0.000836685               0.000079169               0.999999989               0.000845296               0.000074339               0.999999989               0.000852396               0.000072654               0.999999989               0.000859890               0.000072300               0.999999989               0.000868184               0.000072563               0.999999989               0.000877135               0.000072636               0.999999989               0.000886475               0.000072073               0.999999989               0.000895965               0.000070631               0.999999989               0.000905362               0.000068120               0.999999989               0.000914269               0.000064268               0.999999989               0.000922398               0.000058756               0.999999989               0.000929356               0.000051172               0.999999989               0.000934781               0.000041033               0.999999989               0.000938164               0.000027532               0.999999989               0.000938861               0.000009624               0.999999989               0.000767674               0.000226772               0.999999989               0.000796667               0.000180030               0.999999989               0.000805998               0.000159176               0.999999989               0.000810536               0.000150574               0.999999989               0.000814902               0.000147815               0.999999989               0.000820238               0.000147599               0.999999989               0.000826479               0.000148172               0.999999989               0.000833317               0.000148352               0.999999989               0.000840309               0.000147242               0.999999989               0.000847069               0.000144441               0.999999989               0.000853285               0.000139488               0.999999989               0.000858474               0.000131717               0.999999989               0.000862283               0.000120789               0.999999989               0.000864383               0.000106137               0.999999989               0.000864315               0.000086716               0.999999989               0.000861718               0.000061568               0.999999989               0.000856371               0.000029205               0.999999989               0.000746060               0.000337465               0.999999989               0.000758170               0.000269460               0.999999989               0.000758059               0.000240730               0.999999989               0.000757079               0.000229901               0.999999989               0.000757842               0.000227188               0.999999989               0.000760251               0.000227678               0.999999989               0.000763671               0.000228848               0.999999989               0.000767452               0.000229199               0.999999989               0.000770968               0.000227591               0.999999989               0.000773558               0.000223464               0.999999989               0.000774718               0.000216036               0.999999989               0.000774050               0.000204679               0.999999989               0.000771196               0.000188836               0.999999989               0.000765733               0.000167905               0.999999989               0.000757431               0.000140846               0.999999989               0.000746302               0.000106919               0.999999989               0.000732652               0.000065664               0.999999989               0.000716739               0.000445071               0.999999989               0.000707323               0.000358321               0.999999989               0.000696460               0.000324303               0.999999989               0.000689916               0.000312951               0.999999989               0.000687140               0.000311219               0.999999989               0.000686466               0.000312860               0.999999989               0.000686799               0.000314963               0.999999989               0.000687023               0.000315691               0.999999989               0.000686182               0.000313533               0.999999989               0.000683448               0.000307972               0.999999989               0.000678182               0.000298246               0.999999989               0.000669942               0.000283592               0.999999989               0.000658477               0.000263628               0.999999989               0.000643581               0.000237677               0.999999989               0.000625480               0.000205444               0.999999989               0.000604845               0.000167013               0.999999989               0.000582611               0.000123342               0.999999989               0.000680066               0.000548827               0.999999989               0.000646523               0.000446749               0.999999989               0.000625733               0.000409946               0.999999989               0.000614737               0.000399434               0.999999989               0.000609116               0.000399287               0.999999989               0.000605964               0.000402398               0.999999989               0.000603345               0.000405546               0.999999989               0.000599738               0.000406568               0.999999989               0.000593872               0.000403846               0.999999989               0.000584740               0.000396860               0.999999989               0.000571902               0.000384825               0.999999989               0.000555115               0.000367241               0.999999989               0.000534215               0.000343652               0.999999989               0.000509521               0.000314134               0.999999989               0.000481844               0.000279060               0.999999989               0.000452218               0.000239794               0.999999989               0.000421661               0.000197757               0.999999989               0.000636905               0.000647718               0.999999989               0.000578911               0.000534751               0.999999989               0.000550373               0.000497364               0.999999989               0.000536876               0.000488395               0.999999989               0.000529866               0.000489903               0.999999989               0.000524856               0.000494447               0.999999989               0.000519343               0.000498528               0.999999989               0.000511465               0.000499771               0.999999989               0.000499693               0.000496412               0.999999989               0.000483278               0.000487856               0.999999989               0.000461926               0.000473709               0.999999989               0.000435555               0.000453573               0.999999989               0.000404575               0.000427514               0.999999989               0.000369865               0.000396005               0.999999989               0.000332496               0.000360597               0.999999989               0.000293610               0.000322678               0.999999989               0.000254162               0.000283790               0.999999989               0.000588061               0.000740758               0.999999989               0.000507429               0.000622304               0.999999989               0.000474430               0.000585836               0.999999989               0.000460783               0.000578373               0.999999989               0.000453545               0.000581338               0.999999989               0.000447050               0.000587070               0.999999989               0.000438469               0.000591870               0.999999989               0.000425573               0.000593066               0.999999989               0.000406998               0.000588956               0.999999989               0.000382171               0.000579056               0.999999989               0.000351088               0.000563080               0.999999989               0.000314016               0.000541128               0.999999989               0.000271943               0.000514096               0.999999989               0.000226139               0.000483187               0.999999989               0.000178150               0.000449900               0.999999989               0.000129255               0.000415515               0.999999989               0.000080506               0.000381464               0.999999989               0.000535023               0.000826250               0.999999989               0.000434536               0.000709310               0.999999989               0.000401776               0.000674029               0.999999989               0.000389696               0.000667557               0.999999989               0.000382932               0.000671602               0.999999989               0.000375053               0.000678097               0.999999989               0.000362834               0.000683364               0.999999989               0.000343906               0.000684337               0.999999989               0.000317299               0.000679570               0.999999989               0.000282737               0.000668501               0.999999989               0.000240369               0.000651375               0.999999989               0.000191040               0.000629050               0.999999989               0.000136552               0.000603070               0.999999989               0.000078815               0.000575068               0.999999989               0.000019564               0.000546419               0.999999989              -0.000039817               0.000518254               0.999999989              -0.000098618               0.000491025               0.999999989               0.000480083               0.000907402               0.999999989               0.000373299               0.000807560               0.999999989               0.000338142               0.000769427               0.999999989               0.000325696               0.000758947               0.999999989               0.000319673               0.000760411               0.999999989               0.000313171               0.000766558               0.999999989               0.000303420               0.000773453               0.999999989               0.000288039               0.000778718               0.999999989               0.000265931               0.000780437               0.999999989               0.000236561               0.000777691               0.999999989               0.000199649               0.000770307               0.999999989               0.000155208               0.000758479               0.999999989               0.000104308               0.000743036               0.999999989               0.000048617               0.000725213               0.999999989              -0.000010216               0.000706515               0.999999989              -0.000070467               0.000687905               0.999999989              -0.000131003               0.000670143               0.999999989               0.000420165               0.000981598               0.999999989               0.000314360               0.000902987               0.999999989               0.000277122               0.000867533               0.999999989               0.000263468               0.000855321               0.999999989               0.000257344               0.000855356               0.999999989               0.000251870               0.000861424               0.999999989               0.000243907               0.000869774               0.999999989               0.000231627               0.000878226               0.999999989               0.000213737               0.000885150               0.999999989               0.000189337               0.000889420               0.999999989               0.000157823               0.000890468               0.999999989               0.000119137               0.000887979               0.999999989               0.000073432               0.000882146               0.999999989               0.000021601               0.000873737               0.999999989              -0.000034999               0.000864074               0.999999989              -0.000094622               0.000854204               0.999999989              -0.000155438               0.000844988               0.999999989               0.000356409               0.001047003               0.999999989               0.000257705               0.000992644               0.999999989               0.000219999               0.000964071               0.999999989               0.000205018               0.000953115               0.999999989               0.000198194               0.000953316               0.999999989               0.000193186               0.000960053               0.999999989               0.000186676               0.000970142               0.999999989               0.000176824               0.000981610               0.999999989               0.000162457               0.000992988               0.999999989               0.000142733               0.001003229               0.999999989               0.000116755               0.001011454               0.999999989               0.000084416               0.001017226               0.999999989               0.000045047               0.001020335               0.999999989              -0.000001350               0.001020938               0.999999989              -0.000054041               0.001019781               0.999999989              -0.000111819               0.001017934               0.999999989              -0.000172796               0.001016496               0.999999989               0.000289300               0.001102497               0.999999989               0.000203233               0.001072922               0.999999989               0.000167577               0.001054079               0.999999989               0.000152195               0.001047020               0.999999989               0.000144749               0.001049090               0.999999989               0.000139810               0.001057502               0.999999989               0.000134312               0.001069910               0.999999989               0.000126401               0.001084635               0.999999989               0.000115011               0.001100280               0.999999989               0.000099416               0.001115937               0.999999989               0.000078940               0.001130763               0.999999989               0.000052780               0.001144144               0.999999989               0.000020481               0.001155639               0.999999989              -0.000018918               0.001165148               0.999999989              -0.000065765               0.001172806               0.999999989              -0.000119702               0.001179155               0.999999989              -0.000179902               0.001185245               0.999999989               0.000219476               0.001146895               0.999999989               0.000150735               0.001140082               0.999999989               0.000120128               0.001132116               0.999999989               0.000105885               0.001130611               0.999999989               0.000098631               0.001135912               0.999999989               0.000093912               0.001146862               0.999999989               0.000089173               0.001162046               0.999999989               0.000082960               0.001180132               0.999999989               0.000074270               0.001199881               0.999999989               0.000062519               0.001220585               0.999999989               0.000047202               0.001241490               0.999999989               0.000027600               0.001261859               0.999999989               0.000002843               0.001281266               0.999999989              -0.000028302               0.001299320               0.999999989              -0.000066871               0.001315877               0.999999989              -0.000113640               0.001331033               0.999999989              -0.000169015               0.001345172               0.999999989               0.000147562               0.001179316               0.999999989               0.000099748               0.001190749               0.999999989               0.000077175               0.001192849               0.999999989               0.000066057               0.001197051               0.999999989               0.000060164               0.001206057               0.999999989               0.000056367               0.001219883               0.999999989               0.000052681               0.001237686               0.999999989               0.000048170               0.001258712               0.999999989               0.000042179               0.001282039               0.999999989               0.000034207               0.001307005               0.999999989               0.000024049               0.001332940               0.999999989               0.000011048               0.001359323               0.999999989              -0.000005707               0.001385651               0.999999989              -0.000027374               0.001411494               0.999999989              -0.000055324               0.001436423               0.999999989              -0.000090569               0.001459994               0.999999989              -0.000134519               0.001482040               0.999999989               0.000074166               0.001199121               0.999999989               0.000049680               0.001222306               0.999999989               0.000037654               0.001231453               0.999999989               0.000031513               0.001239992               0.999999989               0.000028168               0.001251804               0.999999989               0.000026073               0.001267754               0.999999989               0.000024019               0.001287616               0.999999989               0.000021543               0.001310769               0.999999989               0.000018381               0.001336461               0.999999989               0.000014391               0.001364228               0.999999989               0.000009330               0.001393640               0.999999989               0.000002893               0.001424286               0.999999989              -0.000005547               0.001455646               0.999999989              -0.000016691               0.001487247               0.999999989              -0.000031374               0.001518461               0.999999989              -0.000050693               0.001548496               0.999999989              -0.000075648               0.001576579               0.999999989              -0.000000000               0.001205745               0.999999989              -0.000000000               0.001233026               0.999999989               0.000000000               0.001244734               0.999999989              -0.000000000               0.001254786               0.999999989               0.000000000               0.001267629               0.999999989               0.000000000               0.001284511               0.999999989              -0.000000000               0.001305087               0.999999989               0.000000000               0.001328847               0.999999989               0.000000000               0.001355317               0.999999989               0.000000000               0.001384080               0.999999989              -0.000000000               0.001414781               0.999999989              -0.000000000               0.001447013               0.999999989               0.000000000               0.001480279               0.999999989               0.000000000               0.001514144               0.999999989              -0.000000000               0.001547904               0.999999989               0.000000000               0.001580594               0.999999989              -0.000000000               0.001611094               0.999999989 </DataArray>
<DataArray type="Float64"                                    Name="stress"                                                      NumberOfComponents="10" format="ascii">
              0.001928430               0.020656112               0.000000000              -0.001858848               0.007504918               0.005646070               0.000000000               0.000000000               0.000000000               0.000000000               0.001831577               0.015818618               0.000000000              -0.001290483               0.005702981               0.004412498               0.000000000               0.000000000               0.000000000               0.000000000               0.002340629               0.011883771               0.000000000              -0.000607734               0.004163795               0.003556061               0.000000000               0.000000000               0.000000000               0.000000000               0.002144971               0.009650729               0.000000000              -0.000401976               0.003350870               0.002948894               0.000000000               0.000000000               0.000000000               0.000000000               0.001766303               0.008231959              -0.000000000              -0.000366631               0.002866169               0.002499538               0.000000000               0.000000000               0.000000000               0.000000000               0.001375766               0.007229943              -0.000000000              -0.000387830               0.002539234               0.002151404               0.000000000               0.000000000               0.000000000               0.000000000               0.001040971               0.006467311               0.000000000              -0.000418049               0.002295098               0.001877050               0.000000000               0.000000000               0.000000000               0.000000000               0.000764416               0.005829806               0.000000000              -0.000442069               0.002090606               0.001648537               0.000000000               0.000000000               0.000000000               0.000000000               0.000536147               0.005254985               0.000000000              -0.000455817               0.001903583               0.001447766               0.000000000               0.000000000               0.000000000               0.000000000               0.000349633               0.004712695              -0.000000000              -0.000457973               0.001723540               0.001265567               0.000000000               0.000000000               0.000000000               0.000000000               0.000189440               0.004181028              -0.000000000              -0.000451587               0.001544191               0.001092604               0.000000000               0.000000000               0.000000000               0.000000000               0.000058351               0.003645441              -0.000000000              -0.000433797               0.001359734               0.000925937               0.000000000               0.000000000               0.000000000               0.000000000              -0.000031843               0.003095081              -0.000000000              -0.000398825               0.001164625               0.000765800               0.000000000               0.000000000               0.000000000               0.000000000              -0.000084525               0.002513294               0.000000000              -0.000345858               0.000953042               0.000607184               0.000000000               0.000000000               0.000000000               0.000000000              -0.000101132               0.001881979               0.000000000              -0.000273171               0.000718377               0.000445206               0.000000000               0.000000000               0.000000000               0.000000000              -0.000067478               0.001179938              -0.000000000              -0.000172796               0.000450907               0.000278111               0.000000000               0.000000000               0.000000000               0.000000000              -0.000093457               0.000645152              -0.000000000              -0.000115690               0.000253612               0.000137921               0.000000000               0.000000000               0.000000000               0.000000000               0.001981742               0.020207440              -0.001360753              -0.001782773               0.007330004               0.005547231               0.000000000               0.000000000               0.000000000               0.000000000               0.001773134               0.015537974              -0.000603363              -0.001277318               0.005605046               0.004327727               0.000000000               0.000000000               0.000000000               0.000000000               0.002160526               0.011774599               0.000139044              -0.000661626               0.004145369               0.003483743               0.000000000               0.000000000               0.000000000               0.000000000               0.001916767               0.009631221               0.000438818              -0.000485114               0.003372080               0.002886965               0.000000000               0.000000000               0.000000000               0.000000000               0.001526278               0.008253699               0.000549096              -0.000459357               0.002904324               0.002444967               0.000000000               0.000000000               0.000000000               0.000000000               0.001147473               0.007272754               0.000578729              -0.000478791               0.002583824               0.002105033               0.000000000               0.000000000               0.000000000               0.000000000               0.000828779               0.006512260               0.000573082              -0.000503239               0.002338478               0.001835239               0.000000000               0.000000000               0.000000000               0.000000000               0.000572191               0.005873524               0.000546606              -0.000519618               0.002131028               0.001611410               0.000000000               0.000000000               0.000000000               0.000000000               0.000364384               0.005298132               0.000513941              -0.000525621               0.001941233               0.001415612               0.000000000               0.000000000               0.000000000               0.000000000               0.000194523               0.004756207               0.000480078              -0.000521579               0.001759246               0.001237667               0.000000000               0.000000000               0.000000000               0.000000000               0.000060817               0.004228201               0.000444197              -0.000505718               0.001577959               0.001072241               0.000000000               0.000000000               0.000000000               0.000000000              -0.000039102               0.003696753               0.000406974              -0.000476756               0.001391157               0.000914401               0.000000000               0.000000000               0.000000000               0.000000000              -0.000105101               0.003153308               0.000365316              -0.000433576               0.001195617               0.000762042               0.000000000               0.000000000               0.000000000               0.000000000              -0.000135864               0.002587236               0.000312342              -0.000374353               0.000987187               0.000612835               0.000000000               0.000000000               0.000000000               0.000000000              -0.000131217               0.001981916               0.000240591              -0.000296945               0.000759614               0.000462669               0.000000000               0.000000000               0.000000000               0.000000000              -0.000081694               0.001324940               0.000138433              -0.000196252               0.000507060               0.000310807               0.000000000               0.000000000               0.000000000               0.000000000              -0.000098003               0.000833988               0.000089320              -0.000141000               0.000324993               0.000183993               0.000000000               0.000000000               0.000000000               0.000000000               0.002099828               0.018922621              -0.002515325              -0.001577889               0.006833440               0.005255551               0.000000000               0.000000000               0.000000000               0.000000000               0.001579880               0.014738317              -0.001118676              -0.001249832               0.005329334               0.004079502               0.000000000               0.000000000               0.000000000               0.000000000               0.001633265               0.011459405               0.000238546              -0.000819949               0.004093080               0.003273130               0.000000000               0.000000000               0.000000000               0.000000000               0.001276747               0.009558923               0.000766810              -0.000716084               0.003424970               0.002708886               0.000000000               0.000000000               0.000000000               0.000000000               0.000876439               0.008299872               0.000954355              -0.000708818               0.003002869               0.002294051               0.000000000               0.000000000               0.000000000               0.000000000               0.000535735               0.007372690               0.000999972              -0.000720684               0.002697767               0.001977082               0.000000000               0.000000000               0.000000000               0.000000000               0.000267575               0.006625884               0.000984618              -0.000727893               0.002451237               0.001723344               0.000000000               0.000000000               0.000000000               0.000000000               0.000065488               0.005987239               0.000937301              -0.000723846               0.002237008               0.001513162               0.000000000               0.000000000               0.000000000               0.000000000              -0.000081318               0.005413192               0.000878684              -0.000707142               0.002040093               0.001332951               0.000000000               0.000000000               0.000000000               0.000000000              -0.000188427               0.004875964               0.000819014              -0.000680154               0.001852023               0.001171869               0.000000000               0.000000000               0.000000000               0.000000000              -0.000258560               0.004354725               0.000754496              -0.000641299               0.001665327               0.001024027               0.000000000               0.000000000               0.000000000               0.000000000              -0.000292560               0.003838627               0.000685137              -0.000589537               0.001476042               0.000886505               0.000000000               0.000000000               0.000000000               0.000000000              -0.000296255               0.003320943               0.000609794              -0.000526212               0.001282374               0.000756161               0.000000000               0.000000000               0.000000000               0.000000000              -0.000265334               0.002798852               0.000513994              -0.000449356               0.001082726               0.000633371               0.000000000               0.000000000               0.000000000               0.000000000              -0.000201349               0.002265818               0.000387425              -0.000358732               0.000874843               0.000516110               0.000000000               0.000000000               0.000000000               0.000000000              -0.000110449               0.001725164               0.000217221              -0.000257063               0.000660737               0.000403673               0.000000000               0.000000000               0.000000000               0.000000000              -0.000100316               0.001348258               0.000134660              -0.000206150               0.000518132               0.000311981               0.000000000               0.000000000               0.000000000               0.000000000               0.002188713               0.016982077              -0.003313384              -0.001301991               0.006094632               0.004792641               0.000000000               0.000000000               0.000000000               0.000000000               0.001233828               0.013539675              -0.001480205              -0.001229772               0.004923104               0.003693332               0.000000000               0.000000000               0.000000000               0.000000000               0.000825581               0.010984235               0.000279997              -0.001063434               0.004015853               0.002952419               0.000000000               0.000000000               0.000000000               0.000000000               0.000345905               0.009421337               0.000928731              -0.001047951               0.003489731               0.002441781               0.000000000               0.000000000               0.000000000               0.000000000              -0.000034218               0.008320526               0.001143295              -0.001052895               0.003124446               0.002071551               0.000000000               0.000000000               0.000000000               0.000000000              -0.000303321               0.007461875               0.001185842              -0.001046477               0.002836093               0.001789615               0.000000000               0.000000000               0.000000000               0.000000000              -0.000482902               0.006747556               0.001156798              -0.001024531               0.002590673               0.001566142               0.000000000               0.000000000               0.000000000               0.000000000              -0.000592683               0.006123008               0.001093642              -0.000987630               0.002370192               0.001382562               0.000000000               0.000000000               0.000000000               0.000000000              -0.000643838               0.005555504               0.001020610              -0.000935875               0.002163775               0.001227899               0.000000000               0.000000000               0.000000000               0.000000000              -0.000648348               0.005028238               0.000946086              -0.000871658               0.001966615               0.001094957               0.000000000               0.000000000               0.000000000               0.000000000              -0.000620499               0.004525173               0.000865630              -0.000798332               0.001774487               0.000976154               0.000000000               0.000000000               0.000000000               0.000000000              -0.000565716               0.004040011               0.000779763              -0.000717143               0.001585705               0.000868561               0.000000000               0.000000000               0.000000000               0.000000000              -0.000481583               0.003571311               0.000684718              -0.000627006               0.001399427               0.000772421               0.000000000               0.000000000               0.000000000               0.000000000              -0.000371445               0.003118485               0.000566283              -0.000529102               0.001215852               0.000686750               0.000000000               0.000000000               0.000000000               0.000000000              -0.000247790               0.002692775               0.000413827              -0.000429517               0.001040755               0.000611238               0.000000000               0.000000000               0.000000000               0.000000000              -0.000123386               0.002315212               0.000225690              -0.000335670               0.000883620               0.000547949               0.000000000               0.000000000               0.000000000               0.000000000              -0.000084756               0.002090208               0.000134120              -0.000293059               0.000794415               0.000501356               0.000000000               0.000000000               0.000000000               0.000000000               0.002122856               0.014637827              -0.003673986              -0.001033658               0.005223779               0.004190121               0.000000000               0.000000000               0.000000000               0.000000000               0.000722425               0.012109373              -0.001660930              -0.001242760               0.004450670               0.003207910               0.000000000               0.000000000               0.000000000               0.000000000              -0.000159292               0.010407098               0.000240459              -0.001360618               0.003922537               0.002561919               0.000000000               0.000000000               0.000000000               0.000000000              -0.000712842               0.009210967               0.000894622              -0.001418683               0.003543186               0.002124503               0.000000000               0.000000000               0.000000000               0.000000000              -0.001019428               0.008271845               0.001094772              -0.001416263               0.003229342               0.001813079               0.000000000               0.000000000               0.000000000               0.000000000              -0.001173668               0.007490165               0.001123671              -0.001376393               0.002955494               0.001579101               0.000000000               0.000000000               0.000000000               0.000000000              -0.001231878               0.006818193               0.001085656              -0.001314225               0.002710783               0.001396558               0.000000000               0.000000000               0.000000000               0.000000000              -0.001216696               0.006218492               0.001015249              -0.001233570               0.002484000               0.001250430               0.000000000               0.000000000               0.000000000               0.000000000              -0.001144833               0.005669143               0.000939464              -0.001137953               0.002269013               0.001131060               0.000000000               0.000000000               0.000000000               0.000000000              -0.001030769               0.005161612               0.000866639              -0.001031738               0.002064433               0.001032695               0.000000000               0.000000000               0.000000000               0.000000000              -0.000889181               0.004687307               0.000785582              -0.000919354               0.001868872               0.000949517               0.000000000               0.000000000               0.000000000               0.000000000              -0.000728555               0.004243993               0.000696111              -0.000803705               0.001682552               0.000878846               0.000000000               0.000000000               0.000000000               0.000000000              -0.000552888               0.003832738               0.000594190              -0.000686424               0.001506374               0.000819951               0.000000000               0.000000000               0.000000000               0.000000000              -0.000374594               0.003463526               0.000470280              -0.000573412               0.001345634               0.000772222               0.000000000               0.000000000               0.000000000               0.000000000              -0.000217223               0.003156320               0.000324213              -0.000475998               0.001210762               0.000734764               0.000000000               0.000000000               0.000000000               0.000000000              -0.000094876               0.002940167               0.000165662              -0.000403099               0.001114412               0.000711314               0.000000000               0.000000000               0.000000000               0.000000000              -0.000049494               0.002846043               0.000089269              -0.000374315               0.001073443               0.000699128               0.000000000               0.000000000               0.000000000               0.000000000               0.001787491               0.012122526              -0.003614188              -0.000845007               0.004322470               0.003477462               0.000000000               0.000000000               0.000000000               0.000000000               0.000046245               0.010600737              -0.001694476              -0.001307748               0.003969459               0.002661711               0.000000000               0.000000000               0.000000000               0.000000000              -0.001204708               0.009775676               0.000093151              -0.001673721               0.003816433               0.002142712               0.000000000               0.000000000               0.000000000               0.000000000              -0.001729055               0.008921409               0.000667409              -0.001763568               0.003561629               0.001798062               0.000000000               0.000000000               0.000000000               0.000000000              -0.001900765               0.008127827               0.000832391              -0.001728761               0.003285502               0.001556741               0.000000000               0.000000000               0.000000000               0.000000000              -0.001905126               0.007422676               0.000852515              -0.001642253               0.003021618               0.001379365               0.000000000               0.000000000               0.000000000               0.000000000              -0.001817080               0.006796946               0.000819400              -0.001531020               0.002775966               0.001244946               0.000000000               0.000000000               0.000000000               0.000000000              -0.001661695               0.006230174               0.000759469              -0.001401904               0.002544005               0.001142101               0.000000000               0.000000000               0.000000000               0.000000000              -0.001456543               0.005712239               0.000697615              -0.001260231               0.002324137               0.001063907               0.000000000               0.000000000               0.000000000               0.000000000              -0.001226728               0.005233745               0.000639205              -0.001114238               0.002115977               0.001001739               0.000000000               0.000000000               0.000000000               0.000000000              -0.000989184               0.004793446               0.000571152              -0.000970123               0.001921173               0.000951051               0.000000000               0.000000000               0.000000000               0.000000000              -0.000745478               0.004397284               0.000489812              -0.000829213               0.001742151               0.000912938               0.000000000               0.000000000               0.000000000               0.000000000              -0.000508568               0.004050188               0.000394312              -0.000696985               0.001582377               0.000885393               0.000000000               0.000000000               0.000000000               0.000000000              -0.000303042               0.003765414               0.000286207              -0.000584316               0.001449898               0.000865581               0.000000000               0.000000000               0.000000000               0.000000000              -0.000148089               0.003564130               0.000176377              -0.000501048               0.001355048               0.000853999               0.000000000               0.000000000               0.000000000               0.000000000              -0.000050978               0.003456071               0.000079319              -0.000451124               0.001302387               0.000851263               0.000000000               0.000000000               0.000000000               0.000000000              -0.000017133               0.003428717               0.000035398              -0.000435013               0.001287899               0.000852885               0.000000000               0.000000000               0.000000000               0.000000000               0.001127362               0.009641465              -0.003212706              -0.000782423               0.003474596               0.002692173               0.000000000               0.000000000               0.000000000               0.000000000              -0.000756691               0.009139202              -0.001631787              -0.001426157               0.003521755               0.002095598               0.000000000               0.000000000               0.000000000               0.000000000              -0.002198279               0.009121255              -0.000165395              -0.001964507               0.003695223               0.001730717               0.000000000               0.000000000               0.000000000               0.000000000              -0.002587989               0.008547627               0.000286140              -0.002038944               0.003528828               0.001489884               0.000000000               0.000000000               0.000000000               0.000000000              -0.002568633               0.007881928               0.000423920              -0.001948474               0.003276774               0.001328301               0.000000000               0.000000000               0.000000000               0.000000000              -0.002399113               0.007251739               0.000457959              -0.001806130               0.003019265               0.001213135               0.000000000               0.000000000               0.000000000               0.000000000              -0.002158182               0.006676759               0.000451265              -0.001643909               0.002773534               0.001129624               0.000000000               0.000000000               0.000000000               0.000000000              -0.001865671               0.006149960               0.000421804              -0.001468368               0.002539422               0.001071054               0.000000000               0.000000000               0.000000000               0.000000000              -0.001544176               0.005669359               0.000387028              -0.001287733               0.002319012               0.001031279               0.000000000               0.000000000               0.000000000               0.000000000              -0.001222718               0.005230377               0.000353314              -0.001112313               0.002114213               0.001001899               0.000000000               0.000000000               0.000000000               0.000000000              -0.000911723               0.004836898               0.000310371              -0.000946506               0.001927785               0.000981279               0.000000000               0.000000000               0.000000000               0.000000000              -0.000622861               0.004498534               0.000254918              -0.000795888               0.001764792               0.000968905               0.000000000               0.000000000               0.000000000               0.000000000              -0.000375256               0.004231419               0.000185874              -0.000669647               0.001633674               0.000964028               0.000000000               0.000000000               0.000000000               0.000000000              -0.000186701               0.004045524               0.000115838              -0.000575702               0.001540395               0.000964693               0.000000000               0.000000000               0.000000000               0.000000000              -0.000064821               0.003942941               0.000057027              -0.000517174               0.001486692               0.000969518               0.000000000               0.000000000               0.000000000               0.000000000              -0.000009048               0.003908138               0.000017973              -0.000491909               0.001466669               0.000974760               0.000000000               0.000000000               0.000000000               0.000000000               0.000005448               0.003915488               0.000003002              -0.000487392               0.001467613               0.000980222               0.000000000               0.000000000               0.000000000               0.000000000               0.000173329               0.007357036              -0.002560689              -0.000854631               0.002737197               0.001882566               0.000000000               0.000000000               0.000000000               0.000000000              -0.001643083               0.007809043              -0.001518330              -0.001592283               0.003133749               0.001541466               0.000000000               0.000000000               0.000000000               0.000000000              -0.003047438               0.008442864              -0.000524921              -0.002198142               0.003546974               0.001348832               0.000000000               0.000000000               0.000000000               0.000000000              -0.003207841               0.008087912              -0.000185482              -0.002213924               0.003433918               0.001219995               0.000000000               0.000000000               0.000000000               0.000000000              -0.002974856               0.007540441              -0.000043022              -0.002058121               0.003199495               0.001141375               0.000000000               0.000000000               0.000000000               0.000000000              -0.002631220               0.006985446               0.000029260              -0.001859884               0.002948420               0.001088536               0.000000000               0.000000000               0.000000000               0.000000000              -0.002245699               0.006466619               0.000067468              -0.001650460               0.002705671               0.001055211               0.000000000               0.000000000               0.000000000               0.000000000              -0.001837384               0.005984467               0.000083206              -0.001437074               0.002473827               0.001036753               0.000000000               0.000000000               0.000000000               0.000000000              -0.001426639               0.005550667               0.000087476              -0.001228820               0.002259810               0.001030991               0.000000000               0.000000000               0.000000000               0.000000000              -0.001038558               0.005164188               0.000087937              -0.001034980               0.002066372               0.001031392               0.000000000               0.000000000               0.000000000               0.000000000              -0.000686035               0.004833096               0.000080842              -0.000861398               0.001898149               0.001036751               0.000000000               0.000000000               0.000000000               0.000000000              -0.000388223               0.004575257               0.000066591              -0.000717489               0.001764233               0.001046744               0.000000000               0.000000000               0.000000000               0.000000000              -0.000162905               0.004406292               0.000045419              -0.000611874               0.001672707               0.001060833               0.000000000               0.000000000               0.000000000               0.000000000              -0.000018175               0.004328064               0.000021574              -0.000547822               0.001625281               0.001077459               0.000000000               0.000000000               0.000000000               0.000000000               0.000045331               0.004319931               0.000002364              -0.000522991               0.001614293               0.001091302               0.000000000               0.000000000               0.000000000               0.000000000               0.000043055               0.004360728              -0.000005098              -0.000528944               0.001629876               0.001100932               0.000000000               0.000000000               0.000000000               0.000000000               0.000029785               0.004405809              -0.000008038              -0.000539556               0.001648440               0.001108885               0.000000000               0.000000000               0.000000000               0.000000000              -0.000950155               0.005432166              -0.001769063              -0.001035327               0.002155812               0.001120485               0.000000000               0.000000000               0.000000000               0.000000000              -0.002506535               0.006619889              -0.001395751              -0.001767433               0.002795751               0.001028319               0.000000000               0.000000000               0.000000000               0.000000000              -0.003712353               0.007761679              -0.000957626              -0.002362337               0.003374646               0.001012309               0.000000000               0.000000000               0.000000000               0.000000000              -0.003623912               0.007640398              -0.000691445              -0.002314011               0.003318111               0.001004100               0.000000000               0.000000000               0.000000000               0.000000000              -0.003211256               0.007229335              -0.000518836              -0.002107882               0.003112382               0.001004499               0.000000000               0.000000000               0.000000000               0.000000000              -0.002726509               0.006770158              -0.000394522              -0.001868706               0.002879599               0.001010893               0.000000000               0.000000000               0.000000000               0.000000000              -0.002223994               0.006317704              -0.000299828              -0.001623707               0.002647116               0.001023409               0.000000000               0.000000000               0.000000000               0.000000000              -0.001725458               0.005887573              -0.000230801              -0.001382990               0.002423501               0.001040511               0.000000000               0.000000000               0.000000000               0.000000000              -0.001250978               0.005496835              -0.000180559              -0.001156218               0.002217666               0.001061448               0.000000000               0.000000000               0.000000000               0.000000000              -0.000813046               0.005156285              -0.000137830              -0.000949426               0.002035220               0.001085794               0.000000000               0.000000000               0.000000000               0.000000000              -0.000429356               0.004881393              -0.000097094              -0.000771181               0.001884175               0.001112994               0.000000000               0.000000000               0.000000000               0.000000000              -0.000130375               0.004685538              -0.000059381              -0.000634581               0.001773358               0.001138776               0.000000000               0.000000000               0.000000000               0.000000000               0.000069245               0.004577527              -0.000028689              -0.000546223               0.001707901               0.001161679               0.000000000               0.000000000               0.000000000               0.000000000               0.000179255               0.004556776              -0.000008205              -0.000502375               0.001686368               0.001183993               0.000000000               0.000000000               0.000000000               0.000000000               0.000213644               0.004609621               0.000001304              -0.000496085               0.001701887               0.001205802               0.000000000               0.000000000               0.000000000               0.000000000               0.000196322               0.004709370               0.000002676              -0.000515049               0.001741457               0.001226408               0.000000000               0.000000000               0.000000000               0.000000000               0.000172079               0.004776710               0.000001083              -0.000532558               0.001769740               0.001237182               0.000000000               0.000000000               0.000000000               0.000000000              -0.002248059               0.003654537              -0.000938394              -0.001299836               0.001651445               0.000351609               0.000000000               0.000000000               0.000000000               0.000000000              -0.003230005               0.005246151              -0.001260053              -0.001867016               0.002371038               0.000504022               0.000000000               0.000000000               0.000000000               0.000000000              -0.004112837               0.006752059              -0.001409483              -0.002386316               0.003046102               0.000659786               0.000000000               0.000000000               0.000000000               0.000000000              -0.003891909               0.006976995              -0.001228802              -0.002331585               0.003102837               0.000771252               0.000000000               0.000000000               0.000000000               0.000000000              -0.003399461               0.006814857              -0.001028297              -0.002126650               0.002980479               0.000853830               0.000000000               0.000000000               0.000000000               0.000000000              -0.002857901               0.006540345              -0.000856336              -0.001889251               0.002809844               0.000920592               0.000000000               0.000000000               0.000000000               0.000000000              -0.002321724               0.006228163              -0.000709120              -0.001649163               0.002625755               0.000976592               0.000000000               0.000000000               0.000000000               0.000000000              -0.001793788               0.005911175              -0.000586361              -0.001411564               0.002440893               0.001029329               0.000000000               0.000000000               0.000000000               0.000000000              -0.001293323               0.005601087              -0.000487343              -0.001185129               0.002262053               0.001076924               0.000000000               0.000000000               0.000000000               0.000000000              -0.000831872               0.005322658              -0.000398060              -0.000977282               0.002099962               0.001122680               0.000000000               0.000000000               0.000000000               0.000000000              -0.000423445               0.005084721              -0.000307464              -0.000794380               0.001959683               0.001165303               0.000000000               0.000000000               0.000000000               0.000000000              -0.000085134               0.004895844              -0.000218197              -0.000643904               0.001846567               0.001202662               0.000000000               0.000000000               0.000000000               0.000000000               0.000164445               0.004771801              -0.000137866              -0.000534807               0.001768853               0.001234046               0.000000000               0.000000000               0.000000000               0.000000000               0.000327408               0.004732787              -0.000070926              -0.000468819               0.001733853               0.001265034               0.000000000               0.000000000               0.000000000               0.000000000               0.000415625               0.004774640              -0.000025442              -0.000440969               0.001738520               0.001297551               0.000000000               0.000000000               0.000000000               0.000000000               0.000447869               0.004871793              -0.000004613              -0.000441022               0.001770922               0.001329900               0.000000000               0.000000000               0.000000000               0.000000000               0.000445347               0.004933356               0.000001458              -0.000449663               0.001794323               0.001344660               0.000000000               0.000000000               0.000000000               0.000000000              -0.003899371               0.002050951              -0.000133617              -0.001718630               0.001256519              -0.000462111               0.000000000               0.000000000               0.000000000               0.000000000              -0.004050620               0.003859554              -0.001069419              -0.002001422               0.001953645              -0.000047777               0.000000000               0.000000000               0.000000000               0.000000000              -0.004439500               0.005561026              -0.001773302              -0.002359935               0.002640302               0.000280366               0.000000000               0.000000000               0.000000000               0.000000000              -0.004101108               0.006118895              -0.001736770              -0.002302772               0.002807202               0.000504430               0.000000000               0.000000000               0.000000000               0.000000000              -0.003567725               0.006240495              -0.001546980              -0.002117954               0.002786129               0.000668175               0.000000000               0.000000000               0.000000000               0.000000000              -0.002994608               0.006179104              -0.001347367              -0.001895361               0.002691468               0.000796106               0.000000000               0.000000000               0.000000000               0.000000000              -0.002440199               0.006033160              -0.001163609              -0.001669216               0.002567438               0.000898222               0.000000000               0.000000000               0.000000000               0.000000000              -0.001903208               0.005849948              -0.000999460              -0.001444943               0.002431611               0.000986667               0.000000000               0.000000000               0.000000000               0.000000000              -0.001388303               0.005648344              -0.000854711              -0.001226654               0.002291647               0.001064993               0.000000000               0.000000000               0.000000000               0.000000000              -0.000902354               0.005447234              -0.000719873              -0.001019285               0.002155488               0.001136203               0.000000000               0.000000000               0.000000000               0.000000000              -0.000457553               0.005250562              -0.000589245              -0.000827901               0.002026137               0.001198236               0.000000000               0.000000000               0.000000000               0.000000000              -0.000058254               0.005070818              -0.000461990              -0.000655696               0.001908821               0.001253125               0.000000000               0.000000000               0.000000000               0.000000000               0.000270920               0.004927168              -0.000335360              -0.000514300               0.001813806               0.001299506               0.000000000               0.000000000               0.000000000               0.000000000               0.000514850               0.004850338              -0.000215220              -0.000413222               0.001754504               0.001341281               0.000000000               0.000000000               0.000000000               0.000000000               0.000671557               0.004847192              -0.000112491              -0.000354064               0.001733736               0.001379672               0.000000000               0.000000000               0.000000000               0.000000000               0.000748433               0.004905547              -0.000041983              -0.000332530               0.001746009               0.001413479               0.000000000               0.000000000               0.000000000               0.000000000               0.000761892               0.004946417              -0.000014720              -0.000332592               0.001759653               0.001427061               0.000000000               0.000000000               0.000000000               0.000000000              -0.005802973               0.000750541               0.000564551              -0.002269930               0.001006817              -0.001263113               0.000000000               0.000000000               0.000000000               0.000000000              -0.005014143               0.002554853              -0.000813933              -0.002199656               0.001584825              -0.000614831               0.000000000               0.000000000               0.000000000               0.000000000              -0.004721243               0.004206453              -0.001951673              -0.002296268               0.002167559              -0.000128710               0.000000000               0.000000000               0.000000000               0.000000000              -0.004179276               0.004996489              -0.002092614              -0.002191785               0.002396074               0.000204289               0.000000000               0.000000000               0.000000000               0.000000000              -0.003587703               0.005372698              -0.001960133              -0.002016972               0.002463204               0.000446233               0.000000000               0.000000000               0.000000000               0.000000000              -0.002998466               0.005531277              -0.001767608              -0.001815830               0.002449017               0.000633186               0.000000000               0.000000000               0.000000000               0.000000000              -0.002432325               0.005574503              -0.001572587              -0.001608931               0.002394459               0.000785528               0.000000000               0.000000000               0.000000000               0.000000000              -0.001895907               0.005550805              -0.001389415              -0.001404813               0.002318520               0.000913708               0.000000000               0.000000000               0.000000000               0.000000000              -0.001383434               0.005482818              -0.001221120              -0.001204137               0.002228967               0.001024829               0.000000000               0.000000000               0.000000000               0.000000000              -0.000887735               0.005386235              -0.001062447              -0.001006178               0.002130786               0.001124608               0.000000000               0.000000000               0.000000000               0.000000000              -0.000412683               0.005270141              -0.000911917              -0.000813522               0.002027870               0.001214348               0.000000000               0.000000000               0.000000000               0.000000000               0.000029173               0.005146743              -0.000760812              -0.000632402               0.001926364               0.001293963               0.000000000               0.000000000               0.000000000               0.000000000               0.000424550               0.005029867              -0.000598554              -0.000469526               0.001833114               0.001363588               0.000000000               0.000000000               0.000000000               0.000000000               0.000747246               0.004943662              -0.000430427              -0.000337740               0.001760451               0.001422711               0.000000000               0.000000000               0.000000000               0.000000000               0.000977346               0.004908213              -0.000265365              -0.000247021               0.001718395               0.001471374               0.000000000               0.000000000               0.000000000               0.000000000               0.001105303               0.004933789              -0.000119856              -0.000202234               0.001711992               0.001509757               0.000000000               0.000000000               0.000000000               0.000000000               0.001130135               0.004955523              -0.000051676              -0.000195639               0.001717038               0.001521398               0.000000000               0.000000000               0.000000000               0.000000000              -0.007819972              -0.000180475               0.001051136              -0.002909928               0.000909811              -0.002000117               0.000000000               0.000000000               0.000000000               0.000000000              -0.006055950               0.001398723              -0.000539217              -0.002445819               0.001281505              -0.001164314               0.000000000               0.000000000               0.000000000               0.000000000              -0.004970213               0.002795225              -0.001919887              -0.002213229               0.001669473              -0.000543757               0.000000000               0.000000000               0.000000000               0.000000000              -0.004147121               0.003694844              -0.002215291              -0.002017022               0.001903942              -0.000113080               0.000000000               0.000000000               0.000000000               0.000000000              -0.003456074               0.004268696              -0.002163643              -0.001829611               0.002032754               0.000203143               0.000000000               0.000000000               0.000000000               0.000000000              -0.002843398               0.004632897              -0.002007729              -0.001645383               0.002092744               0.000447361               0.000000000               0.000000000               0.000000000               0.000000000              -0.002278269               0.004865632              -0.001826522              -0.001462552               0.002109378               0.000646826               0.000000000               0.000000000               0.000000000               0.000000000              -0.001747310               0.005005965              -0.001648187              -0.001280985               0.002095633               0.000814648               0.000000000               0.000000000               0.000000000               0.000000000              -0.001240699               0.005081752              -0.001481686              -0.001100479               0.002060726               0.000960247               0.000000000               0.000000000               0.000000000               0.000000000              -0.000745718               0.005114295              -0.001327077              -0.000918929               0.002011057               0.001092128               0.000000000               0.000000000               0.000000000               0.000000000              -0.000256410               0.005110497              -0.001177715              -0.000734965               0.001948470               0.001213505               0.000000000               0.000000000               0.000000000               0.000000000               0.000216159               0.005077798              -0.001024090              -0.000553664               0.001877137               0.001323473               0.000000000               0.000000000               0.000000000               0.000000000               0.000665545               0.005031316              -0.000852564              -0.000379335               0.001803533               0.001424199               0.000000000               0.000000000               0.000000000               0.000000000               0.001069283               0.004985250              -0.000655651              -0.000222175               0.001735792               0.001513617               0.000000000               0.000000000               0.000000000               0.000000000               0.001397313               0.004954379              -0.000442002              -0.000095305               0.001683212               0.001587907               0.000000000               0.000000000               0.000000000               0.000000000               0.001624888               0.004962964              -0.000220706              -0.000011038               0.001657984               0.001646946               0.000000000               0.000000000               0.000000000               0.000000000               0.001710895               0.004978845              -0.000110003               0.000019230               0.001653188               0.001672418               0.000000000               0.000000000               0.000000000               0.000000000              -0.009748032              -0.000757455               0.001235475              -0.003560828               0.000934451              -0.002626377               0.000000000               0.000000000               0.000000000               0.000000000              -0.007074849               0.000458291              -0.000296435              -0.002710352               0.001056207              -0.001654145               0.000000000               0.000000000               0.000000000               0.000000000              -0.005189446               0.001470655              -0.001673994              -0.002129871               0.001200167              -0.000929705               0.000000000               0.000000000               0.000000000               0.000000000              -0.004047211               0.002366539              -0.002049889              -0.001813519               0.001393342              -0.000420177               0.000000000               0.000000000               0.000000000               0.000000000              -0.003224789               0.003066040              -0.002071934              -0.001592548               0.001552851              -0.000039697               0.000000000               0.000000000               0.000000000               0.000000000              -0.002564748               0.003595055              -0.001966369              -0.001411160               0.001668725               0.000257566               0.000000000               0.000000000               0.000000000               0.000000000              -0.001994588               0.003990206              -0.001818597              -0.001246744               0.001745636               0.000498892               0.000000000               0.000000000               0.000000000               0.000000000              -0.001471230               0.004279049              -0.001666246              -0.001086590               0.001788532               0.000701941               0.000000000               0.000000000               0.000000000               0.000000000              -0.000969587               0.004495197              -0.001522785              -0.000925493               0.001806881               0.000881388               0.000000000               0.000000000               0.000000000               0.000000000              -0.000475788               0.004661064              -0.001392121              -0.000761052               0.001807356               0.001046304               0.000000000               0.000000000               0.000000000               0.000000000               0.000018726               0.004776437              -0.001266870              -0.000590032               0.001788807               0.001198775               0.000000000               0.000000000               0.000000000               0.000000000               0.000517212               0.004854486              -0.001134654              -0.000412856               0.001755764               0.001342908               0.000000000               0.000000000               0.000000000               0.000000000               0.001010880               0.004904995              -0.000978185              -0.000234044               0.001712997               0.001478952               0.000000000               0.000000000               0.000000000               0.000000000               0.001490516               0.004934961              -0.000785833              -0.000057927               0.001664280               0.001606352               0.000000000               0.000000000               0.000000000               0.000000000               0.001936575               0.004954589              -0.000558533               0.000106891               0.001615883               0.001722774               0.000000000               0.000000000               0.000000000               0.000000000               0.002324451               0.004977900              -0.000295992               0.000249429               0.001576140               0.001825570               0.000000000               0.000000000               0.000000000               0.000000000               0.002542560               0.005008401              -0.000164666               0.000327407               0.001560315               0.001887721               0.000000000               0.000000000               0.000000000               0.000000000              -0.011368901              -0.001055054               0.001078049              -0.004131454               0.001025459              -0.003105994               0.000000000               0.000000000               0.000000000               0.000000000              -0.007952028              -0.000222492              -0.000125037              -0.002954197               0.000910562              -0.002043635               0.000000000               0.000000000               0.000000000               0.000000000              -0.005371093               0.000383769              -0.001235820              -0.002062129               0.000815293              -0.001246836               0.000000000               0.000000000               0.000000000               0.000000000              -0.003922261               0.001203031              -0.001584210              -0.001621225               0.000941411              -0.000679813               0.000000000               0.000000000               0.000000000               0.000000000              -0.002966571               0.001958816              -0.001641728              -0.001357314               0.001105369              -0.000251946               0.000000000               0.000000000               0.000000000               0.000000000              -0.002250164               0.002590963              -0.001582339              -0.001167680               0.001252871               0.000085192               0.000000000               0.000000000               0.000000000               0.000000000              -0.001659986               0.003105730              -0.001479927              -0.001010709               0.001372135               0.000361426               0.000000000               0.000000000               0.000000000               0.000000000              -0.001134838               0.003519397              -0.001370654              -0.000865488               0.001461616               0.000596128               0.000000000               0.000000000               0.000000000               0.000000000              -0.000635893               0.003855350              -0.001266466              -0.000720377               0.001525229               0.000804852               0.000000000               0.000000000               0.000000000               0.000000000              -0.000142492               0.004134502              -0.001173554              -0.000570246               0.001568235               0.000997989               0.000000000               0.000000000               0.000000000               0.000000000               0.000354110               0.004363715              -0.001086895              -0.000412673               0.001592115               0.001179442               0.000000000               0.000000000               0.000000000               0.000000000               0.000863731               0.004553344              -0.000992124              -0.000245269               0.001599522               0.001354254               0.000000000               0.000000000               0.000000000               0.000000000               0.001391109               0.004707944              -0.000874581              -0.000066828               0.001591575               0.001524747               0.000000000               0.000000000               0.000000000               0.000000000               0.001942071               0.004830579              -0.000722170               0.000124453               0.001568693               0.001693145               0.000000000               0.000000000               0.000000000               0.000000000               0.002512137               0.004916190              -0.000530463               0.000327524               0.001529539               0.001857063               0.000000000               0.000000000               0.000000000               0.000000000               0.003090484               0.004968968              -0.000290717               0.000537805               0.001477038               0.002014843               0.000000000               0.000000000               0.000000000               0.000000000               0.003484037               0.005027176              -0.000170944               0.000678110               0.001449672               0.002127782               0.000000000               0.000000000               0.000000000               0.000000000              -0.012462067              -0.001179814               0.000625088              -0.004525796               0.001115320              -0.003410476               0.000000000               0.000000000               0.000000000               0.000000000              -0.008556891              -0.000633989              -0.000035442              -0.003129583               0.000831859              -0.002297724               0.000000000               0.000000000               0.000000000               0.000000000              -0.005493971              -0.000332628              -0.000654820              -0.002018659               0.000562006              -0.001456653               0.000000000               0.000000000               0.000000000               0.000000000              -0.003818797               0.000397811              -0.000863259              -0.001481774               0.000626524              -0.000855250               0.000000000               0.000000000               0.000000000               0.000000000              -0.002762638               0.001163258              -0.000908332              -0.001181395               0.000781545              -0.000399850               0.000000000               0.000000000               0.000000000               0.000000000              -0.002004032               0.001853096              -0.000884119              -0.000983147               0.000945407              -0.000037739               0.000000000               0.000000000               0.000000000               0.000000000              -0.001390568               0.002442988              -0.000831403              -0.000826835               0.001089932               0.000263098               0.000000000               0.000000000               0.000000000               0.000000000              -0.000853007               0.002934530              -0.000773225              -0.000686692               0.001207064               0.000520372               0.000000000               0.000000000               0.000000000               0.000000000              -0.000350154               0.003350178              -0.000719196              -0.000550079               0.001300074               0.000749995               0.000000000               0.000000000               0.000000000               0.000000000               0.000143365               0.003713932              -0.000672070              -0.000410479               0.001374791               0.000964312               0.000000000               0.000000000               0.000000000               0.000000000               0.000638132               0.004032705              -0.000629063              -0.000264788               0.001432484               0.001167696               0.000000000               0.000000000               0.000000000               0.000000000               0.001149027               0.004307600              -0.000581154              -0.000107565               0.001471707               0.001364142               0.000000000               0.000000000               0.000000000               0.000000000               0.001695692               0.004542473              -0.000519430               0.000068074               0.001491451               0.001559526               0.000000000               0.000000000               0.000000000               0.000000000               0.002298152               0.004737251              -0.000437734               0.000269648               0.001489185               0.001758833               0.000000000               0.000000000               0.000000000               0.000000000               0.002969993               0.004877392              -0.000327833               0.000504068               0.001457758               0.001961827               0.000000000               0.000000000               0.000000000               0.000000000               0.003720647               0.004956841              -0.000182057               0.000775630               0.001393721               0.002169350               0.000000000               0.000000000               0.000000000               0.000000000               0.004280883               0.005039677              -0.000110431               0.000975362               0.001354755               0.002330117               0.000000000               0.000000000               0.000000000               0.000000000              -0.012848621              -0.001209872               0.000000000              -0.004666996               0.001152367              -0.003514629               0.000000000               0.000000000               0.000000000               0.000000000              -0.008773798              -0.000770255               0.000000000              -0.003193890               0.000807873              -0.002386017               0.000000000               0.000000000               0.000000000               0.000000000              -0.005538162              -0.000584847               0.000000000              -0.002003704               0.000472949              -0.001530755               0.000000000               0.000000000               0.000000000               0.000000000              -0.003778328               0.000106826              -0.000000000              -0.001430225               0.000512347              -0.000917878               0.000000000               0.000000000               0.000000000               0.000000000              -0.002681872               0.000877522               0.000000000              -0.001115391               0.000664300              -0.000451091               0.000000000               0.000000000               0.000000000               0.000000000              -0.001909708               0.001584348              -0.000000000              -0.000914182               0.000832838              -0.000081345               0.000000000               0.000000000               0.000000000               0.000000000              -0.001289303               0.002191167               0.000000000              -0.000757383               0.000982842               0.000225460               0.000000000               0.000000000               0.000000000               0.000000000              -0.000742862               0.002709445               0.000000000              -0.000617252               0.001108890               0.000491638               0.000000000               0.000000000               0.000000000               0.000000000              -0.000233472               0.003158796               0.000000000              -0.000482400               0.001213721               0.000731321               0.000000000               0.000000000               0.000000000               0.000000000               0.000259505               0.003556813              -0.000000000              -0.000347287               0.001301355               0.000954068               0.000000000               0.000000000               0.000000000               0.000000000               0.000752528               0.003910072              -0.000000000              -0.000206561               0.001372198               0.001165637               0.000000000               0.000000000               0.000000000               0.000000000               0.001261673               0.004216521               0.000000000              -0.000053938               0.001423472               0.001369534               0.000000000               0.000000000               0.000000000               0.000000000               0.001814544               0.004483100               0.000000000               0.000120065               0.001454330               0.001574395               0.000000000               0.000000000               0.000000000               0.000000000               0.002436009               0.004707562              -0.000000000               0.000325055               0.001460820               0.001785875               0.000000000               0.000000000               0.000000000               0.000000000               0.003146258               0.004869745              -0.000000000               0.000571123               0.001432858               0.002003981               0.000000000               0.000000000               0.000000000               0.000000000               0.003971083               0.004958922              -0.000000000               0.000869282               0.001363197               0.002232479               0.000000000               0.000000000               0.000000000               0.000000000               0.004604663               0.005050733              -0.000000000               0.001095396               0.001318429               0.002413825               0.000000000               0.000000000               0.000000000               0.000000000               0.000000000               0.000000000               0.000000000               0.000000000               0.000000000               0.000000000               0.000000000               0.000000000               0.000000000               0.000000000               0.000000000               0.000000000               0.000000000               0.000000000               0.000000000               0.000000000               0.000000000               0.000000000               0.000000000               0.000000000               0.000000000               0.000000000               0.000000000               0.000000000               0.000000000               0.000000000               0.000000000               0.000000000               0.000000000               0.000000000               0.000000000               0.000000000               0.000000000               0.000000000               0.000000000               0.000000000               0.000000000               0.000000000               0.000000000               0.000000000               0.000000000               0.000000000               0.000000000               0.000000000               0.000000000               0.000000000               0.000000000               0.000000000               0.000000000               0.000000000               0.000000000               0.000000000               0.000000000               0.000000000               0.000000000               0.000000000               0.000000000               0.000000000               0.000000000               0.000000000               0.000000000               0.000000000               0.000000000               0.000000000               0.000000000               0.000000000               0.000000000               0.000000000               0.000000000               0.000000000               0.000000000               0.000000000               0.000000000               0.000000000               0.000000000               0.000000000               0.000000000               0.000000000               0.000000000               0.000000000               0.000000000               0.000000000               0.000000000               0.000000000               0.000000000               0.000000000               0.000000000               0.000000000               0.000000000               0.000000000               0.000000000               0.000000000               0.000000000               0.000000000               0.000000000               0.000000000               0.000000000               0.000000000               0.000000000               0.000000000               0.000000000               0.000000000               0.000000000               0.000000000               0.000000000               0.000000000               0.000000000               0.000000000               0.000000000               0.000000000               0.000000000               0.000000000               0.000000000               0.000000000               0.000000000               0.000000000               0.000000000               0.000000000               0.000000000               0.000000000               0.000000000               0.000000000               0.000000000               0.000000000               0.000000000               0.000000000               0.000000000               0.000000000               0.000000000               0.000000000               0.000000000               0.000000000               0.000000000               0.000000000               0.000000000               0.000000000               0.000000000               0.000000000               0.000000000               0.000000000               0.000000000               0.000000000               0.000000000               0.000000000               0.000000000               0.000000000               0.000000000               0.000000000               0.000000000               0.000000000               0.000000000               0.000000000               0.000000000               0.000000000               0.000000000               0.000000000               0.000000000               0.000000000               0.000000000               0.000000000               0.000000000               0.000000000               0.000000000               0.000000000               0.000000000               0.000000000               0.000000000               0.000000000               0.000000000               0.000000000               0.001981742               0.020207440               0.001360753              -0.001782773               0.007330004               0.005547231               0.000000000               0.000000000               0.000000000               0.000000000               0.001773134               0.015537974               0.000603363              -0.001277318               0.005605046               0.004327727               0.000000000               0.000000000               0.000000000               0.000000000               0.002160526               0.011774599              -0.000139044              -0.000661626               0.004145369               0.003483743               0.000000000               0.000000000               0.000000000               0.000000000               0.001916767               0.009631221              -0.000438818              -0.000485114               0.003372080               0.002886965               0.000000000               0.000000000               0.000000000               0.000000000               0.001526278               0.008253699              -0.000549096              -0.000459357               0.002904324               0.002444967               0.000000000               0.000000000               0.000000000               0.000000000               0.001147473               0.007272754              -0.000578729              -0.000478791               0.002583824               0.002105033               0.000000000               0.000000000               0.000000000               0.000000000               0.000828779               0.006512260              -0.000573082              -0.000503239               0.002338478               0.001835239               0.000000000               0.000000000               0.000000000               0.000000000               0.000572191               0.005873524              -0.000546606              -0.000519618               0.002131028               0.001611410               0.000000000               0.000000000               0.000000000               0.000000000               0.000364384               0.005298132              -0.000513941              -0.000525621               0.001941233               0.001415612               0.000000000               0.000000000               0.000000000               0.000000000               0.000194523               0.004756207              -0.000480078              -0.000521579               0.001759246               0.001237667               0.000000000               0.000000000               0.000000000               0.000000000               0.000060817               0.004228201              -0.000444197              -0.000505718               0.001577959               0.001072241               0.000000000               0.000000000               0.000000000               0.000000000              -0.000039102               0.003696753              -0.000406974              -0.000476756               0.001391157               0.000914401               0.000000000               0.000000000               0.000000000               0.000000000              -0.000105101               0.003153308              -0.000365316              -0.000433576               0.001195617               0.000762042               0.000000000               0.000000000               0.000000000               0.000000000              -0.000135864               0.002587236              -0.000312342              -0.000374353               0.000987187               0.000612835               0.000000000               0.000000000               0.000000000               0.000000000              -0.000131217               0.001981916              -0.000240591              -0.000296945               0.000759614               0.000462669               0.000000000               0.000000000               0.000000000               0.000000000              -0.000081694               0.001324940              -0.000138433              -0.000196252               0.000507060               0.000310807               0.000000000               0.000000000               0.000000000               0.000000000              -0.000098003               0.000833988              -0.000089320              -0.000141000               0.000324993               0.000183993               0.000000000               0.000000000               0.000000000               0.000000000               0.002099828               0.018922621               0.002515325              -0.001577889               0.006833440               0.005255551               0.000000000               0.000000000               0.000000000               0.000000000               0.001579880               0.014738317               0.001118676              -0.001249832               0.005329334               0.004079502               0.000000000               0.000000000               0.000000000               0.000000000               0.001633265               0.011459405              -0.000238546              -0.000819949               0.004093080               0.003273130               0.000000000               0.000000000               0.000000000               0.000000000               0.001276747               0.009558923              -0.000766810              -0.000716084               0.003424970               0.002708886               0.000000000               0.000000000               0.000000000               0.000000000               0.000876439               0.008299872              -0.000954355              -0.000708818               0.003002869               0.002294051               0.000000000               0.000000000               0.000000000               0.000000000               0.000535735               0.007372690              -0.000999972              -0.000720684               0.002697767               0.001977082               0.000000000               0.000000000               0.000000000               0.000000000               0.000267575               0.006625884              -0.000984618              -0.000727893               0.002451237               0.001723344               0.000000000               0.000000000               0.000000000               0.000000000               0.000065488               0.005987239              -0.000937301              -0.000723846               0.002237008               0.001513162               0.000000000               0.000000000               0.000000000               0.000000000              -0.000081318               0.005413192              -0.000878684              -0.000707142               0.002040093               0.001332951               0.000000000               0.000000000               0.000000000               0.000000000              -0.000188427               0.004875964              -0.000819014              -0.000680154               0.001852023               0.001171869               0.000000000               0.000000000               0.000000000               0.000000000              -0.000258560               0.004354725              -0.000754496              -0.000641299               0.001665327               0.001024027               0.000000000               0.000000000               0.000000000               0.000000000              -0.000292560               0.003838627              -0.000685137              -0.000589537               0.001476042               0.000886505               0.000000000               0.000000000               0.000000000               0.000000000              -0.000296255               0.003320943              -0.000609794              -0.000526212               0.001282374               0.000756161               0.000000000               0.000000000               0.000000000               0.000000000              -0.000265334               0.002798852              -0.000513994              -0.000449356               0.001082726               0.000633371               0.000000000               0.000000000               0.000000000               0.000000000              -0.000201349               0.002265818              -0.000387425              -0.000358732               0.000874843               0.000516110               0.000000000               0.000000000               0.000000000               0.000000000              -0.000110449               0.001725164              -0.000217221              -0.000257063               0.000660737               0.000403673               0.000000000               0.000000000               0.000000000               0.000000000              -0.000100316               0.001348258              -0.000134660              -0.000206150               0.000518132               0.000311981               0.000000000               0.000000000               0.000000000               0.000000000               0.002188713               0.016982077               0.003313384              -0.001301991               0.006094632               0.004792641               0.000000000               0.000000000               0.000000000               0.000000000               0.001233828               0.013539675               0.001480205              -0.001229772               0.004923104               0.003693332               0.000000000               0.000000000               0.000000000               0.000000000               0.000825581               0.010984235              -0.000279997              -0.001063434               0.004015853               0.002952419               0.000000000               0.000000000               0.000000000               0.000000000               0.000345905               0.009421337              -0.000928731              -0.001047951               0.003489731               0.002441781               0.000000000               0.000000000               0.000000000               0.000000000              -0.000034218               0.008320526              -0.001143295              -0.001052895               0.003124446               0.002071551               0.000000000               0.000000000               0.000000000               0.000000000              -0.000303321               0.007461875              -0.001185842              -0.001046477               0.002836093               0.001789615               0.000000000               0.000000000               0.000000000               0.000000000              -0.000482902               0.006747556              -0.001156798              -0.001024531               0.002590673               0.001566142               0.000000000               0.000000000               0.000000000               0.000000000              -0.000592683               0.006123008              -0.001093642              -0.000987630               0.002370192               0.001382562               0.000000000               0.000000000               0.000000000               0.000000000              -0.000643838               0.005555504              -0.001020610              -0.000935875               0.002163775               0.001227899               0.000000000               0.000000000               0.000000000               0.000000000              -0.000648348               0.005028238              -0.000946086              -0.000871658               0.001966615               0.001094957               0.000000000               0.000000000               0.000000000               0.000000000              -0.000620499               0.004525173              -0.000865630              -0.000798332               0.001774487               0.000976154               0.000000000               0.000000000               0.000000000               0.000000000              -0.000565716               0.004040011              -0.000779763              -0.000717143               0.001585705               0.000868561               0.000000000               0.000000000               0.000000000               0.000000000              -0.000481583               0.003571311              -0.000684718              -0.000627006               0.001399427               0.000772421               0.000000000               0.000000000               0.000000000               0.000000000              -0.000371445               0.003118485              -0.000566283              -0.000529102               0.001215852               0.000686750               0.000000000               0.000000000               0.000000000               0.000000000              -0.000247790               0.002692775              -0.000413827              -0.000429517               0.001040755               0.000611238               0.000000000               0.000000000               0.000000000               0.000000000              -0.000123386               0.002315212              -0.000225690              -0.000335670               0.000883620               0.000547949               0.000000000               0.000000000               0.000000000               0.000000000              -0.000084756               0.002090208              -0.000134120              -0.000293059               0.000794415               0.000501356               0.000000000               0.000000000               0.000000000               0.000000000               0.002122856               0.014637827               0.003673986              -0.001033658               0.005223779               0.004190121               0.000000000               0.000000000               0.000000000               0.000000000               0.000722425               0.012109373               0.001660930              -0.001242760               0.004450670               0.003207910               0.000000000               0.000000000               0.000000000               0.000000000              -0.000159292               0.010407098              -0.000240459              -0.001360618               0.003922537               0.002561919               0.000000000               0.000000000               0.000000000               0.000000000              -0.000712842               0.009210967              -0.000894622              -0.001418683               0.003543186               0.002124503               0.000000000               0.000000000               0.000000000               0.000000000              -0.001019428               0.008271845              -0.001094772              -0.001416263               0.003229342               0.001813079               0.000000000               0.000000000               0.000000000               0.000000000              -0.001173668               0.007490165              -0.001123671              -0.001376393               0.002955494               0.001579101               0.000000000               0.000000000               0.000000000               0.000000000              -0.001231878               0.006818193              -0.001085656              -0.001314225               0.002710783               0.001396558               0.000000000               0.000000000               0.000000000               0.000000000              -0.001216696               0.006218492              -0.001015249              -0.001233570               0.002484000               0.001250430               0.000000000               0.000000000               0.000000000               0.000000000              -0.001144833               0.005669143              -0.000939464              -0.001137953               0.002269013               0.001131060               0.000000000               0.000000000               0.000000000               0.000000000              -0.001030769               0.005161612              -0.000866639              -0.001031738               0.002064433               0.001032695               0.000000000               0.000000000               0.000000000               0.000000000              -0.000889181               0.004687307              -0.000785582              -0.000919354               0.001868872               0.000949517               0.000000000               0.000000000               0.000000000               0.000000000              -0.000728555               0.004243993              -0.000696111              -0.000803705               0.001682552               0.000878846               0.000000000               0.000000000               0.000000000               0.000000000              -0.000552888               0.003832738              -0.000594190              -0.000686424               0.001506374               0.000819951               0.000000000               0.000000000               0.000000000               0.000000000              -0.000374594               0.003463526              -0.000470280              -0.000573412               0.001345634               0.000772222               0.000000000               0.000000000               0.000000000               0.000000000              -0.000217223               0.003156320              -0.000324213              -0.000475998               0.001210762               0.000734764               0.000000000               0.000000000               0.000000000               0.000000000              -0.000094876               0.002940167              -0.000165662              -0.000403099               0.001114412               0.000711314               0.000000000               0.000000000               0.000000000               0.000000000              -0.000049494               0.002846043              -0.000089269              -0.000374315               0.001073443               0.000699128               0.000000000               0.000000000               0.000000000               0.000000000               0.001787491               0.012122526               0.003614188              -0.000845007               0.004322470               0.003477462               0.000000000               0.000000000               0.000000000               0.000000000               0.000046245               0.010600737               0.001694476              -0.001307748               0.003969459               0.002661711               0.000000000               0.000000000               0.000000000               0.000000000              -0.001204708               0.009775676              -0.000093151              -0.001673721               0.003816433               0.002142712               0.000000000               0.000000000               0.000000000               0.000000000              -0.001729055               0.008921409              -0.000667409              -0.001763568               0.003561629               0.001798062               0.000000000               0.000000000               0.000000000               0.000000000              -0.001900765               0.008127827              -0.000832391              -0.001728761               0.003285502               0.001556741               0.000000000               0.000000000               0.000000000               0.000000000              -0.001905126               0.007422676              -0.000852515              -0.001642253               0.003021618               0.001379365               0.000000000               0.000000000               0.000000000               0.000000000              -0.001817080               0.006796946              -0.000819400              -0.001531020               0.002775966               0.001244946               0.000000000               0.000000000               0.000000000               0.000000000              -0.001661695               0.006230174              -0.000759469              -0.001401904               0.002544005               0.001142101               0.000000000               0.000000000               0.000000000               0.000000000              -0.001456543               0.005712239              -0.000697615              -0.001260231               0.002324137               0.001063907               0.000000000               0.000000000               0.000000000               0.000000000              -0.001226728               0.005233745              -0.000639205              -0.001114238               0.002115977               0.001001739               0.000000000               0.000000000               0.000000000               0.000000000              -0.000989184               0.004793446              -0.000571152              -0.000970123               0.001921173               0.000951051               0.000000000               0.000000000               0.000000000               0.000000000              -0.000745478               0.004397284              -0.000489812              -0.000829213               0.001742151               0.000912938               0.000000000               0.000000000               0.000000000               0.000000000              -0.000508568               0.004050188              -0.000394312              -0.000696985               0.001582377               0.000885393               0.000000000               0.000000000               0.000000000               0.000000000              -0.000303042               0.003765414              -0.000286207              -0.000584316               0.001449898               0.000865581               0.000000000               0.000000000               0.000000000               0.000000000              -0.000148089               0.003564130              -0.000176377              -0.000501048               0.001355048               0.000853999               0.000000000               0.000000000               0.000000000               0.000000000              -0.000050978               0.003456071              -0.000079319              -0.000451124               0.001302387               0.000851263               0.000000000               0.000000000               0.000000000               0.000000000              -0.000017133               0.003428717              -0.000035398              -0.000435013               0.001287899               0.000852885               0.000000000               0.000000000               0.000000000               0.000000000               0.001127362               0.009641465               0.003212706              -0.000782423               0.003474596               0.002692173               0.000000000               0.000000000               0.000000000               0.000000000              -0.000756691               0.009139202               0.001631787              -0.001426157               0.003521755               0.002095598               0.000000000               0.000000000               0.000000000               0.000000000              -0.002198279               0.009121255               0.000165395              -0.001964507               0.003695223               0.001730717               0.000000000               0.000000000               0.000000000               0.000000000              -0.002587989               0.008547627              -0.000286140              -0.002038944               0.003528828               0.001489884               0.000000000               0.000000000               0.000000000               0.000000000              -0.002568633               0.007881928              -0.000423920              -0.001948474               0.003276774               0.001328301               0.000000000               0.000000000               0.000000000               0.000000000              -0.002399113               0.007251739              -0.000457959              -0.001806130               0.003019265               0.001213135               0.000000000               0.000000000               0.000000000               0.000000000              -0.002158182               0.006676759              -0.000451265              -0.001643909               0.002773534               0.001129624               0.000000000               0.000000000               0.000000000               0.000000000              -0.001865671               0.006149960              -0.000421804              -0.001468368               0.002539422               0.001071054               0.000000000               0.000000000               0.000000000               0.000000000              -0.001544176               0.005669359              -0.000387028              -0.001287733               0.002319012               0.001031279               0.000000000               0.000000000               0.000000000               0.000000000              -0.001222718               0.005230377              -0.000353314              -0.001112313               0.002114213               0.001001899               0.000000000               0.000000000               0.000000000               0.000000000              -0.000911723               0.004836898              -0.000310371              -0.000946506               0.001927785               0.000981279               0.000000000               0.000000000               0.000000000               0.000000000              -0.000622861               0.004498534              -0.000254918              -0.000795888               0.001764792               0.000968905               0.000000000               0.000000000               0.000000000               0.000000000              -0.000375256               0.004231419              -0.000185874              -0.000669647               0.001633674               0.000964028               0.000000000               0.000000000               0.000000000               0.000000000              -0.000186701               0.004045524              -0.000115838              -0.000575702               0.001540395               0.000964693               0.000000000               0.000000000               0.000000000               0.000000000              -0.000064821               0.003942941              -0.000057027              -0.000517174               0.001486692               0.000969518               0.000000000               0.000000000               0.000000000               0.000000000              -0.000009048               0.003908138              -0.000017973              -0.000491909               0.001466669               0.000974760               0.000000000               0.000000000               0.000000000               0.000000000               0.000005448               0.003915488              -0.000003002              -0.000487392               0.001467613               0.000980222               0.000000000               0.000000000               0.000000000               0.000000000               0.000173329               0.007357036               0.002560689              -0.000854631               0.002737197               0.001882566               0.000000000               0.000000000               0.000000000               0.000000000              -0.001643083               0.007809043               0.001518330              -0.001592283               0.003133749               0.001541466               0.000000000               0.000000000               0.000000000               0.000000000              -0.003047438               0.008442864               0.000524921              -0.002198142               0.003546974               0.001348832               0.000000000               0.000000000               0.000000000               0.000000000              -0.003207841               0.008087912               0.000185482              -0.002213924               0.003433918               0.001219995               0.000000000               0.000000000               0.000000000               0.000000000              -0.002974856               0.007540441               0.000043022              -0.002058121               0.003199495               0.001141375               0.000000000               0.000000000               0.000000000               0.000000000              -0.002631220               0.006985446              -0.000029260              -0.001859884               0.002948420               0.001088536               0.000000000               0.000000000               0.000000000               0.000000000              -0.002245699               0.006466619              -0.000067468              -0.001650460               0.002705671               0.001055211               0.000000000               0.000000000               0.000000000               0.000000000              -0.001837384               0.005984467              -0.000083206              -0.001437074               0.002473827               0.001036753               0.000000000               0.000000000               0.000000000               0.000000000              -0.001426639               0.005550667              -0.000087476              -0.001228820               0.002259810               0.001030991               0.000000000               0.000000000               0.000000000               0.000000000              -0.001038558               0.005164188              -0.000087937              -0.001034980               0.002066372               0.001031392               0.000000000               0.000000000               0.000000000               0.000000000              -0.000686035               0.004833096              -0.000080842              -0.000861398               0.001898149               0.001036751               0.000000000               0.000000000               0.000000000               0.000000000              -0.000388223               0.004575257              -0.000066591              -0.000717489               0.001764233               0.001046744               0.000000000               0.000000000               0.000000000               0.000000000              -0.000162905               0.004406292              -0.000045419              -0.000611874               0.001672707               0.001060833               0.000000000               0.000000000               0.000000000               0.000000000              -0.000018175               0.004328064              -0.000021574              -0.000547822               0.001625281               0.001077459               0.000000000               0.000000000               0.000000000               0.000000000               0.000045331               0.004319931              -0.000002364              -0.000522991               0.001614293               0.001091302               0.000000000               0.000000000               0.000000000               0.000000000               0.000043055               0.004360728               0.000005098              -0.000528944               0.001629876               0.001100932               0.000000000               0.000000000               0.000000000               0.000000000               0.000029785               0.004405809               0.000008038              -0.000539556               0.001648440               0.001108885               0.000000000               0.000000000               0.000000000               0.000000000              -0.000950155               0.005432166               0.001769063              -0.001035327               0.002155812               0.001120485               0.000000000               0.000000000               0.000000000               0.000000000              -0.002506535               0.006619889               0.001395751              -0.001767433               0.002795751               0.001028319               0.000000000               0.000000000               0.000000000               0.000000000              -0.003712353               0.007761679               0.000957626              -0.002362337               0.003374646               0.001012309               0.000000000               0.000000000               0.000000000               0.000000000              -0.003623912               0.007640398               0.000691445              -0.002314011               0.003318111               0.001004100               0.000000000               0.000000000               0.000000000               0.000000000              -0.003211256               0.007229335               0.000518836              -0.002107882               0.003112382               0.001004499               0.000000000               0.000000000               0.000000000               0.000000000              -0.002726509               0.006770158               0.000394522              -0.001868706               0.002879599               0.001010893               0.000000000               0.000000000               0.000000000               0.000000000              -0.002223994               0.006317704               0.000299828              -0.001623707               0.002647116               0.001023409               0.000000000               0.000000000               0.000000000               0.000000000              -0.001725458               0.005887573               0.000230801              -0.001382990               0.002423501               0.001040511               0.000000000               0.000000000               0.000000000               0.000000000              -0.001250978               0.005496835               0.000180559              -0.001156218               0.002217666               0.001061448               0.000000000               0.000000000               0.000000000               0.000000000              -0.000813046               0.005156285               0.000137830              -0.000949426               0.002035220               0.001085794               0.000000000               0.000000000               0.000000000               0.000000000              -0.000429356               0.004881393               0.000097094              -0.000771181               0.001884175               0.001112994               0.000000000               0.000000000               0.000000000               0.000000000              -0.000130375               0.004685538               0.000059381              -0.000634581               0.001773358               0.001138776               0.000000000               0.000000000               0.000000000               0.000000000               0.000069245               0.004577527               0.000028689              -0.000546223               0.001707901               0.001161679               0.000000000               0.000000000               0.000000000               0.000000000               0.000179255               0.004556776               0.000008205              -0.000502375               0.001686368               0.001183993               0.000000000               0.000000000               0.000000000               0.000000000               0.000213644               0.004609621              -0.000001304              -0.000496085               0.001701887               0.001205802               0.000000000               0.000000000               0.000000000               0.000000000               0.000196322               0.004709370              -0.000002676              -0.000515049               0.001741457               0.001226408               0.000000000               0.000000000               0.000000000               0.000000000               0.000172079               0.004776710              -0.000001083              -0.000532558               0.001769740               0.001237182               0.000000000               0.000000000               0.000000000               0.000000000              -0.002248059               0.003654537               0.000938394              -0.001299836               0.001651445               0.000351609               0.000000000               0.000000000               0.000000000               0.000000000              -0.003230005               0.005246151               0.001260053              -0.001867016               0.002371038               0.000504022               0.000000000               0.000000000               0.000000000               0.000000000              -0.004112837               0.006752059               0.001409483              -0.002386316               0.003046102               0.000659786               0.000000000               0.000000000               0.000000000               0.000000000              -0.003891909               0.006976995               0.001228802              -0.002331585               0.003102837               0.000771252               0.000000000               0.000000000               0.000000000               0.000000000              -0.003399461               0.006814857               0.001028297              -0.002126650               0.002980479               0.000853830               0.000000000               0.000000000               0.000000000               0.000000000              -0.002857901               0.006540345               0.000856336              -0.001889251               0.002809844               0.000920592               0.000000000               0.000000000               0.000000000               0.000000000              -0.002321724               0.006228163               0.000709120              -0.001649163               0.002625755               0.000976592               0.000000000               0.000000000               0.000000000               0.000000000              -0.001793788               0.005911175               0.000586361              -0.001411564               0.002440893               0.001029329               0.000000000               0.000000000               0.000000000               0.000000000              -0.001293323               0.005601087               0.000487343              -0.001185129               0.002262053               0.001076924               0.000000000               0.000000000               0.000000000               0.000000000              -0.000831872               0.005322658               0.000398060              -0.000977282               0.002099962               0.001122680               0.000000000               0.000000000               0.000000000               0.000000000              -0.000423445               0.005084721               0.000307464              -0.000794380               0.001959683               0.001165303               0.000000000               0.000000000               0.000000000               0.000000000              -0.000085134               0.004895844               0.000218197              -0.000643904               0.001846567               0.001202662               0.000000000               0.000000000               0.000000000               0.000000000               0.000164445               0.004771801               0.000137866              -0.000534807               0.001768853               0.001234046               0.000000000               0.000000000               0.000000000               0.000000000               0.000327408               0.004732787               0.000070926              -0.000468819               0.001733853               0.001265034               0.000000000               0.000000000               0.000000000               0.000000000               0.000415625               0.004774640               0.000025442              -0.000440969               0.001738520               0.001297551               0.000000000               0.000000000               0.000000000               0.000000000               0.000447869               0.004871793               0.000004613              -0.000441022               0.001770922               0.001329900               0.000000000               0.000000000               0.000000000               0.000000000               0.000445347               0.004933356              -0.000001458              -0.000449663               0.001794323               0.001344660               0.000000000               0.000000000               0.000000000               0.000000000              -0.003899371               0.002050951               0.000133617              -0.001718630               0.001256519              -0.000462111               0.000000000               0.000000000               0.000000000               0.000000000              -0.004050620               0.003859554               0.001069419              -0.002001422               0.001953645              -0.000047777               0.000000000               0.000000000               0.000000000               0.000000000              -0.004439500               0.005561026               0.001773302              -0.002359935               0.002640302               0.000280366               0.000000000               0.000000000               0.000000000               0.000000000              -0.004101108               0.006118895               0.001736770              -0.002302772               0.002807202               0.000504430               0.000000000               0.000000000               0.000000000               0.000000000              -0.003567725               0.006240495               0.001546980              -0.002117954               0.002786129               0.000668175               0.000000000               0.000000000               0.000000000               0.000000000              -0.002994608               0.006179104               0.001347367              -0.001895361               0.002691468               0.000796106               0.000000000               0.000000000               0.000000000               0.000000000              -0.002440199               0.006033160               0.001163609              -0.001669216               0.002567438               0.000898222               0.000000000               0.000000000               0.000000000               0.000000000              -0.001903208               0.005849948               0.000999460              -0.001444943               0.002431611               0.000986667               0.000000000               0.000000000               0.000000000               0.000000000              -0.001388303               0.005648344               0.000854711              -0.001226654               0.002291647               0.001064993               0.000000000               0.000000000               0.000000000               0.000000000              -0.000902354               0.005447234               0.000719873              -0.001019285               0.002155488               0.001136203               0.000000000               0.000000000               0.000000000               0.000000000              -0.000457553               0.005250562               0.000589245              -0.000827901               0.002026137               0.001198236               0.000000000               0.000000000               0.000000000               0.000000000              -0.000058254               0.005070818               0.000461990              -0.000655696               0.001908821               0.001253125               0.000000000               0.000000000               0.000000000               0.000000000               0.000270920               0.004927168               0.000335360              -0.000514300               0.001813806               0.001299506               0.000000000               0.000000000               0.000000000               0.000000000               0.000514850               0.004850338               0.000215220              -0.000413222               0.001754504               0.001341281               0.000000000               0.000000000               0.000000000               0.000000000               0.000671557               0.004847192               0.000112491              -0.000354064               0.001733736               0.001379672               0.000000000               0.000000000               0.000000000               0.000000000               0.000748433               0.004905547               0.000041983              -0.000332530               0.001746009               0.001413479               0.000000000               0.000000000               0.000000000               0.000000000               0.000761892               0.004946417               0.000014720              -0.000332592               0.001759653               0.001427061               0.000000000               0.000000000               0.000000000               0.000000000              -0.005802973               0.000750541              -0.000564551              -0.002269930               0.001006817              -0.001263113               0.000000000               0.000000000               0.000000000               0.000000000              -0.005014143               0.002554853               0.000813933              -0.002199656               0.001584825              -0.000614831               0.000000000               0.000000000               0.000000000               0.000000000              -0.004721243               0.004206453               0.001951673              -0.002296268               0.002167559              -0.000128710               0.000000000               0.000000000               0.000000000               0.000000000              -0.004179276               0.004996489               0.002092614              -0.002191785               0.002396074               0.000204289               0.000000000               0.000000000               0.000000000               0.000000000              -0.003587703               0.005372698               0.001960133              -0.002016972               0.002463204               0.000446233               0.000000000               0.000000000               0.000000000               0.000000000              -0.002998466               0.005531277               0.001767608              -0.001815830               0.002449017               0.000633186               0.000000000               0.000000000               0.000000000               0.000000000              -0.002432325               0.005574503               0.001572587              -0.001608931               0.002394459               0.000785528               0.000000000               0.000000000               0.000000000               0.000000000              -0.001895907               0.005550805               0.001389415              -0.001404813               0.002318520               0.000913708               0.000000000               0.000000000               0.000000000               0.000000000              -0.001383434               0.005482818               0.001221120              -0.001204137               0.002228967               0.001024829               0.000000000               0.000000000               0.000000000               0.000000000              -0.000887735               0.005386235               0.001062447              -0.001006178               0.002130786               0.001124608               0.000000000               0.000000000               0.000000000               0.000000000              -0.000412683               0.005270141               0.000911917              -0.000813522               0.002027870               0.001214348               0.000000000               0.000000000               0.000000000               0.000000000               0.000029173               0.005146743               0.000760812              -0.000632402               0.001926364               0.001293963               0.000000000               0.000000000               0.000000000               0.000000000               0.000424550               0.005029867               0.000598554              -0.000469526               0.001833114               0.001363588               0.000000000               0.000000000               0.000000000               0.000000000               0.000747246               0.004943662               0.000430427              -0.000337740               0.001760451               0.001422711               0.000000000               0.000000000               0.000000000               0.000000000               0.000977346               0.004908213               0.000265365              -0.000247021               0.001718395               0.001471374               0.000000000               0.000000000               0.000000000               0.000000000               0.001105303               0.004933789               0.000119856              -0.000202234               0.001711992               0.001509757               0.000000000               0.000000000               0.000000000               0.000000000               0.001130135               0.004955523               0.000051676              -0.000195639               0.001717038               0.001521398               0.000000000               0.000000000               0.000000000               0.000000000              -0.007819972              -0.000180475              -0.001051136              -0.002909928               0.000909811              -0.002000117               0.000000000               0.000000000               0.000000000               0.000000000              -0.006055950               0.001398723               0.000539217              -0.002445819               0.001281505              -0.001164314               0.000000000               0.000000000               0.000000000               0.000000000              -0.004970213               0.002795225               0.001919887              -0.002213229               0.001669473              -0.000543757               0.000000000               0.000000000               0.000000000               0.000000000              -0.004147121               0.003694844               0.002215291              -0.002017022               0.001903942              -0.000113080               0.000000000               0.000000000               0.000000000               0.000000000              -0.003456074               0.004268696               0.002163643              -0.001829611               0.002032754               0.000203143               0.000000000               0.000000000               0.000000000               0.000000000              -0.002843398               0.004632897               0.002007729              -0.001645383               0.002092744               0.000447361               0.000000000               0.000000000               0.000000000               0.000000000              -0.002278269               0.004865632               0.001826522              -0.001462552               0.002109378               0.000646826               0.000000000               0.000000000               0.000000000               0.000000000              -0.001747310               0.005005965               0.001648187              -0.001280985               0.002095633               0.000814648               0.000000000               0.000000000               0.000000000               0.000000000              -0.001240699               0.005081752               0.001481686              -0.001100479               0.002060726               0.000960247               0.000000000               0.000000000               0.000000000               0.000000000              -0.000745718               0.005114295               0.001327077              -0.000918929               0.002011057               0.001092128               0.000000000               0.000000000               0.000000000               0.000000000              -0.000256410               0.005110497               0.001177715              -0.000734965               0.001948470               0.001213505               0.000000000               0.000000000               0.000000000               0.000000000               0.000216159               0.005077798               0.001024090              -0.000553664               0.001877137               0.001323473               0.000000000               0.000000000               0.000000000               0.000000000               0.000665545               0.005031316               0.000852564              -0.000379335               0.001803533               0.001424199               0.000000000               0.000000000               0.000000000               0.000000000               0.001069283               0.004985250               0.000655651              -0.000222175               0.001735792               0.001513617               0.000000000               0.000000000               0.000000000               0.000000000               0.001397313               0.004954379               0.000442002              -0.000095305               0.001683212               0.001587907               0.000000000               0.000000000               0.000000000               0.000000000               0.001624888               0.004962964               0.000220706              -0.000011038               0.001657984               0.001646946               0.000000000               0.000000000               0.000000000               0.000000000               0.001710895               0.004978845               0.000110003               0.000019230               0.001653188               0.001672418               0.000000000               0.000000000               0.000000000               0.000000000              -0.009748032              -0.000757455              -0.001235475              -0.003560828               0.000934451              -0.002626377               0.000000000               0.000000000               0.000000000               0.000000000              -0.007074849               0.000458291               0.000296435              -0.002710352               0.001056207              -0.001654145               0.000000000               0.000000000               0.000000000               0.000000000              -0.005189446               0.001470655               0.001673994              -0.002129871               0.001200167              -0.000929705               0.000000000               0.000000000               0.000000000               0.000000000              -0.004047211               0.002366539               0.002049889              -0.001813519               0.001393342              -0.000420177               0.000000000               0.000000000               0.000000000               0.000000000              -0.003224789               0.003066040               0.002071934              -0.001592548               0.001552851              -0.000039697               0.000000000               0.000000000               0.000000000               0.000000000              -0.002564748               0.003595055               0.001966369              -0.001411160               0.001668725               0.000257566               0.000000000               0.000000000               0.000000000               0.000000000              -0.001994588               0.003990206               0.001818597              -0.001246744               0.001745636               0.000498892               0.000000000               0.000000000               0.000000000               0.000000000              -0.001471230               0.004279049               0.001666246              -0.001086590               0.001788532               0.000701941               0.000000000               0.000000000               0.000000000               0.000000000              -0.000969587               0.004495197               0.001522785              -0.000925493               0.001806881               0.000881388               0.000000000               0.000000000               0.000000000               0.000000000              -0.000475788               0.004661064               0.001392121              -0.000761052               0.001807356               0.001046304               0.000000000               0.000000000               0.000000000               0.000000000               0.000018726               0.004776437               0.001266870              -0.000590032               0.001788807               0.001198775               0.000000000               0.000000000               0.000000000               0.000000000               0.000517212               0.004854486               0.001134654              -0.000412856               0.001755764               0.001342908               0.000000000               0.000000000               0.000000000               0.000000000               0.001010880               0.004904995               0.000978185              -0.000234044               0.001712997               0.001478952               0.000000000               0.000000000               0.000000000               0.000000000               0.001490516               0.004934961               0.000785833              -0.000057927               0.001664280               0.001606352               0.000000000               0.000000000               0.000000000               0.000000000               0.001936575               0.004954589               0.000558533               0.000106891               0.001615883               0.001722774               0.000000000               0.000000000               0.000000000               0.000000000               0.002324451               0.004977900               0.000295992               0.000249429               0.001576140               0.001825570               0.000000000               0.000000000               0.000000000               0.000000000               0.002542560               0.005008401               0.000164666               0.000327407               0.001560315               0.001887721               0.000000000               0.000000000               0.000000000               0.000000000              -0.011368901              -0.001055054              -0.001078049              -0.004131454               0.001025459              -0.003105994               0.000000000               0.000000000               0.000000000               0.000000000              -0.007952028              -0.000222492               0.000125037              -0.002954197               0.000910562              -0.002043635               0.000000000               0.000000000               0.000000000               0.000000000              -0.005371093               0.000383769               0.001235820              -0.002062129               0.000815293              -0.001246836               0.000000000               0.000000000               0.000000000               0.000000000              -0.003922261               0.001203031               0.001584210              -0.001621225               0.000941411              -0.000679813               0.000000000               0.000000000               0.000000000               0.000000000              -0.002966571               0.001958816               0.001641728              -0.001357314               0.001105369              -0.000251946               0.000000000               0.000000000               0.000000000               0.000000000              -0.002250164               0.002590963               0.001582339              -0.001167680               0.001252871               0.000085192               0.000000000               0.000000000               0.000000000               0.000000000              -0.001659986               0.003105730               0.001479927              -0.001010709               0.001372135               0.000361426               0.000000000               0.000000000               0.000000000               0.000000000              -0.001134838               0.003519397               0.001370654              -0.000865488               0.001461616               0.000596128               0.000000000               0.000000000               0.000000000               0.000000000              -0.000635893               0.003855350               0.001266466              -0.000720377               0.001525229               0.000804852               0.000000000               0.000000000               0.000000000               0.000000000              -0.000142492               0.004134502               0.001173554              -0.000570246               0.001568235               0.000997989               0.000000000               0.000000000               0.000000000               0.000000000               0.000354110               0.004363715               0.001086895              -0.000412673               0.001592115               0.001179442               0.000000000               0.000000000               0.000000000               0.000000000               0.000863731               0.004553344               0.000992124              -0.000245269               0.001599522               0.001354254               0.000000000               0.000000000               0.000000000               0.000000000               0.001391109               0.004707944               0.000874581              -0.000066828               0.001591575               0.001524747               0.000000000               0.000000000               0.000000000               0.000000000               0.001942071               0.004830579               0.000722170               0.000124453               0.001568693               0.001693145               0.000000000               0.000000000               0.000000000               0.000000000               0.002512137               0.004916190               0.000530463               0.000327524               0.001529539               0.001857063               0.000000000               0.000000000               0.000000000               0.000000000               0.003090484               0.004968968               0.000290717               0.000537805               0.001477038               0.002014843               0.000000000               0.000000000               0.000000000               0.000000000               0.003484037               0.005027176               0.000170944               0.000678110               0.001449672               0.002127782               0.000000000               0.000000000               0.000000000               0.000000000              -0.012462067              -0.001179814              -0.000625088              -0.004525796               0.001115320              -0.003410476               0.000000000               0.000000000               0.000000000               0.000000000              -0.008556891              -0.000633989               0.000035442              -0.003129583               0.000831859              -0.002297724               0.000000000               0.000000000               0.000000000               0.000000000              -0.005493971              -0.000332628               0.000654820              -0.002018659               0.000562006              -0.001456653               0.000000000               0.000000000               0.000000000               0.000000000              -0.003818797               0.000397811               0.000863259              -0.001481774               0.000626524              -0.000855250               0.000000000               0.000000000               0.000000000               0.000000000              -0.002762638               0.001163258               0.000908332              -0.001181395               0.000781545              -0.000399850               0.000000000               0.000000000               0.000000000               0.000000000              -0.002004032               0.001853096               0.000884119              -0.000983147               0.000945407              -0.000037739               0.000000000               0.000000000               0.000000000               0.000000000              -0.001390568               0.002442988               0.000831403              -0.000826835               0.001089932               0.000263098               0.000000000               0.000000000               0.000000000               0.000000000              -0.000853007               0.002934530               0.000773225              -0.000686692               0.001207064               0.000520372               0.000000000               0.000000000               0.000000000               0.000000000              -0.000350154               0.003350178               0.000719196              -0.000550079               0.001300074               0.000749995               0.000000000               0.000000000               0.000000000               0.000000000               0.000143365               0.003713932               0.000672070              -0.000410479               0.001374791               0.000964312               0.000000000               0.000000000               0.000000000               0.000000000               0.000638132               0.004032705               0.000629063              -0.000264788               0.001432484               0.001167696               0.000000000               0.000000000               0.000000000               0.000000000               0.001149027               0.004307600               0.000581154              -0.000107565               0.001471707               0.001364142               0.000000000               0.000000000               0.000000000               0.000000000               0.001695692               0.004542473               0.000519430               0.000068074               0.001491451               0.001559526               0.000000000               0.000000000               0.000000000               0.000000000               0.002298152               0.004737251               0.000437734               0.000269648               0.001489185               0.001758833               0.000000000               0.000000000               0.000000000               0.000000000               0.002969993               0.004877392               0.000327833               0.000504068               0.001457758               0.001961827               0.000000000               0.000000000               0.000000000               0.000000000               0.003720647               0.004956841               0.000182057               0.000775630               0.001393721               0.002169350               0.000000000               0.000000000               0.000000000               0.000000000               0.004280883               0.005039677               0.000110431               0.000975362               0.001354755               0.002330117               0.000000000               0.000000000               0.000000000               0.000000000              -0.012848621              -0.001209872              -0.000000000              -0.004666996               0.001152367              -0.003514629               0.000000000               0.000000000               0.000000000               0.000000000              -0.008773798              -0.000770255               0.000000000              -0.003193890               0.000807873              -0.002386017               0.000000000               0.000000000               0.000000000               0.000000000              -0.005538162              -0.000584847               0.000000000              -0.002003704               0.000472949              -0.001530755               0.000000000               0.000000000               0.000000000               0.000000000              -0.003778328               0.000106826              -0.000000000              -0.001430225               0.000512347              -0.000917878               0.000000000               0.000000000               0.000000000               0.000000000              -0.002681872               0.000877522               0.000000000              -0.001115391               0.000664300              -0.000451091               0.000000000               0.000000000               0.000000000               0.000000000              -0.001909708               0.001584348               0.000000000              -0.000914182               0.000832838              -0.000081345               0.000000000               0.000000000               0.000000000               0.000000000              -0.001289303               0.002191167               0.000000000              -0.000757383               0.000982842               0.000225460               0.000000000               0.000000000               0.000000000               0.000000000              -0.000742862               0.002709445              -0.000000000              -0.000617252               0.001108890               0.000491638               0.000000000               0.000000000               0.000000000               0.000000000              -0.000233472               0.003158796              -0.000000000              -0.000482400               0.001213721               0.000731321               0.000000000               0.000000000               0.000000000               0.000000000               0.000259505               0.003556813              -0.000000000              -0.000347287               0.001301355               0.000954068               0.000000000               0.000000000               0.000000000               0.000000000               0.000752528               0.003910072               0.000000000              -0.000206561               0.001372198               0.001165637               0.000000000               0.000000000               0.000000000               0.000000000               0.001261673               0.004216521               0.000000000              -0.000053938               0.001423472               0.001369534               0.000000000               0.000000000               0.000000000               0.000000000               0.001814544               0.004483100               0.000000000               0.000120065               0.001454330               0.001574395               0.000000000               0.000000000               0.000000000               0.000000000               0.002436009               0.004707562              -0.000000000               0.000325055               0.001460820               0.001785875               0.000000000               0.000000000               0.000000000               0.000000000               0.003146258               0.004869745               0.000000000               0.000571123               0.001432858               0.002003981               0.000000000               0.000000000               0.000000000               0.000000000               0.003971083               0.004958922               0.000000000               0.000869282               0.001363197               0.002232479               0.000000000               0.000000000               0.000000000               0.000000000               0.004604663               0.005050733              -0.000000000               0.001095396               0.001318429               0.002413825               0.000000000               0.000000000               0.000000000               0.000000000               0.001928430               0.020656112              -0.000000000              -0.001858848               0.007504918               0.005646070               0.000000000               0.000000000               0.000000000               0.000000000               0.001831577               0.015818618              -0.000000000              -0.001290483               0.005702981               0.004412498               0.000000000               0.000000000               0.000000000               0.000000000               0.002340629               0.011883771              -0.000000000              -0.000607734               0.004163795               0.003556061               0.000000000               0.000000000               0.000000000               0.000000000               0.002144971               0.009650729              -0.000000000              -0.000401976               0.003350870               0.002948894               0.000000000               0.000000000               0.000000000               0.000000000               0.001766303               0.008231959               0.000000000              -0.000366631               0.002866169               0.002499538               0.000000000               0.000000000               0.000000000               0.000000000               0.001375766               0.007229943               0.000000000              -0.000387830               0.002539234               0.002151404               0.000000000               0.000000000               0.000000000               0.000000000               0.001040971               0.006467311               0.000000000              -0.000418049               0.002295098               0.001877050               0.000000000               0.000000000               0.000000000               0.000000000               0.000764416               0.005829806              -0.000000000              -0.000442069               0.002090606               0.001648537               0.000000000               0.000000000               0.000000000               0.000000000               0.000536147               0.005254985              -0.000000000              -0.000455817               0.001903583               0.001447766               0.000000000               0.000000000               0.000000000               0.000000000               0.000349633               0.004712695              -0.000000000              -0.000457973               0.001723540               0.001265567               0.000000000               0.000000000               0.000000000               0.000000000               0.000189440               0.004181028              -0.000000000              -0.000451587               0.001544191               0.001092604               0.000000000               0.000000000               0.000000000               0.000000000               0.000058351               0.003645441              -0.000000000              -0.000433797               0.001359734               0.000925937               0.000000000               0.000000000               0.000000000               0.000000000              -0.000031843               0.003095081               0.000000000              -0.000398825               0.001164625               0.000765800               0.000000000               0.000000000               0.000000000               0.000000000              -0.000084525               0.002513294               0.000000000              -0.000345858               0.000953042               0.000607184               0.000000000               0.000000000               0.000000000               0.000000000              -0.000101132               0.001881979              -0.000000000              -0.000273171               0.000718377               0.000445206               0.000000000               0.000000000               0.000000000               0.000000000              -0.000067478               0.001179938              -0.000000000              -0.000172796               0.000450907               0.000278111               0.000000000               0.000000000               0.000000000               0.000000000              -0.000093457               0.000645152              -0.000000000              -0.000115690               0.000253612               0.000137921               0.000000000               0.000000000               0.000000000               0.000000000               0.001981742               0.020207440              -0.001360753              -0.001782773               0.007330004               0.005547231               0.000000000               0.000000000               0.000000000               0.000000000               0.001773134               0.015537974              -0.000603363              -0.001277318               0.005605046               0.004327727               0.000000000               0.000000000               0.000000000               0.000000000               0.002160526               0.011774599               0.000139044              -0.000661626               0.004145369               0.003483743               0.000000000               0.000000000               0.000000000               0.000000000               0.001916767               0.009631221               0.000438818              -0.000485114               0.003372080               0.002886965               0.000000000               0.000000000               0.000000000               0.000000000               0.001526278               0.008253699               0.000549096              -0.000459357               0.002904324               0.002444967               0.000000000               0.000000000               0.000000000               0.000000000               0.001147473               0.007272754               0.000578729              -0.000478791               0.002583824               0.002105033               0.000000000               0.000000000               0.000000000               0.000000000               0.000828779               0.006512260               0.000573082              -0.000503239               0.002338478               0.001835239               0.000000000               0.000000000               0.000000000               0.000000000               0.000572191               0.005873524               0.000546606              -0.000519618               0.002131028               0.001611410               0.000000000               0.000000000               0.000000000               0.000000000               0.000364384               0.005298132               0.000513941              -0.000525621               0.001941233               0.001415612               0.000000000               0.000000000               0.000000000               0.000000000               0.000194523               0.004756207               0.000480078              -0.000521579               0.001759246               0.001237667               0.000000000               0.000000000               0.000000000               0.000000000               0.000060817               0.004228201               0.000444197              -0.000505718               0.001577959               0.001072241               0.000000000               0.000000000               0.000000000               0.000000000              -0.000039102               0.003696753               0.000406974              -0.000476756               0.001391157               0.000914401               0.000000000               0.000000000               0.000000000               0.000000000              -0.000105101               0.003153308               0.000365316              -0.000433576               0.001195617               0.000762042               0.000000000               0.000000000               0.000000000               0.000000000              -0.000135864               0.002587236               0.000312342              -0.000374353               0.000987187               0.000612835               0.000000000               0.000000000               0.000000000               0.000000000              -0.000131217               0.001981916               0.000240591              -0.000296945               0.000759614               0.000462669               0.000000000               0.000000000               0.000000000               0.000000000              -0.000081694               0.001324940               0.000138433              -0.000196252               0.000507060               0.000310807               0.000000000               0.000000000               0.000000000               0.000000000              -0.000098003               0.000833988               0.000089320              -0.000141000               0.000324993               0.000183993               0.000000000               0.000000000               0.000000000               0.000000000               0.002099828               0.018922621              -0.002515325              -0.001577889               0.006833440               0.005255551               0.000000000               0.000000000               0.000000000               0.000000000               0.001579880               0.014738317              -0.001118676              -0.001249832               0.005329334               0.004079502               0.000000000               0.000000000               0.000000000               0.000000000               0.001633265               0.011459405               0.000238546              -0.000819949               0.004093080               0.003273130               0.000000000               0.000000000               0.000000000               0.000000000               0.001276747               0.009558923               0.000766810              -0.000716084               0.003424970               0.002708886               0.000000000               0.000000000               0.000000000               0.000000000               0.000876439               0.008299872               0.000954355              -0.000708818               0.003002869               0.002294051               0.000000000               0.000000000               0.000000000               0.000000000               0.000535735               0.007372690               0.000999972              -0.000720684               0.002697767               0.001977082               0.000000000               0.000000000               0.000000000               0.000000000               0.000267575               0.006625884               0.000984618              -0.000727893               0.002451237               0.001723344               0.000000000               0.000000000               0.000000000               0.000000000               0.000065488               0.005987239               0.000937301              -0.000723846               0.002237008               0.001513162               0.000000000               0.000000000               0.000000000               0.000000000              -0.000081318               0.005413192               0.000878684              -0.000707142               0.002040093               0.001332951               0.000000000               0.000000000               0.000000000               0.000000000              -0.000188427               0.004875964               0.000819014              -0.000680154               0.001852023               0.001171869               0.000000000               0.000000000               0.000000000               0.000000000              -0.000258560               0.004354725               0.000754496              -0.000641299               0.001665327               0.001024027               0.000000000               0.000000000               0.000000000               0.000000000              -0.000292560               0.003838627               0.000685137              -0.000589537               0.001476042               0.000886505               0.000000000               0.000000000               0.000000000               0.000000000              -0.000296255               0.003320943               0.000609794              -0.000526212               0.001282374               0.000756161               0.000000000               0.000000000               0.000000000               0.000000000              -0.000265334               0.002798852               0.000513994              -0.000449356               0.001082726               0.000633371               0.000000000               0.000000000               0.000000000               0.000000000              -0.000201349               0.002265818               0.000387425              -0.000358732               0.000874843               0.000516110               0.000000000               0.000000000               0.000000000               0.000000000              -0.000110449               0.001725164               0.000217221              -0.000257063               0.000660737               0.000403673               0.000000000               0.000000000               0.000000000               0.000000000              -0.000100316               0.001348258               0.000134660              -0.000206150               0.000518132               0.000311981               0.000000000               0.000000000               0.000000000               0.000000000               0.002188713               0.016982077              -0.003313384              -0.001301991               0.006094632               0.004792641               0.000000000               0.000000000               0.000000000               0.000000000               0.001233828               0.013539675              -0.001480205              -0.001229772               0.004923104               0.003693332               0.000000000               0.000000000               0.000000000               0.000000000               0.000825581               0.010984235               0.000279997              -0.001063434               0.004015853               0.002952419               0.000000000               0.000000000               0.000000000               0.000000000               0.000345905               0.009421337               0.000928731              -0.001047951               0.003489731               0.002441781               0.000000000               0.000000000               0.000000000               0.000000000              -0.000034218               0.008320526               0.001143295              -0.001052895               0.003124446               0.002071551               0.000000000               0.000000000               0.000000000               0.000000000              -0.000303321               0.007461875               0.001185842              -0.001046477               0.002836093               0.001789615               0.000000000               0.000000000               0.000000000               0.000000000              -0.000482902               0.006747556               0.001156798              -0.001024531               0.002590673               0.001566142               0.000000000               0.000000000               0.000000000               0.000000000              -0.000592683               0.006123008               0.001093642              -0.000987630               0.002370192               0.001382562               0.000000000               0.000000000               0.000000000               0.000000000              -0.000643838               0.005555504               0.001020610              -0.000935875               0.002163775               0.001227899               0.000000000               0.000000000               0.000000000               0.000000000              -0.000648348               0.005028238               0.000946086              -0.000871658               0.001966615               0.001094957               0.000000000               0.000000000               0.000000000               0.000000000              -0.000620499               0.004525173               0.000865630              -0.000798332               0.001774487               0.000976154               0.000000000               0.000000000               0.000000000               0.000000000              -0.000565716               0.004040011               0.000779763              -0.000717143               0.001585705               0.000868561               0.000000000               0.000000000               0.000000000               0.000000000              -0.000481583               0.003571311               0.000684718              -0.000627006               0.001399427               0.000772421               0.000000000               0.000000000               0.000000000               0.000000000              -0.000371445               0.003118485               0.000566283              -0.000529102               0.001215852               0.000686750               0.000000000               0.000000000               0.000000000               0.000000000              -0.000247790               0.002692775               0.000413827              -0.000429517               0.001040755               0.000611238               0.000000000               0.000000000               0.000000000               0.000000000              -0.000123386               0.002315212               0.000225690              -0.000335670               0.000883620               0.000547949               0.000000000               0.000000000               0.000000000               0.000000000              -0.000084756               0.002090208               0.000134120              -0.000293059               0.000794415               0.000501356               0.000000000               0.000000000               0.000000000               0.000000000               0.002122856               0.014637827              -0.003673986              -0.001033658               0.005223779               0.004190121               0.000000000               0.000000000               0.000000000               0.000000000               0.000722425               0.012109373              -0.001660930              -0.001242760               0.004450670               0.003207910               0.000000000               0.000000000               0.000000000               0.000000000              -0.000159292               0.010407098               0.000240459              -0.001360618               0.003922537               0.002561919               0.000000000               0.000000000               0.000000000               0.000000000              -0.000712842               0.009210967               0.000894622              -0.001418683               0.003543186               0.002124503               0.000000000               0.000000000               0.000000000               0.000000000              -0.001019428               0.008271845               0.001094772              -0.001416263               0.003229342               0.001813079               0.000000000               0.000000000               0.000000000               0.000000000              -0.001173668               0.007490165               0.001123671              -0.001376393               0.002955494               0.001579101               0.000000000               0.000000000               0.000000000               0.000000000              -0.001231878               0.006818193               0.001085656              -0.001314225               0.002710783               0.001396558               0.000000000               0.000000000               0.000000000               0.000000000              -0.001216696               0.006218492               0.001015249              -0.001233570               0.002484000               0.001250430               0.000000000               0.000000000               0.000000000               0.000000000              -0.001144833               0.005669143               0.000939464              -0.001137953               0.002269013               0.001131060               0.000000000               0.000000000               0.000000000               0.000000000              -0.001030769               0.005161612               0.000866639              -0.001031738               0.002064433               0.001032695               0.000000000               0.000000000               0.000000000               0.000000000              -0.000889181               0.004687307               0.000785582              -0.000919354               0.001868872               0.000949517               0.000000000               0.000000000               0.000000000               0.000000000              -0.000728555               0.004243993               0.000696111              -0.000803705               0.001682552               0.000878846               0.000000000               0.000000000               0.000000000               0.000000000              -0.000552888               0.003832738               0.000594190              -0.000686424               0.001506374               0.000819951               0.000000000               0.000000000               0.000000000               0.000000000              -0.000374594               0.003463526               0.000470280              -0.000573412               0.001345634               0.000772222               0.000000000               0.000000000               0.000000000               0.000000000              -0.000217223               0.003156320               0.000324213              -0.000475998               0.001210762               0.000734764               0.000000000               0.000000000               0.000000000               0.000000000              -0.000094876               0.002940167               0.000165662              -0.000403099               0.001114412               0.000711314               0.000000000               0.000000000               0.000000000               0.000000000              -0.000049494               0.002846043               0.000089269              -0.000374315               0.001073443               0.000699128               0.000000000               0.000000000               0.000000000               0.000000000               0.001787491               0.012122526              -0.003614188              -0.000845007               0.004322470               0.003477462               0.000000000               0.000000000               0.000000000               0.000000000               0.000046245               0.010600737              -0.001694476              -0.001307748               0.003969459               0.002661711               0.000000000               0.000000000               0.000000000               0.000000000              -0.001204708               0.009775676               0.000093151              -0.001673721               0.003816433               0.002142712               0.000000000               0.000000000               0.000000000               0.000000000              -0.001729055               0.008921409               0.000667409              -0.001763568               0.003561629               0.001798062               0.000000000               0.000000000               0.000000000               0.000000000              -0.001900765               0.008127827               0.000832391              -0.001728761               0.003285502               0.001556741               0.000000000               0.000000000               0.000000000               0.000000000              -0.001905126               0.007422676               0.000852515              -0.001642253               0.003021618               0.001379365               0.000000000               0.000000000               0.000000000               0.000000000              -0.001817080               0.006796946               0.000819400              -0.001531020               0.002775966               0.001244946               0.000000000               0.000000000               0.000000000               0.000000000              -0.001661695               0.006230174               0.000759469              -0.001401904               0.002544005               0.001142101               0.000000000               0.000000000               0.000000000               0.000000000              -0.001456543               0.005712239               0.000697615              -0.001260231               0.002324137               0.001063907               0.000000000               0.000000000               0.000000000               0.000000000              -0.001226728               0.005233745               0.000639205              -0.001114238               0.002115977               0.001001739               0.000000000               0.000000000               0.000000000               0.000000000              -0.000989184               0.004793446               0.000571152              -0.000970123               0.001921173               0.000951051               0.000000000               0.000000000               0.000000000               0.000000000              -0.000745478               0.004397284               0.000489812              -0.000829213               0.001742151               0.000912938               0.000000000               0.000000000               0.000000000               0.000000000              -0.000508568               0.004050188               0.000394312              -0.000696985               0.001582377               0.000885393               0.000000000               0.000000000               0.000000000               0.000000000              -0.000303042               0.003765414               0.000286207              -0.000584316               0.001449898               0.000865581               0.000000000               0.000000000               0.000000000               0.000000000              -0.000148089               0.003564130               0.000176377              -0.000501048               0.001355048               0.000853999               0.000000000               0.000000000               0.000000000               0.000000000              -0.000050978               0.003456071               0.000079319              -0.000451124               0.001302387               0.000851263               0.000000000               0.000000000               0.000000000               0.000000000              -0.000017133               0.003428717               0.000035398              -0.000435013               0.001287899               0.000852885               0.000000000               0.000000000               0.000000000               0.000000000               0.001127362               0.009641465              -0.003212706              -0.000782423               0.003474596               0.002692173               0.000000000               0.000000000               0.000000000               0.000000000              -0.000756691               0.009139202              -0.001631787              -0.001426157               0.003521755               0.002095598               0.000000000               0.000000000               0.000000000               0.000000000              -0.002198279               0.009121255              -0.000165395              -0.001964507               0.003695223               0.001730717               0.000000000               0.000000000               0.000000000               0.000000000              -0.002587989               0.008547627               0.000286140              -0.002038944               0.003528828               0.001489884               0.000000000               0.000000000               0.000000000               0.000000000              -0.002568633               0.007881928               0.000423920              -0.001948474               0.003276774               0.001328301               0.000000000               0.000000000               0.000000000               0.000000000              -0.002399113               0.007251739               0.000457959              -0.001806130               0.003019265               0.001213135               0.000000000               0.000000000               0.000000000               0.000000000              -0.002158182               0.006676759               0.000451265              -0.001643909               0.002773534               0.001129624               0.000000000               0.000000000               0.000000000               0.000000000              -0.001865671               0.006149960               0.000421804              -0.001468368               0.002539422               0.001071054               0.000000000               0.000000000               0.000000000               0.000000000              -0.001544176               0.005669359               0.000387028              -0.001287733               0.002319012               0.001031279               0.000000000               0.000000000               0.000000000               0.000000000              -0.001222718               0.005230377               0.000353314              -0.001112313               0.002114213               0.001001899               0.000000000               0.000000000               0.000000000               0.000000000              -0.000911723               0.004836898               0.000310371              -0.000946506               0.001927785               0.000981279               0.000000000               0.000000000               0.000000000               0.000000000              -0.000622861               0.004498534               0.000254918              -0.000795888               0.001764792               0.000968905               0.000000000               0.000000000               0.000000000               0.000000000              -0.000375256               0.004231419               0.000185874              -0.000669647               0.001633674               0.000964028               0.000000000               0.000000000               0.000000000               0.000000000              -0.000186701               0.004045524               0.000115838              -0.000575702               0.001540395               0.000964693               0.000000000               0.000000000               0.000000000               0.000000000              -0.000064821               0.003942941               0.000057027              -0.000517174               0.001486692               0.000969518               0.000000000               0.000000000               0.000000000               0.000000000              -0.000009048               0.003908138               0.000017973              -0.000491909               0.001466669               0.000974760               0.000000000               0.000000000               0.000000000               0.000000000               0.000005448               0.003915488               0.000003002              -0.000487392               0.001467613               0.000980222               0.000000000               0.000000000               0.000000000               0.000000000               0.000173329               0.007357036              -0.002560689              -0.000854631               0.002737197               0.001882566               0.000000000               0.000000000               0.000000000               0.000000000              -0.001643083               0.007809043              -0.001518330              -0.001592283               0.003133749               0.001541466               0.000000000               0.000000000               0.000000000               0.000000000              -0.003047438               0.008442864              -0.000524921              -0.002198142               0.003546974               0.001348832               0.000000000               0.000000000               0.000000000               0.000000000              -0.003207841               0.008087912              -0.000185482              -0.002213924               0.003433918               0.001219995               0.000000000               0.000000000               0.000000000               0.000000000              -0.002974856               0.007540441              -0.000043022              -0.002058121               0.003199495               0.001141375               0.000000000               0.000000000               0.000000000               0.000000000              -0.002631220               0.006985446               0.000029260              -0.001859884               0.002948420               0.001088536               0.000000000               0.000000000               0.000000000               0.000000000              -0.002245699               0.006466619               0.000067468              -0.001650460               0.002705671               0.001055211               0.000000000               0.000000000               0.000000000               0.000000000              -0.001837384               0.005984467               0.000083206              -0.001437074               0.002473827               0.001036753               0.000000000               0.000000000               0.000000000               0.000000000              -0.001426639               0.005550667               0.000087476              -0.001228820               0.002259810               0.001030991               0.000000000               0.000000000               0.000000000               0.000000000              -0.001038558               0.005164188               0.000087937              -0.001034980               0.002066372               0.001031392               0.000000000               0.000000000               0.000000000               0.000000000              -0.000686035               0.004833096               0.000080842              -0.000861398               0.001898149               0.001036751               0.000000000               0.000000000               0.000000000               0.000000000              -0.000388223               0.004575257               0.000066591              -0.000717489               0.001764233               0.001046744               0.000000000               0.000000000               0.000000000               0.000000000              -0.000162905               0.004406292               0.000045419              -0.000611874               0.001672707               0.001060833               0.000000000               0.000000000               0.000000000               0.000000000              -0.000018175               0.004328064               0.000021574              -0.000547822               0.001625281               0.001077459               0.000000000               0.000000000               0.000000000               0.000000000               0.000045331               0.004319931               0.000002364              -0.000522991               0.001614293               0.001091302               0.000000000               0.000000000               0.000000000               0.000000000               0.000043055               0.004360728              -0.000005098              -0.000528944               0.001629876               0.001100932               0.000000000               0.000000000               0.000000000               0.000000000               0.000029785               0.004405809              -0.000008038              -0.000539556               0.001648440               0.001108885               0.000000000               0.000000000               0.000000000               0.000000000              -0.000950155               0.005432166              -0.001769063              -0.001035327               0.002155812               0.001120485               0.000000000               0.000000000               0.000000000               0.000000000              -0.002506535               0.006619889              -0.001395751              -0.001767433               0.002795751               0.001028319               0.000000000               0.000000000               0.000000000               0.000000000              -0.003712353               0.007761679              -0.000957626              -0.002362337               0.003374646               0.001012309               0.000000000               0.000000000               0.000000000               0.000000000              -0.003623912               0.007640398              -0.000691445              -0.002314011               0.003318111               0.001004100               0.000000000               0.000000000               0.000000000               0.000000000              -0.003211256               0.007229335              -0.000518836              -0.002107882               0.003112382               0.001004499               0.000000000               0.000000000               0.000000000               0.000000000              -0.002726509               0.006770158              -0.000394522              -0.001868706               0.002879599               0.001010893               0.000000000               0.000000000               0.000000000               0.000000000              -0.002223994               0.006317704              -0.000299828              -0.001623707               0.002647116               0.001023409               0.000000000               0.000000000               0.000000000               0.000000000              -0.001725458               0.005887573              -0.000230801              -0.001382990               0.002423501               0.001040511               0.000000000               0.000000000               0.000000000               0.000000000              -0.001250978               0.005496835              -0.000180559              -0.001156218               0.002217666               0.001061448               0.000000000               0.000000000               0.000000000               0.000000000              -0.000813046               0.005156285              -0.000137830              -0.000949426               0.002035220               0.001085794               0.000000000               0.000000000               0.000000000               0.000000000              -0.000429356               0.004881393              -0.000097094              -0.000771181               0.001884175               0.001112994               0.000000000               0.000000000               0.000000000               0.000000000              -0.000130375               0.004685538              -0.000059381              -0.000634581               0.001773358               0.001138776               0.000000000               0.000000000               0.000000000               0.000000000               0.000069245               0.004577527              -0.000028689              -0.000546223               0.001707901               0.001161679               0.000000000               0.000000000               0.000000000               0.000000000               0.000179255               0.004556776              -0.000008205              -0.000502375               0.001686368               0.001183993               0.000000000               0.000000000               0.000000000               0.000000000               0.000213644               0.004609621               0.000001304              -0.000496085               0.001701887               0.001205802               0.000000000               0.000000000               0.000000000               0.000000000               0.000196322               0.004709370               0.000002676              -0.000515049               0.001741457               0.001226408               0.000000000               0.000000000               0.000000000               0.000000000               0.000172079               0.004776710               0.000001083              -0.000532558               0.001769740               0.001237182               0.000000000               0.000000000               0.000000000               0.000000000              -0.002248059               0.003654537              -0.000938394              -0.001299836               0.001651445               0.000351609               0.000000000               0.000000000               0.000000000               0.000000000              -0.003230005               0.005246151              -0.001260053              -0.001867016               0.002371038               0.000504022               0.000000000               0.000000000               0.000000000               0.000000000              -0.004112837               0.006752059              -0.001409483              -0.002386316               0.003046102               0.000659786               0.000000000               0.000000000               0.000000000               0.000000000              -0.003891909               0.006976995              -0.001228802              -0.002331585               0.003102837               0.000771252               0.000000000               0.000000000               0.000000000               0.000000000              -0.003399461               0.006814857              -0.001028297              -0.002126650               0.002980479               0.000853830               0.000000000               0.000000000               0.000000000               0.000000000              -0.002857901               0.006540345              -0.000856336              -0.001889251               0.002809844               0.000920592               0.000000000               0.000000000               0.000000000               0.000000000              -0.002321724               0.006228163              -0.000709120              -0.001649163               0.002625755               0.000976592               0.000000000               0.000000000               0.000000000               0.000000000              -0.001793788               0.005911175              -0.000586361              -0.001411564               0.002440893               0.001029329               0.000000000               0.000000000               0.000000000               0.000000000              -0.001293323               0.005601087              -0.000487343              -0.001185129               0.002262053               0.001076924               0.000000000               0.000000000               0.000000000               0.000000000              -0.000831872               0.005322658              -0.000398060              -0.000977282               0.002099962               0.001122680               0.000000000               0.000000000               0.000000000               0.000000000              -0.000423445               0.005084721              -0.000307464              -0.000794380               0.001959683               0.001165303               0.000000000               0.000000000               0.000000000               0.000000000              -0.000085134               0.004895844              -0.000218197              -0.000643904               0.001846567               0.001202662               0.000000000               0.000000000               0.000000000               0.000000000               0.000164445               0.004771801              -0.000137866              -0.000534807               0.001768853               0.001234046               0.000000000               0.000000000               0.000000000               0.000000000               0.000327408               0.004732787              -0.000070926              -0.000468819               0.001733853               0.001265034               0.000000000               0.000000000               0.000000000               0.000000000               0.000415625               0.004774640              -0.000025442              -0.000440969               0.001738520               0.001297551               0.000000000               0.000000000               0.000000000               0.000000000               0.000447869               0.004871793              -0.000004613              -0.000441022               0.001770922               0.001329900               0.000000000               0.000000000               0.000000000               0.000000000               0.000445347               0.004933356               0.000001458              -0.000449663               0.001794323               0.001344660               0.000000000               0.000000000               0.000000000               0.000000000              -0.003899371               0.002050951              -0.000133617              -0.001718630               0.001256519              -0.000462111               0.000000000               0.000000000               0.000000000               0.000000000              -0.004050620               0.003859554              -0.001069419              -0.002001422               0.001953645              -0.000047777               0.000000000               0.000000000               0.000000000               0.000000000              -0.004439500               0.005561026              -0.001773302              -0.002359935               0.002640302               0.000280366               0.000000000               0.000000000               0.000000000               0.000000000              -0.004101108               0.006118895              -0.001736770              -0.002302772               0.002807202               0.000504430               0.000000000               0.000000000               0.000000000               0.000000000              -0.003567725               0.006240495              -0.001546980              -0.002117954               0.002786129               0.000668175               0.000000000               0.000000000               0.000000000               0.000000000              -0.002994608               0.006179104              -0.001347367              -0.001895361               0.002691468               0.000796106               0.000000000               0.000000000               0.000000000               0.000000000              -0.002440199               0.006033160              -0.001163609              -0.001669216               0.002567438               0.000898222               0.000000000               0.000000000               0.000000000               0.000000000              -0.001903208               0.005849948              -0.000999460              -0.001444943               0.002431611               0.000986667               0.000000000               0.000000000               0.000000000               0.000000000              -0.001388303               0.005648344              -0.000854711              -0.001226654               0.002291647               0.001064993               0.000000000               0.000000000               0.000000000               0.000000000              -0.000902354               0.005447234              -0.000719873              -0.001019285               0.002155488               0.001136203               0.000000000               0.000000000               0.000000000               0.000000000              -0.000457553               0.005250562              -0.000589245              -0.000827901               0.002026137               0.001198236               0.000000000               0.000000000               0.000000000               0.000000000              -0.000058254               0.005070818              -0.000461990              -0.000655696               0.001908821               0.001253125               0.000000000               0.000000000               0.000000000               0.000000000               0.000270920               0.004927168              -0.000335360              -0.000514300               0.001813806               0.001299506               0.000000000               0.000000000               0.000000000               0.000000000               0.000514850               0.004850338              -0.000215220              -0.000413222               0.001754504               0.001341281               0.000000000               0.000000000               0.000000000               0.000000000               0.000671557               0.004847192              -0.000112491              -0.000354064               0.001733736               0.001379672               0.000000000               0.000000000               0.000000000               0.000000000               0.000748433               0.004905547              -0.000041983              -0.000332530               0.001746009               0.001413479               0.000000000               0.000000000               0.000000000               0.000000000               0.000761892               0.004946417              -0.000014720              -0.000332592               0.001759653               0.001427061               0.000000000               0.000000000               0.000000000               0.000000000              -0.005802973               0.000750541               0.000564551              -0.002269930               0.001006817              -0.001263113               0.000000000               0.000000000               0.000000000               0.000000000              -0.005014143               0.002554853              -0.000813933              -0.002199656               0.001584825              -0.000614831               0.000000000               0.000000000               0.000000000               0.000000000              -0.004721243               0.004206453              -0.001951673              -0.002296268               0.002167559              -0.000128710               0.000000000               0.000000000               0.000000000               0.000000000              -0.004179276               0.004996489              -0.002092614              -0.002191785               0.002396074               0.000204289               0.000000000               0.000000000               0.000000000               0.000000000              -0.003587703               0.005372698              -0.001960133              -0.002016972               0.002463204               0.000446233               0.000000000               0.000000000               0.000000000               0.000000000              -0.002998466               0.005531277              -0.001767608              -0.001815830               0.002449017               0.000633186               0.000000000               0.000000000               0.000000000               0.000000000              -0.002432325               0.005574503              -0.001572587              -0.001608931               0.002394459               0.000785528               0.000000000               0.000000000               0.000000000               0.000000000              -0.001895907               0.005550805              -0.001389415              -0.001404813               0.002318520               0.000913708               0.000000000               0.000000000               0.000000000               0.000000000              -0.001383434               0.005482818              -0.001221120              -0.001204137               0.002228967               0.001024829               0.000000000               0.000000000               0.000000000               0.000000000              -0.000887735               0.005386235              -0.001062447              -0.001006178               0.002130786               0.001124608               0.000000000               0.000000000               0.000000000               0.000000000              -0.000412683               0.005270141              -0.000911917              -0.000813522               0.002027870               0.001214348               0.000000000               0.000000000               0.000000000               0.000000000               0.000029173               0.005146743              -0.000760812              -0.000632402               0.001926364               0.001293963               0.000000000               0.000000000               0.000000000               0.000000000               0.000424550               0.005029867              -0.000598554              -0.000469526               0.001833114               0.001363588               0.000000000               0.000000000               0.000000000               0.000000000               0.000747246               0.004943662              -0.000430427              -0.000337740               0.001760451               0.001422711               0.000000000               0.000000000               0.000000000               0.000000000               0.000977346               0.004908213              -0.000265365              -0.000247021               0.001718395               0.001471374               0.000000000               0.000000000               0.000000000               0.000000000               0.001105303               0.004933789              -0.000119856              -0.000202234               0.001711992               0.001509757               0.000000000               0.000000000               0.000000000               0.000000000               0.001130135               0.004955523              -0.000051676              -0.000195639               0.001717038               0.001521398               0.000000000               0.000000000               0.000000000               0.000000000              -0.007819972              -0.000180475               0.001051136              -0.002909928               0.000909811              -0.002000117               0.000000000               0.000000000               0.000000000               0.000000000              -0.006055950               0.001398723              -0.000539217              -0.002445819               0.001281505              -0.001164314               0.000000000               0.000000000               0.000000000               0.000000000              -0.004970213               0.002795225              -0.001919887              -0.002213229               0.001669473              -0.000543757               0.000000000               0.000000000               0.000000000               0.000000000              -0.004147121               0.003694844              -0.002215291              -0.002017022               0.001903942              -0.000113080               0.000000000               0.000000000               0.000000000               0.000000000              -0.003456074               0.004268696              -0.002163643              -0.001829611               0.002032754               0.000203143               0.000000000               0.000000000               0.000000000               0.000000000              -0.002843398               0.004632897              -0.002007729              -0.001645383               0.002092744               0.000447361               0.000000000               0.000000000               0.000000000               0.000000000              -0.002278269               0.004865632              -0.001826522              -0.001462552               0.002109378               0.000646826               0.000000000               0.000000000               0.000000000               0.000000000              -0.001747310               0.005005965              -0.001648187              -0.001280985               0.002095633               0.000814648               0.000000000               0.000000000               0.000000000               0.000000000              -0.001240699               0.005081752              -0.001481686              -0.001100479               0.002060726               0.000960247               0.000000000               0.000000000               0.000000000               0.000000000              -0.000745718               0.005114295              -0.001327077              -0.000918929               0.002011057               0.001092128               0.000000000               0.000000000               0.000000000               0.000000000              -0.000256410               0.005110497              -0.001177715              -0.000734965               0.001948470               0.001213505               0.000000000               0.000000000               0.000000000               0.000000000               0.000216159               0.005077798              -0.001024090              -0.000553664               0.001877137               0.001323473               0.000000000               0.000000000               0.000000000               0.000000000               0.000665545               0.005031316              -0.000852564              -0.000379335               0.001803533               0.001424199               0.000000000               0.000000000               0.000000000               0.000000000               0.001069283               0.004985250              -0.000655651              -0.000222175               0.001735792               0.001513617               0.000000000               0.000000000               0.000000000               0.000000000               0.001397313               0.004954379              -0.000442002              -0.000095305               0.001683212               0.001587907               0.000000000               0.000000000               0.000000000               0.000000000               0.001624888               0.004962964              -0.000220706              -0.000011038               0.001657984               0.001646946               0.000000000               0.000000000               0.000000000               0.000000000               0.001710895               0.004978845              -0.000110003               0.000019230               0.001653188               0.001672418               0.000000000               0.000000000               0.000000000               0.000000000              -0.009748032              -0.000757455               0.001235475              -0.003560828               0.000934451              -0.002626377               0.000000000               0.000000000               0.000000000               0.000000000              -0.007074849               0.000458291              -0.000296435              -0.002710352               0.001056207              -0.001654145               0.000000000               0.000000000               0.000000000               0.000000000              -0.005189446               0.001470655              -0.001673994              -0.002129871               0.001200167              -0.000929705               0.000000000               0.000000000               0.000000000               0.000000000              -0.004047211               0.002366539              -0.002049889              -0.001813519               0.001393342              -0.000420177               0.000000000               0.000000000               0.000000000               0.000000000              -0.003224789               0.003066040              -0.002071934              -0.001592548               0.001552851              -0.000039697               0.000000000               0.000000000               0.000000000               0.000000000              -0.002564748               0.003595055              -0.001966369              -0.001411160               0.001668725               0.000257566               0.000000000               0.000000000               0.000000000               0.000000000              -0.001994588               0.003990206              -0.001818597              -0.001246744               0.001745636               0.000498892               0.000000000               0.000000000               0.000000000               0.000000000              -0.001471230               0.004279049              -0.001666246              -0.001086590               0.001788532               0.000701941               0.000000000               0.000000000               0.000000000               0.000000000              -0.000969587               0.004495197              -0.001522785              -0.000925493               0.001806881               0.000881388               0.000000000               0.000000000               0.000000000               0.000000000              -0.000475788               0.004661064              -0.001392121              -0.000761052               0.001807356               0.001046304               0.000000000               0.000000000               0.000000000               0.000000000               0.000018726               0.004776437              -0.001266870              -0.000590032               0.001788807               0.001198775               0.000000000               0.000000000               0.000000000               0.000000000               0.000517212               0.004854486              -0.001134654              -0.000412856               0.001755764               0.001342908               0.000000000               0.000000000               0.000000000               0.000000000               0.001010880               0.004904995              -0.000978185              -0.000234044               0.001712997               0.001478952               0.000000000               0.000000000               0.000000000               0.000000000               0.001490516               0.004934961              -0.000785833              -0.000057927               0.001664280               0.001606352               0.000000000               0.000000000               0.000000000               0.000000000               0.001936575               0.004954589              -0.000558533               0.000106891               0.001615883               0.001722774               0.000000000               0.000000000               0.000000000               0.000000000               0.002324451               0.004977900              -0.000295992               0.000249429               0.001576140               0.001825570               0.000000000               0.000000000               0.000000000               0.000000000               0.002542560               0.005008401              -0.000164666               0.000327407               0.001560315               0.001887721               0.000000000               0.000000000               0.000000000               0.000000000              -0.011368901              -0.001055054               0.001078049              -0.004131454               0.001025459              -0.003105994               0.000000000               0.000000000               0.000000000               0.000000000              -0.007952028              -0.000222492              -0.000125037              -0.002954197               0.000910562              -0.002043635               0.000000000               0.000000000               0.000000000               0.000000000              -0.005371093               0.000383769              -0.001235820              -0.002062129               0.000815293              -0.001246836               0.000000000               0.000000000               0.000000000               0.000000000              -0.003922261               0.001203031              -0.001584210              -0.001621225               0.000941411              -0.000679813               0.000000000               0.000000000               0.000000000               0.000000000              -0.002966571               0.001958816              -0.001641728              -0.001357314               0.001105369              -0.000251946               0.000000000               0.000000000               0.000000000               0.000000000              -0.002250164               0.002590963              -0.001582339              -0.001167680               0.001252871               0.000085192               0.000000000               0.000000000               0.000000000               0.000000000              -0.001659986               0.003105730              -0.001479927              -0.001010709               0.001372135               0.000361426               0.000000000               0.000000000               0.000000000               0.000000000              -0.001134838               0.003519397              -0.001370654              -0.000865488               0.001461616               0.000596128               0.000000000               0.000000000               0.000000000               0.000000000              -0.000635893               0.003855350              -0.001266466              -0.000720377               0.001525229               0.000804852               0.000000000               0.000000000               0.000000000               0.000000000              -0.000142492               0.004134502              -0.001173554              -0.000570246               0.001568235               0.000997989               0.000000000               0.000000000               0.000000000               0.000000000               0.000354110               0.004363715              -0.001086895              -0.000412673               0.001592115               0.001179442               0.000000000               0.000000000               0.000000000               0.000000000               0.000863731               0.004553344              -0.000992124              -0.000245269               0.001599522               0.001354254               0.000000000               0.000000000               0.000000000               0.000000000               0.001391109               0.004707944              -0.000874581              -0.000066828               0.001591575               0.001524747               0.000000000               0.000000000               0.000000000               0.000000000               0.001942071               0.004830579              -0.000722170               0.000124453               0.001568693               0.001693145               0.000000000               0.000000000               0.000000000               0.000000000               0.002512137               0.004916190              -0.000530463               0.000327524               0.001529539               0.001857063               0.000000000               0.000000000               0.000000000               0.000000000               0.003090484               0.004968968              -0.000290717               0.000537805               0.001477038               0.002014843               0.000000000               0.000000000               0.000000000               0.000000000               0.003484037               0.005027176              -0.000170944               0.000678110               0.001449672               0.002127782               0.000000000               0.000000000               0.000000000               0.000000000              -0.012462067              -0.001179814               0.000625088              -0.004525796               0.001115320              -0.003410476               0.000000000               0.000000000               0.000000000               0.000000000              -0.008556891              -0.000633989              -0.000035442              -0.003129583               0.000831859              -0.002297724               0.000000000               0.000000000               0.000000000               0.000000000              -0.005493971              -0.000332628              -0.000654820              -0.002018659               0.000562006              -0.001456653               0.000000000               0.000000000               0.000000000               0.000000000              -0.003818797               0.000397811              -0.000863259              -0.001481774               0.000626524              -0.000855250               0.000000000               0.000000000               0.000000000               0.000000000              -0.002762638               0.001163258              -0.000908332              -0.001181395               0.000781545              -0.000399850               0.000000000               0.000000000               0.000000000               0.000000000              -0.002004032               0.001853096              -0.000884119              -0.000983147               0.000945407              -0.000037739               0.000000000               0.000000000               0.000000000               0.000000000              -0.001390568               0.002442988              -0.000831403              -0.000826835               0.001089932               0.000263098               0.000000000               0.000000000               0.000000000               0.000000000              -0.000853007               0.002934530              -0.000773225              -0.000686692               0.001207064               0.000520372               0.000000000               0.000000000               0.000000000               0.000000000              -0.000350154               0.003350178              -0.000719196              -0.000550079               0.001300074               0.000749995               0.000000000               0.000000000               0.000000000               0.000000000               0.000143365               0.003713932              -0.000672070              -0.000410479               0.001374791               0.000964312               0.000000000               0.000000000               0.000000000               0.000000000               0.000638132               0.004032705              -0.000629063              -0.000264788               0.001432484               0.001167696               0.000000000               0.000000000               0.000000000               0.000000000               0.001149027               0.004307600              -0.000581154              -0.000107565               0.001471707               0.001364142               0.000000000               0.000000000               0.000000000               0.000000000               0.001695692               0.004542473              -0.000519430               0.000068074               0.001491451               0.001559526               0.000000000               0.000000000               0.000000000               0.000000000               0.002298152               0.004737251              -0.000437734               0.000269648               0.001489185               0.001758833               0.000000000               0.000000000               0.000000000               0.000000000               0.002969993               0.004877392              -0.000327833               0.000504068               0.001457758               0.001961827               0.000000000               0.000000000               0.000000000               0.000000000               0.003720647               0.004956841              -0.000182057               0.000775630               0.001393721               0.002169350               0.000000000               0.000000000               0.000000000               0.000000000               0.004280883               0.005039677              -0.000110431               0.000975362               0.001354755               0.002330117               0.000000000               0.000000000               0.000000000               0.000000000               0.000000000               0.000000000               0.000000000               0.000000000               0.000000000               0.000000000               0.000000000               0.000000000               0.000000000               0.000000000               0.000000000               0.000000000               0.000000000               0.000000000               0.000000000               0.000000000               0.000000000               0.000000000               0.000000000               0.000000000               0.000000000               0.000000000               0.000000000               0.000000000               0.000000000               0.000000000               0.000000000               0.000000000               0.000000000               0.000000000               0.000000000               0.000000000               0.000000000               0.000000000               0.000000000               0.000000000               0.000000000               0.000000000               0.000000000               0.000000000               0.000000000               0.000000000               0.000000000               0.000000000               0.000000000               0.000000000               0.000000000               0.000000000               0.000000000               0.000000000               0.000000000               0.000000000               0.000000000               0.000000000               0.000000000               0.000000000               0.000000000               0.000000000               0.000000000               0.000000000               0.000000000               0.000000000               0.000000000               0.000000000               0.000000000               0.000000000               0.000000000               0.000000000               0.000000000               0.000000000               0.000000000               0.000000000               0.000000000               0.000000000               0.000000000               0.000000000               0.000000000               0.000000000               0.000000000               0.000000000               0.000000000               0.000000000               0.000000000               0.000000000               0.000000000               0.000000000               0.000000000               0.000000000               0.000000000               0.000000000               0.000000000               0.000000000               0.000000000               0.000000000               0.000000000               0.000000000               0.000000000               0.000000000               0.000000000               0.000000000               0.000000000               0.000000000               0.000000000               0.000000000               0.000000000               0.000000000               0.000000000               0.000000000               0.000000000               0.000000000               0.000000000               0.000000000               0.000000000               0.000000000               0.000000000               0.000000000               0.000000000               0.000000000               0.000000000               0.000000000               0.000000000               0.000000000               0.000000000               0.000000000               0.000000000               0.000000000               0.000000000               0.000000000               0.000000000               0.000000000               0.000000000               0.000000000               0.000000000               0.000000000               0.000000000               0.000000000               0.000000000               0.000000000               0.000000000               0.000000000               0.000000000               0.000000000               0.000000000               0.000000000               0.000000000               0.000000000               0.000000000               0.000000000               0.000000000               0.000000000               0.000000000               0.000000000               0.000000000               0.000000000               0.000000000               0.000000000               0.000000000               0.000000000               0.000000000               0.000000000               0.000000000               0.000000000               0.000000000               0.000000000               0.000000000               0.000000000               0.000000000               0.000000000               0.000000000               0.000000000               0.000000000               0.000000000               0.000000000               0.000000000               0.000000000               0.000000000               0.000000000               0.000000000               0.000000000               0.000000000               0.000000000               0.000000000               0.000000000               0.000000000               0.000000000               0.000000000               0.000000000               0.000000000               0.000000000               0.000000000               0.000000000               0.000000000               0.000000000               0.000000000               0.000000000               0.000000000               0.000000000               0.000000000               0.000000000               0.000000000               0.000000000               0.000000000               0.000000000               0.000000000               0.000000000               0.000000000               0.000000000               0.000000000               0.000000000               0.000000000               0.000000000               0.000000000               0.000000000               0.000000000               0.000000000               0.000000000               0.000000000               0.000000000               0.000000000               0.000000000               0.000000000               0.000000000               0.000000000               0.000000000               0.000000000               0.000000000               0.000000000               0.000000000               0.000000000               0.000000000               0.000000000               0.000000000               0.000000000               0.000000000               0.000000000               0.000000000               0.000000000               0.000000000               0.000000000               0.000000000               0.000000000               0.000000000               0.000000000               0.000000000               0.000000000               0.000000000               0.000000000               0.000000000               0.000000000               0.000000000               0.000000000               0.000000000               0.000000000               0.000000000               0.000000000               0.000000000               0.000000000               0.000000000               0.000000000               0.000000000               0.000000000               0.000000000               0.000000000               0.000000000               0.000000000               0.000000000               0.000000000               0.000000000               0.000000000               0.000000000               0.000000000               0.000000000               0.000000000               0.000000000               0.000000000               0.000000000               0.000000000               0.000000000               0.000000000               0.000000000               0.000000000               0.000000000               0.000000000               0.000000000               0.000000000               0.000000000               0.000000000               0.000000000               0.000000000               0.000000000               0.000000000               0.000000000               0.000000000               0.000000000               0.000000000               0.000000000               0.000000000               0.000000000               0.000000000               0.000000000               0.000000000               0.000000000               0.000000000               0.000000000               0.000000000               0.000000000               0.000000000               0.000000000               0.000000000               0.000000000               0.000000000               0.000000000               0.000000000               0.000000000               0.000000000               0.000000000               0.000000000               0.000000000               0.000000000               0.000000000               0.000000000               0.000000000               0.000000000               0.000000000               0.000000000               0.000000000               0.000000000               0.000000000               0.000000000               0.000000000               0.000000000               0.000000000               0.000000000               0.000000000               0.000000000               0.000000000               0.000000000               0.000000000               0.000000000               0.000000000               0.001981742               0.020207440               0.001360753              -0.001782773               0.007330004               0.005547231               0.000000000               0.000000000               0.000000000               0.000000000               0.001773134               0.015537974               0.000603363              -0.001277318               0.005605046               0.004327727               0.000000000               0.000000000               0.000000000               0.000000000               0.002160526               0.011774599              -0.000139044              -0.000661626               0.004145369               0.003483743               0.000000000               0.000000000               0.000000000               0.000000000               0.001916767               0.009631221              -0.000438818              -0.000485114               0.003372080               0.002886965               0.000000000               0.000000000               0.000000000               0.000000000               0.001526278               0.008253699              -0.000549096              -0.000459357               0.002904324               0.002444967               0.000000000               0.000000000               0.000000000               0.000000000               0.001147473               0.007272754              -0.000578729              -0.000478791               0.002583824               0.002105033               0.000000000               0.000000000               0.000000000               0.000000000               0.000828779               0.006512260              -0.000573082              -0.000503239               0.002338478               0.001835239               0.000000000               0.000000000               0.000000000               0.000000000               0.000572191               0.005873524              -0.000546606              -0.000519618               0.002131028               0.001611410               0.000000000               0.000000000               0.000000000               0.000000000               0.000364384               0.005298132              -0.000513941              -0.000525621               0.001941233               0.001415612               0.000000000               0.000000000               0.000000000               0.000000000               0.000194523               0.004756207              -0.000480078              -0.000521579               0.001759246               0.001237667               0.000000000               0.000000000               0.000000000               0.000000000               0.000060817               0.004228201              -0.000444197              -0.000505718               0.001577959               0.001072241               0.000000000               0.000000000               0.000000000               0.000000000              -0.000039102               0.003696753              -0.000406974              -0.000476756               0.001391157               0.000914401               0.000000000               0.000000000               0.000000000               0.000000000              -0.000105101               0.003153308              -0.000365316              -0.000433576               0.001195617               0.000762042               0.000000000               0.000000000               0.000000000               0.000000000              -0.000135864               0.002587236              -0.000312342              -0.000374353               0.000987187               0.000612835               0.000000000               0.000000000               0.000000000               0.000000000              -0.000131217               0.001981916              -0.000240591              -0.000296945               0.000759614               0.000462669               0.000000000               0.000000000               0.000000000               0.000000000              -0.000081694               0.001324940              -0.000138433              -0.000196252               0.000507060               0.000310807               0.000000000               0.000000000               0.000000000               0.000000000              -0.000098003               0.000833988              -0.000089320              -0.000141000               0.000324993               0.000183993               0.000000000               0.000000000               0.000000000               0.000000000               0.002099828               0.018922621               0.002515325              -0.001577889               0.006833440               0.005255551               0.000000000               0.000000000               0.000000000               0.000000000               0.001579880               0.014738317               0.001118676              -0.001249832               0.005329334               0.004079502               0.000000000               0.000000000               0.000000000               0.000000000               0.001633265               0.011459405              -0.000238546              -0.000819949               0.004093080               0.003273130               0.000000000               0.000000000               0.000000000               0.000000000               0.001276747               0.009558923              -0.000766810              -0.000716084               0.003424970               0.002708886               0.000000000               0.000000000               0.000000000               0.000000000               0.000876439               0.008299872              -0.000954355              -0.000708818               0.003002869               0.002294051               0.000000000               0.000000000               0.000000000               0.000000000               0.000535735               0.007372690              -0.000999972              -0.000720684               0.002697767               0.001977082               0.000000000               0.000000000               0.000000000               0.000000000               0.000267575               0.006625884              -0.000984618              -0.000727893               0.002451237               0.001723344               0.000000000               0.000000000               0.000000000               0.000000000               0.000065488               0.005987239              -0.000937301              -0.000723846               0.002237008               0.001513162               0.000000000               0.000000000               0.000000000               0.000000000              -0.000081318               0.005413192              -0.000878684              -0.000707142               0.002040093               0.001332951               0.000000000               0.000000000               0.000000000               0.000000000              -0.000188427               0.004875964              -0.000819014              -0.000680154               0.001852023               0.001171869               0.000000000               0.000000000               0.000000000               0.000000000              -0.000258560               0.004354725              -0.000754496              -0.000641299               0.001665327               0.001024027               0.000000000               0.000000000               0.000000000               0.000000000              -0.000292560               0.003838627              -0.000685137              -0.000589537               0.001476042               0.000886505               0.000000000               0.000000000               0.000000000               0.000000000              -0.000296255               0.003320943              -0.000609794              -0.000526212               0.001282374               0.000756161               0.000000000               0.000000000               0.000000000               0.000000000              -0.000265334               0.002798852              -0.000513994              -0.000449356               0.001082726               0.000633371               0.000000000               0.000000000               0.000000000               0.000000000              -0.000201349               0.002265818              -0.000387425              -0.000358732               0.000874843               0.000516110               0.000000000               0.000000000               0.000000000               0.000000000              -0.000110449               0.001725164              -0.000217221              -0.000257063               0.000660737               0.000403673               0.000000000               0.000000000               0.000000000               0.000000000              -0.000100316               0.001348258              -0.000134660              -0.000206150               0.000518132               0.000311981               0.000000000               0.000000000               0.000000000               0.000000000               0.002188713               0.016982077               0.003313384              -0.001301991               0.006094632               0.004792641               0.000000000               0.000000000               0.000000000               0.000000000               0.001233828               0.013539675               0.001480205              -0.001229772               0.004923104               0.003693332               0.000000000               0.000000000               0.000000000               0.000000000               0.000825581               0.010984235              -0.000279997              -0.001063434               0.004015853               0.002952419               0.000000000               0.000000000               0.000000000               0.000000000               0.000345905               0.009421337              -0.000928731              -0.001047951               0.003489731               0.002441781               0.000000000               0.000000000               0.000000000               0.000000000              -0.000034218               0.008320526              -0.001143295              -0.001052895               0.003124446               0.002071551               0.000000000               0.000000000               0.000000000               0.000000000              -0.000303321               0.007461875              -0.001185842              -0.001046477               0.002836093               0.001789615               0.000000000               0.000000000               0.000000000               0.000000000              -0.000482902               0.006747556              -0.001156798              -0.001024531               0.002590673               0.001566142               0.000000000               0.000000000               0.000000000               0.000000000              -0.000592683               0.006123008              -0.001093642              -0.000987630               0.002370192               0.001382562               0.000000000               0.000000000               0.000000000               0.000000000              -0.000643838               0.005555504              -0.001020610              -0.000935875               0.002163775               0.001227899               0.000000000               0.000000000               0.000000000               0.000000000              -0.000648348               0.005028238              -0.000946086              -0.000871658               0.001966615               0.001094957               0.000000000               0.000000000               0.000000000               0.000000000              -0.000620499               0.004525173              -0.000865630              -0.000798332               0.001774487               0.000976154               0.000000000               0.000000000               0.000000000               0.000000000              -0.000565716               0.004040011              -0.000779763              -0.000717143               0.001585705               0.000868561               0.000000000               0.000000000               0.000000000               0.000000000              -0.000481583               0.003571311              -0.000684718              -0.000627006               0.001399427               0.000772421               0.000000000               0.000000000               0.000000000               0.000000000              -0.000371445               0.003118485              -0.000566283              -0.000529102               0.001215852               0.000686750               0.000000000               0.000000000               0.000000000               0.000000000              -0.000247790               0.002692775              -0.000413827              -0.000429517               0.001040755               0.000611238               0.000000000               0.000000000               0.000000000               0.000000000              -0.000123386               0.002315212              -0.000225690              -0.000335670               0.000883620               0.000547949               0.000000000               0.000000000               0.000000000               0.000000000              -0.000084756               0.002090208              -0.000134120              -0.000293059               0.000794415               0.000501356               0.000000000               0.000000000               0.000000000               0.000000000               0.002122856               0.014637827               0.003673986              -0.001033658               0.005223779               0.004190121               0.000000000               0.000000000               0.000000000               0.000000000               0.000722425               0.012109373               0.001660930              -0.001242760               0.004450670               0.003207910               0.000000000               0.000000000               0.000000000               0.000000000              -0.000159292               0.010407098              -0.000240459              -0.001360618               0.003922537               0.002561919               0.000000000               0.000000000               0.000000000               0.000000000              -0.000712842               0.009210967              -0.000894622              -0.001418683               0.003543186               0.002124503               0.000000000               0.000000000               0.000000000               0.000000000              -0.001019428               0.008271845              -0.001094772              -0.001416263               0.003229342               0.001813079               0.000000000               0.000000000               0.000000000               0.000000000              -0.001173668               0.007490165              -0.001123671              -0.001376393               0.002955494               0.001579101               0.000000000               0.000000000               0.000000000               0.000000000              -0.001231878               0.006818193              -0.001085656              -0.001314225               0.002710783               0.001396558               0.000000000               0.000000000               0.000000000               0.000000000              -0.001216696               0.006218492              -0.001015249              -0.001233570               0.002484000               0.001250430               0.000000000               0.000000000               0.000000000               0.000000000              -0.001144833               0.005669143              -0.000939464              -0.001137953               0.002269013               0.001131060               0.000000000               0.000000000               0.000000000               0.000000000              -0.001030769               0.005161612              -0.000866639              -0.001031738               0.002064433               0.001032695               0.000000000               0.000000000               0.000000000               0.000000000              -0.000889181               0.004687307              -0.000785582              -0.000919354               0.001868872               0.000949517               0.000000000               0.000000000               0.000000000               0.000000000              -0.000728555               0.004243993              -0.000696111              -0.000803705               0.001682552               0.000878846               0.000000000               0.000000000               0.000000000               0.000000000              -0.000552888               0.003832738              -0.000594190              -0.000686424               0.001506374               0.000819951               0.000000000               0.000000000               0.000000000               0.000000000              -0.000374594               0.003463526              -0.000470280              -0.000573412               0.001345634               0.000772222               0.000000000               0.000000000               0.000000000               0.000000000              -0.000217223               0.003156320              -0.000324213              -0.000475998               0.001210762               0.000734764               0.000000000               0.000000000               0.000000000               0.000000000              -0.000094876               0.002940167              -0.000165662              -0.000403099               0.001114412               0.000711314               0.000000000               0.000000000               0.000000000               0.000000000              -0.000049494               0.002846043              -0.000089269              -0.000374315               0.001073443               0.000699128               0.000000000               0.000000000               0.000000000               0.000000000               0.001787491               0.012122526               0.003614188              -0.000845007               0.004322470               0.003477462               0.000000000               0.000000000               0.000000000               0.000000000               0.000046245               0.010600737               0.001694476              -0.001307748               0.003969459               0.002661711               0.000000000               0.000000000               0.000000000               0.000000000              -0.001204708               0.009775676              -0.000093151              -0.001673721               0.003816433               0.002142712               0.000000000               0.000000000               0.000000000               0.000000000              -0.001729055               0.008921409              -0.000667409              -0.001763568               0.003561629               0.001798062               0.000000000               0.000000000               0.000000000               0.000000000              -0.001900765               0.008127827              -0.000832391              -0.001728761               0.003285502               0.001556741               0.000000000               0.000000000               0.000000000               0.000000000              -0.001905126               0.007422676              -0.000852515              -0.001642253               0.003021618               0.001379365               0.000000000               0.000000000               0.000000000               0.000000000              -0.001817080               0.006796946              -0.000819400              -0.001531020               0.002775966               0.001244946               0.000000000               0.000000000               0.000000000               0.000000000              -0.001661695               0.006230174              -0.000759469              -0.001401904               0.002544005               0.001142101               0.000000000               0.000000000               0.000000000               0.000000000              -0.001456543               0.005712239              -0.000697615              -0.001260231               0.002324137               0.001063907               0.000000000               0.000000000               0.000000000               0.000000000              -0.001226728               0.005233745              -0.000639205              -0.001114238               0.002115977               0.001001739               0.000000000               0.000000000               0.000000000               0.000000000              -0.000989184               0.004793446              -0.000571152              -0.000970123               0.001921173               0.000951051               0.000000000               0.000000000               0.000000000               0.000000000              -0.000745478               0.004397284              -0.000489812              -0.000829213               0.001742151               0.000912938               0.000000000               0.000000000               0.000000000               0.000000000              -0.000508568               0.004050188              -0.000394312              -0.000696985               0.001582377               0.000885393               0.000000000               0.000000000               0.000000000               0.000000000              -0.000303042               0.003765414              -0.000286207              -0.000584316               0.001449898               0.000865581               0.000000000               0.000000000               0.000000000               0.000000000              -0.000148089               0.003564130              -0.000176377              -0.000501048               0.001355048               0.000853999               0.000000000               0.000000000               0.000000000               0.000000000              -0.000050978               0.003456071              -0.000079319              -0.000451124               0.001302387               0.000851263               0.000000000               0.000000000               0.000000000               0.000000000              -0.000017133               0.003428717              -0.000035398              -0.000435013               0.001287899               0.000852885               0.000000000               0.000000000               0.000000000               0.000000000               0.001127362               0.009641465               0.003212706              -0.000782423               0.003474596               0.002692173               0.000000000               0.000000000               0.000000000               0.000000000              -0.000756691               0.009139202               0.001631787              -0.001426157               0.003521755               0.002095598               0.000000000               0.000000000               0.000000000               0.000000000              -0.002198279               0.009121255               0.000165395              -0.001964507               0.003695223               0.001730717               0.000000000               0.000000000               0.000000000               0.000000000              -0.002587989               0.008547627              -0.000286140              -0.002038944               0.003528828               0.001489884               0.000000000               0.000000000               0.000000000               0.000000000              -0.002568633               0.007881928              -0.000423920              -0.001948474               0.003276774               0.001328301               0.000000000               0.000000000               0.000000000               0.000000000              -0.002399113               0.007251739              -0.000457959              -0.001806130               0.003019265               0.001213135               0.000000000               0.000000000               0.000000000               0.000000000              -0.002158182               0.006676759              -0.000451265              -0.001643909               0.002773534               0.001129624               0.000000000               0.000000000               0.000000000               0.000000000              -0.001865671               0.006149960              -0.000421804              -0.001468368               0.002539422               0.001071054               0.000000000               0.000000000               0.000000000               0.000000000              -0.001544176               0.005669359              -0.000387028              -0.001287733               0.002319012               0.001031279               0.000000000               0.000000000               0.000000000               0.000000000              -0.001222718               0.005230377              -0.000353314              -0.001112313               0.002114213               0.001001899               0.000000000               0.000000000               0.000000000               0.000000000              -0.000911723               0.004836898              -0.000310371              -0.000946506               0.001927785               0.000981279               0.000000000               0.000000000               0.000000000               0.000000000              -0.000622861               0.004498534              -0.000254918              -0.000795888               0.001764792               0.000968905               0.000000000               0.000000000               0.000000000               0.000000000              -0.000375256               0.004231419              -0.000185874              -0.000669647               0.001633674               0.000964028               0.000000000               0.000000000               0.000000000               0.000000000              -0.000186701               0.004045524              -0.000115838              -0.000575702               0.001540395               0.000964693               0.000000000               0.000000000               0.000000000               0.000000000              -0.000064821               0.003942941              -0.000057027              -0.000517174               0.001486692               0.000969518               0.000000000               0.000000000               0.000000000               0.000000000              -0.000009048               0.003908138              -0.000017973              -0.000491909               0.001466669               0.000974760               0.000000000               0.000000000               0.000000000               0.000000000               0.000005448               0.003915488              -0.000003002              -0.000487392               0.001467613               0.000980222               0.000000000               0.000000000               0.000000000               0.000000000               0.000173329               0.007357036               0.002560689              -0.000854631               0.002737197               0.001882566               0.000000000               0.000000000               0.000000000               0.000000000              -0.001643083               0.007809043               0.001518330              -0.001592283               0.003133749               0.001541466               0.000000000               0.000000000               0.000000000               0.000000000              -0.003047438               0.008442864               0.000524921              -0.002198142               0.003546974               0.001348832               0.000000000               0.000000000               0.000000000               0.000000000              -0.003207841               0.008087912               0.000185482              -0.002213924               0.003433918               0.001219995               0.000000000               0.000000000               0.000000000               0.000000000              -0.002974856               0.007540441               0.000043022              -0.002058121               0.003199495               0.001141375               0.000000000               0.000000000               0.000000000               0.000000000              -0.002631220               0.006985446              -0.000029260              -0.001859884               0.002948420               0.001088536               0.000000000               0.000000000               0.000000000               0.000000000              -0.002245699               0.006466619              -0.000067468              -0.001650460               0.002705671               0.001055211               0.000000000               0.000000000               0.000000000               0.000000000              -0.001837384               0.005984467              -0.000083206              -0.001437074               0.002473827               0.001036753               0.000000000               0.000000000               0.000000000               0.000000000              -0.001426639               0.005550667              -0.000087476              -0.001228820               0.002259810               0.001030991               0.000000000               0.000000000               0.000000000               0.000000000              -0.001038558               0.005164188              -0.000087937              -0.001034980               0.002066372               0.001031392               0.000000000               0.000000000               0.000000000               0.000000000              -0.000686035               0.004833096              -0.000080842              -0.000861398               0.001898149               0.001036751               0.000000000               0.000000000               0.000000000               0.000000000              -0.000388223               0.004575257              -0.000066591              -0.000717489               0.001764233               0.001046744               0.000000000               0.000000000               0.000000000               0.000000000              -0.000162905               0.004406292              -0.000045419              -0.000611874               0.001672707               0.001060833               0.000000000               0.000000000               0.000000000               0.000000000              -0.000018175               0.004328064              -0.000021574              -0.000547822               0.001625281               0.001077459               0.000000000               0.000000000               0.000000000               0.000000000               0.000045331               0.004319931              -0.000002364              -0.000522991               0.001614293               0.001091302               0.000000000               0.000000000               0.000000000               0.000000000               0.000043055               0.004360728               0.000005098              -0.000528944               0.001629876               0.001100932               0.000000000               0.000000000               0.000000000               0.000000000               0.000029785               0.004405809               0.000008038              -0.000539556               0.001648440               0.001108885               0.000000000               0.000000000               0.000000000               0.000000000              -0.000950155               0.005432166               0.001769063              -0.001035327               0.002155812               0.001120485               0.000000000               0.000000000               0.000000000               0.000000000              -0.002506535               0.006619889               0.001395751              -0.001767433               0.002795751               0.001028319               0.000000000               0.000000000               0.000000000               0.000000000              -0.003712353               0.007761679               0.000957626              -0.002362337               0.003374646               0.001012309               0.000000000               0.000000000               0.000000000               0.000000000              -0.003623912               0.007640398               0.000691445              -0.002314011               0.003318111               0.001004100               0.000000000               0.000000000               0.000000000               0.000000000              -0.003211256               0.007229335               0.000518836              -0.002107882               0.003112382               0.001004499               0.000000000               0.000000000               0.000000000               0.000000000              -0.002726509               0.006770158               0.000394522              -0.001868706               0.002879599               0.001010893               0.000000000               0.000000000               0.000000000               0.000000000              -0.002223994               0.006317704               0.000299828              -0.001623707               0.002647116               0.001023409               0.000000000               0.000000000               0.000000000               0.000000000              -0.001725458               0.005887573               0.000230801              -0.001382990               0.002423501               0.001040511               0.000000000               0.000000000               0.000000000               0.000000000              -0.001250978               0.005496835               0.000180559              -0.001156218               0.002217666               0.001061448               0.000000000               0.000000000               0.000000000               0.000000000              -0.000813046               0.005156285               0.000137830              -0.000949426               0.002035220               0.001085794               0.000000000               0.000000000               0.000000000               0.000000000              -0.000429356               0.004881393               0.000097094              -0.000771181               0.001884175               0.001112994               0.000000000               0.000000000               0.000000000               0.000000000              -0.000130375               0.004685538               0.000059381              -0.000634581               0.001773358               0.001138776               0.000000000               0.000000000               0.000000000               0.000000000               0.000069245               0.004577527               0.000028689              -0.000546223               0.001707901               0.001161679               0.000000000               0.000000000               0.000000000               0.000000000               0.000179255               0.004556776               0.000008205              -0.000502375               0.001686368               0.001183993               0.000000000               0.000000000               0.000000000               0.000000000               0.000213644               0.004609621              -0.000001304              -0.000496085               0.001701887               0.001205802               0.000000000               0.000000000               0.000000000               0.000000000               0.000196322               0.004709370              -0.000002676              -0.000515049               0.001741457               0.001226408               0.000000000               0.000000000               0.000000000               0.000000000               0.000172079               0.004776710              -0.000001083              -0.000532558               0.001769740               0.001237182               0.000000000               0.000000000               0.000000000               0.000000000              -0.002248059               0.003654537               0.000938394              -0.001299836               0.001651445               0.000351609               0.000000000               0.000000000               0.000000000               0.000000000              -0.003230005               0.005246151               0.001260053              -0.001867016               0.002371038               0.000504022               0.000000000               0.000000000               0.000000000               0.000000000              -0.004112837               0.006752059               0.001409483              -0.002386316               0.003046102               0.000659786               0.000000000               0.000000000               0.000000000               0.000000000              -0.003891909               0.006976995               0.001228802              -0.002331585               0.003102837               0.000771252               0.000000000               0.000000000               0.000000000               0.000000000              -0.003399461               0.006814857               0.001028297              -0.002126650               0.002980479               0.000853830               0.000000000               0.000000000               0.000000000               0.000000000              -0.002857901               0.006540345               0.000856336              -0.001889251               0.002809844               0.000920592               0.000000000               0.000000000               0.000000000               0.000000000              -0.002321724               0.006228163               0.000709120              -0.001649163               0.002625755               0.000976592               0.000000000               0.000000000               0.000000000               0.000000000              -0.001793788               0.005911175               0.000586361              -0.001411564               0.002440893               0.001029329               0.000000000               0.000000000               0.000000000               0.000000000              -0.001293323               0.005601087               0.000487343              -0.001185129               0.002262053               0.001076924               0.000000000               0.000000000               0.000000000               0.000000000              -0.000831872               0.005322658               0.000398060              -0.000977282               0.002099962               0.001122680               0.000000000               0.000000000               0.000000000               0.000000000              -0.000423445               0.005084721               0.000307464              -0.000794380               0.001959683               0.001165303               0.000000000               0.000000000               0.000000000               0.000000000              -0.000085134               0.004895844               0.000218197              -0.000643904               0.001846567               0.001202662               0.000000000               0.000000000               0.000000000               0.000000000               0.000164445               0.004771801               0.000137866              -0.000534807               0.001768853               0.001234046               0.000000000               0.000000000               0.000000000               0.000000000               0.000327408               0.004732787               0.000070926              -0.000468819               0.001733853               0.001265034               0.000000000               0.000000000               0.000000000               0.000000000               0.000415625               0.004774640               0.000025442              -0.000440969               0.001738520               0.001297551               0.000000000               0.000000000               0.000000000               0.000000000               0.000447869               0.004871793               0.000004613              -0.000441022               0.001770922               0.001329900               0.000000000               0.000000000               0.000000000               0.000000000               0.000445347               0.004933356              -0.000001458              -0.000449663               0.001794323               0.001344660               0.000000000               0.000000000               0.000000000               0.000000000              -0.003899371               0.002050951               0.000133617              -0.001718630               0.001256519              -0.000462111               0.000000000               0.000000000               0.000000000               0.000000000              -0.004050620               0.003859554               0.001069419              -0.002001422               0.001953645              -0.000047777               0.000000000               0.000000000               0.000000000               0.000000000              -0.004439500               0.005561026               0.001773302              -0.002359935               0.002640302               0.000280366               0.000000000               0.000000000               0.000000000               0.000000000              -0.004101108               0.006118895               0.001736770              -0.002302772               0.002807202               0.000504430               0.000000000               0.000000000               0.000000000               0.000000000              -0.003567725               0.006240495               0.001546980              -0.002117954               0.002786129               0.000668175               0.000000000               0.000000000               0.000000000               0.000000000              -0.002994608               0.006179104               0.001347367              -0.001895361               0.002691468               0.000796106               0.000000000               0.000000000               0.000000000               0.000000000              -0.002440199               0.006033160               0.001163609              -0.001669216               0.002567438               0.000898222               0.000000000               0.000000000               0.000000000               0.000000000              -0.001903208               0.005849948               0.000999460              -0.001444943               0.002431611               0.000986667               0.000000000               0.000000000               0.000000000               0.000000000              -0.001388303               0.005648344               0.000854711              -0.001226654               0.002291647               0.001064993               0.000000000               0.000000000               0.000000000               0.000000000              -0.000902354               0.005447234               0.000719873              -0.001019285               0.002155488               0.001136203               0.000000000               0.000000000               0.000000000               0.000000000              -0.000457553               0.005250562               0.000589245              -0.000827901               0.002026137               0.001198236               0.000000000               0.000000000               0.000000000               0.000000000              -0.000058254               0.005070818               0.000461990              -0.000655696               0.001908821               0.001253125               0.000000000               0.000000000               0.000000000               0.000000000               0.000270920               0.004927168               0.000335360              -0.000514300               0.001813806               0.001299506               0.000000000               0.000000000               0.000000000               0.000000000               0.000514850               0.004850338               0.000215220              -0.000413222               0.001754504               0.001341281               0.000000000               0.000000000               0.000000000               0.000000000               0.000671557               0.004847192               0.000112491              -0.000354064               0.001733736               0.001379672               0.000000000               0.000000000               0.000000000               0.000000000               0.000748433               0.004905547               0.000041983              -0.000332530               0.001746009               0.001413479               0.000000000               0.000000000               0.000000000               0.000000000               0.000761892               0.004946417               0.000014720              -0.000332592               0.001759653               0.001427061               0.000000000               0.000000000               0.000000000               0.000000000              -0.005802973               0.000750541              -0.000564551              -0.002269930               0.001006817              -0.001263113               0.000000000               0.000000000               0.000000000               0.000000000              -0.005014143               0.002554853               0.000813933              -0.002199656               0.001584825              -0.000614831               0.000000000               0.000000000               0.000000000               0.000000000              -0.004721243               0.004206453               0.001951673              -0.002296268               0.002167559              -0.000128710               0.000000000               0.000000000               0.000000000               0.000000000              -0.004179276               0.004996489               0.002092614              -0.002191785               0.002396074               0.000204289               0.000000000               0.000000000               0.000000000               0.000000000              -0.003587703               0.005372698               0.001960133              -0.002016972               0.002463204               0.000446233               0.000000000               0.000000000               0.000000000               0.000000000              -0.002998466               0.005531277               0.001767608              -0.001815830               0.002449017               0.000633186               0.000000000               0.000000000               0.000000000               0.000000000              -0.002432325               0.005574503               0.001572587              -0.001608931               0.002394459               0.000785528               0.000000000               0.000000000               0.000000000               0.000000000              -0.001895907               0.005550805               0.001389415              -0.001404813               0.002318520               0.000913708               0.000000000               0.000000000               0.000000000               0.000000000              -0.001383434               0.005482818               0.001221120              -0.001204137               0.002228967               0.001024829               0.000000000               0.000000000               0.000000000               0.000000000              -0.000887735               0.005386235               0.001062447              -0.001006178               0.002130786               0.001124608               0.000000000               0.000000000               0.000000000               0.000000000              -0.000412683               0.005270141               0.000911917              -0.000813522               0.002027870               0.001214348               0.000000000               0.000000000               0.000000000               0.000000000               0.000029173               0.005146743               0.000760812              -0.000632402               0.001926364               0.001293963               0.000000000               0.000000000               0.000000000               0.000000000               0.000424550               0.005029867               0.000598554              -0.000469526               0.001833114               0.001363588               0.000000000               0.000000000               0.000000000               0.000000000               0.000747246               0.004943662               0.000430427              -0.000337740               0.001760451               0.001422711               0.000000000               0.000000000               0.000000000               0.000000000               0.000977346               0.004908213               0.000265365              -0.000247021               0.001718395               0.001471374               0.000000000               0.000000000               0.000000000               0.000000000               0.001105303               0.004933789               0.000119856              -0.000202234               0.001711992               0.001509757               0.000000000               0.000000000               0.000000000               0.000000000               0.001130135               0.004955523               0.000051676              -0.000195639               0.001717038               0.001521398               0.000000000               0.000000000               0.000000000               0.000000000              -0.007819972              -0.000180475              -0.001051136              -0.002909928               0.000909811              -0.002000117               0.000000000               0.000000000               0.000000000               0.000000000              -0.006055950               0.001398723               0.000539217              -0.002445819               0.001281505              -0.001164314               0.000000000               0.000000000               0.000000000               0.000000000              -0.004970213               0.002795225               0.001919887              -0.002213229               0.001669473              -0.000543757               0.000000000               0.000000000               0.000000000               0.000000000              -0.004147121               0.003694844               0.002215291              -0.002017022               0.001903942              -0.000113080               0.000000000               0.000000000               0.000000000               0.000000000              -0.003456074               0.004268696               0.002163643              -0.001829611               0.002032754               0.000203143               0.000000000               0.000000000               0.000000000               0.000000000              -0.002843398               0.004632897               0.002007729              -0.001645383               0.002092744               0.000447361               0.000000000               0.000000000               0.000000000               0.000000000              -0.002278269               0.004865632               0.001826522              -0.001462552               0.002109378               0.000646826               0.000000000               0.000000000               0.000000000               0.000000000              -0.001747310               0.005005965               0.001648187              -0.001280985               0.002095633               0.000814648               0.000000000               0.000000000               0.000000000               0.000000000              -0.001240699               0.005081752               0.001481686              -0.001100479               0.002060726               0.000960247               0.000000000               0.000000000               0.000000000               0.000000000              -0.000745718               0.005114295               0.001327077              -0.000918929               0.002011057               0.001092128               0.000000000               0.000000000               0.000000000               0.000000000              -0.000256410               0.005110497               0.001177715              -0.000734965               0.001948470               0.001213505               0.000000000               0.000000000               0.000000000               0.000000000               0.000216159               0.005077798               0.001024090              -0.000553664               0.001877137               0.001323473               0.000000000               0.000000000               0.000000000               0.000000000               0.000665545               0.005031316               0.000852564              -0.000379335               0.001803533               0.001424199               0.000000000               0.000000000               0.000000000               0.000000000               0.001069283               0.004985250               0.000655651              -0.000222175               0.001735792               0.001513617               0.000000000               0.000000000               0.000000000               0.000000000               0.001397313               0.004954379               0.000442002              -0.000095305               0.001683212               0.001587907               0.000000000               0.000000000               0.000000000               0.000000000               0.001624888               0.004962964               0.000220706              -0.000011038               0.001657984               0.001646946               0.000000000               0.000000000               0.000000000               0.000000000               0.001710895               0.004978845               0.000110003               0.000019230               0.001653188               0.001672418               0.000000000               0.000000000               0.000000000               0.000000000              -0.009748032              -0.000757455              -0.001235475              -0.003560828               0.000934451              -0.002626377               0.000000000               0.000000000               0.000000000               0.000000000              -0.007074849               0.000458291               0.000296435              -0.002710352               0.001056207              -0.001654145               0.000000000               0.000000000               0.000000000               0.000000000              -0.005189446               0.001470655               0.001673994              -0.002129871               0.001200167              -0.000929705               0.000000000               0.000000000               0.000000000               0.000000000              -0.004047211               0.002366539               0.002049889              -0.001813519               0.001393342              -0.000420177               0.000000000               0.000000000               0.000000000               0.000000000              -0.003224789               0.003066040               0.002071934              -0.001592548               0.001552851              -0.000039697               0.000000000               0.000000000               0.000000000               0.000000000              -0.002564748               0.003595055               0.001966369              -0.001411160               0.001668725               0.000257566               0.000000000               0.000000000               0.000000000               0.000000000              -0.001994588               0.003990206               0.001818597              -0.001246744               0.001745636               0.000498892               0.000000000               0.000000000               0.000000000               0.000000000              -0.001471230               0.004279049               0.001666246              -0.001086590               0.001788532               0.000701941               0.000000000               0.000000000               0.000000000               0.000000000              -0.000969587               0.004495197               0.001522785              -0.000925493               0.001806881               0.000881388               0.000000000               0.000000000               0.000000000               0.000000000              -0.000475788               0.004661064               0.001392121              -0.000761052               0.001807356               0.001046304               0.000000000               0.000000000               0.000000000               0.000000000               0.000018726               0.004776437               0.001266870              -0.000590032               0.001788807               0.001198775               0.000000000               0.000000000               0.000000000               0.000000000               0.000517212               0.004854486               0.001134654              -0.000412856               0.001755764               0.001342908               0.000000000               0.000000000               0.000000000               0.000000000               0.001010880               0.004904995               0.000978185              -0.000234044               0.001712997               0.001478952               0.000000000               0.000000000               0.000000000               0.000000000               0.001490516               0.004934961               0.000785833              -0.000057927               0.001664280               0.001606352               0.000000000               0.000000000               0.000000000               0.000000000               0.001936575               0.004954589               0.000558533               0.000106891               0.001615883               0.001722774               0.000000000               0.000000000               0.000000000               0.000000000               0.002324451               0.004977900               0.000295992               0.000249429               0.001576140               0.001825570               0.000000000               0.000000000               0.000000000               0.000000000               0.002542560               0.005008401               0.000164666               0.000327407               0.001560315               0.001887721               0.000000000               0.000000000               0.000000000               0.000000000              -0.011368901              -0.001055054              -0.001078049              -0.004131454               0.001025459              -0.003105994               0.000000000               0.000000000               0.000000000               0.000000000              -0.007952028              -0.000222492               0.000125037              -0.002954197               0.000910562              -0.002043635               0.000000000               0.000000000               0.000000000               0.000000000              -0.005371093               0.000383769               0.001235820              -0.002062129               0.000815293              -0.001246836               0.000000000               0.000000000               0.000000000               0.000000000              -0.003922261               0.001203031               0.001584210              -0.001621225               0.000941411              -0.000679813               0.000000000               0.000000000               0.000000000               0.000000000              -0.002966571               0.001958816               0.001641728              -0.001357314               0.001105369              -0.000251946               0.000000000               0.000000000               0.000000000               0.000000000              -0.002250164               0.002590963               0.001582339              -0.001167680               0.001252871               0.000085192               0.000000000               0.000000000               0.000000000               0.000000000              -0.001659986               0.003105730               0.001479927              -0.001010709               0.001372135               0.000361426               0.000000000               0.000000000               0.000000000               0.000000000              -0.001134838               0.003519397               0.001370654              -0.000865488               0.001461616               0.000596128               0.000000000               0.000000000               0.000000000               0.000000000              -0.000635893               0.003855350               0.001266466              -0.000720377               0.001525229               0.000804852               0.000000000               0.000000000               0.000000000               0.000000000              -0.000142492               0.004134502               0.001173554              -0.000570246               0.001568235               0.000997989               0.000000000               0.000000000               0.000000000               0.000000000               0.000354110               0.004363715               0.001086895              -0.000412673               0.001592115               0.001179442               0.000000000               0.000000000               0.000000000               0.000000000               0.000863731               0.004553344               0.000992124              -0.000245269               0.001599522               0.001354254               0.000000000               0.000000000               0.000000000               0.000000000               0.001391109               0.004707944               0.000874581              -0.000066828               0.001591575               0.001524747               0.000000000               0.000000000               0.000000000               0.000000000               0.001942071               0.004830579               0.000722170               0.000124453               0.001568693               0.001693145               0.000000000               0.000000000               0.000000000               0.000000000               0.002512137               0.004916190               0.000530463               0.000327524               0.001529539               0.001857063               0.000000000               0.000000000               0.000000000               0.000000000               0.003090484               0.004968968               0.000290717               0.000537805               0.001477038               0.002014843               0.000000000               0.000000000               0.000000000               0.000000000               0.003484037               0.005027176               0.000170944               0.000678110               0.001449672               0.002127782               0.000000000               0.000000000               0.000000000               0.000000000              -0.012462067              -0.001179814              -0.000625088              -0.004525796               0.001115320              -0.003410476               0.000000000               0.000000000               0.000000000               0.000000000              -0.008556891              -0.000633989               0.000035442              -0.003129583               0.000831859              -0.002297724               0.000000000               0.000000000               0.000000000               0.000000000              -0.005493971              -0.000332628               0.000654820              -0.002018659               0.000562006              -0.001456653               0.000000000               0.000000000               0.000000000               0.000000000              -0.003818797               0.000397811               0.000863259              -0.001481774               0.000626524              -0.000855250               0.000000000               0.000000000               0.000000000               0.000000000              -0.002762638               0.001163258               0.000908332              -0.001181395               0.000781545              -0.000399850               0.000000000               0.000000000               0.000000000               0.000000000              -0.002004032               0.001853096               0.000884119              -0.000983147               0.000945407              -0.000037739               0.000000000               0.000000000               0.000000000               0.000000000              -0.001390568               0.002442988               0.000831403              -0.000826835               0.001089932               0.000263098               0.000000000               0.000000000               0.000000000               0.000000000              -0.000853007               0.002934530               0.000773225              -0.000686692               0.001207064               0.000520372               0.000000000               0.000000000               0.000000000               0.000000000              -0.000350154               0.003350178               0.000719196              -0.000550079               0.001300074               0.000749995               0.000000000               0.000000000               0.000000000               0.000000000               0.000143365               0.003713932               0.000672070              -0.000410479               0.001374791               0.000964312               0.000000000               0.000000000               0.000000000               0.000000000               0.000638132               0.004032705               0.000629063              -0.000264788               0.001432484               0.001167696               0.000000000               0.000000000               0.000000000               0.000000000               0.001149027               0.004307600               0.000581154              -0.000107565               0.001471707               0.001364142               0.000000000               0.000000000               0.000000000               0.000000000               0.001695692               0.004542473               0.000519430               0.000068074               0.001491451               0.001559526               0.000000000               0.000000000               0.000000000               0.000000000               0.002298152               0.004737251               0.000437734               0.000269648               0.001489185               0.001758833               0.000000000               0.000000000               0.000000000               0.000000000               0.002969993               0.004877392               0.000327833               0.000504068               0.001457758               0.001961827               0.000000000               0.000000000               0.000000000               0.000000000               0.003720647               0.004956841               0.000182057               0.000775630               0.001393721               0.002169350               0.000000000               0.000000000               0.000000000               0.000000000               0.004280883               0.005039677               0.000110431               0.000975362               0.001354755               0.002330117               0.000000000               0.000000000               0.000000000               0.000000000               0.000000000               0.000000000               0.000000000               0.000000000               0.000000000               0.000000000               0.000000000               0.000000000               0.000000000               0.000000000               0.000000000               0.000000000               0.000000000               0.000000000               0.000000000               0.000000000               0.000000000               0.000000000               0.000000000               0.000000000               0.000000000               0.000000000               0.000000000               0.000000000               0.000000000               0.000000000               0.000000000               0.000000000               0.000000000               0.000000000               0.000000000               0.000000000               0.000000000               0.000000000               0.000000000               0.000000000               0.000000000               0.000000000               0.000000000               0.000000000               0.000000000               0.000000000               0.000000000               0.000000000               0.000000000               0.000000000               0.000000000               0.000000000               0.000000000               0.000000000               0.000000000               0.000000000               0.000000000               0.000000000               0.000000000               0.000000000               0.000000000               0.000000000               0.000000000               0.000000000               0.000000000               0.000000000               0.000000000               0.000000000               0.000000000               0.000000000               0.000000000               0.000000000               0.000000000               0.000000000               0.000000000               0.000000000               0.000000000               0.000000000               0.000000000               0.000000000               0.000000000               0.000000000               0.000000000               0.000000000               0.000000000               0.000000000               0.000000000               0.000000000               0.000000000               0.000000000               0.000000000               0.000000000               0.000000000               0.000000000               0.000000000               0.000000000               0.000000000               0.000000000               0.000000000               0.000000000               0.000000000               0.000000000               0.000000000               0.000000000               0.000000000               0.000000000               0.000000000               0.000000000               0.000000000               0.000000000               0.000000000               0.000000000               0.000000000               0.000000000               0.000000000               0.000000000               0.000000000               0.000000000               0.000000000               0.000000000               0.000000000               0.000000000               0.000000000               0.000000000               0.000000000               0.000000000               0.000000000               0.000000000               0.000000000               0.000000000               0.000000000               0.000000000               0.000000000               0.000000000               0.000000000               0.000000000               0.000000000               0.000000000               0.000000000               0.000000000               0.000000000               0.000000000               0.000000000               0.000000000               0.000000000               0.000000000               0.000000000               0.000000000               0.000000000               0.000000000               0.000000000               0.000000000               0.000000000               0.000000000               0.000000000               0.000000000               0.000000000               0.000000000               0.000000000               0.000000000               0.000000000               0.000000000               0.000000000               0.000000000               0.000000000               0.000000000               0.000000000               0.000000000               0.000000000               0.000000000               0.000000000               0.000000000               0.000000000               0.000000000 </DataArray>
</PointData>
</Piece>
</UnstructuredGrid> </VTKFile>
