<?xml version="1.0"?>
<VTKFile type="UnstructuredGrid" version="0.1">
<UnstructuredGrid>
<Piece NumberOfPoints="      1156" NumberOfCells="      1024">
<Points>
<DataArray type="Float64"                                    Name="coordinates"                                                      NumberOfComponents=" 3" format="ascii">
              0.133000000               0.000000000               0.000000000               0.155937500               0.000000000               0.000000000               0.178875000               0.000000000               0.000000000               0.201812500               0.000000000               0.000000000               0.224750000               0.000000000               0.000000000               0.247687500               0.000000000               0.000000000               0.270625000               0.000000000               0.000000000               0.293562500               0.000000000               0.000000000               0.316500000               0.000000000               0.000000000               0.339437500               0.000000000               0.000000000               0.362375000               0.000000000               0.000000000               0.385312500               0.000000000               0.000000000               0.408250000               0.000000000               0.000000000               0.431187500               0.000000000               0.000000000               0.454125000               0.000000000               0.000000000               0.477062500               0.000000000               0.000000000               0.500000000               0.000000000               0.000000000               0.132359569               0.013036280               0.000000000               0.155337096               0.016127762               0.000000000               0.178314623               0.019219245               0.000000000               0.201292150               0.022310727               0.000000000               0.224269676               0.025402210               0.000000000               0.247247203               0.028493692               0.000000000               0.270224730               0.031585175               0.000000000               0.293202257               0.034676657               0.000000000               0.316179784               0.037768140               0.000000000               0.339157311               0.040859622               0.000000000               0.362134838               0.043951105               0.000000000               0.385112365               0.047042587               0.000000000               0.408089892               0.050134070               0.000000000               0.431067419               0.053225552               0.000000000               0.454044946               0.056317035               0.000000000               0.477022473               0.059408517               0.000000000               0.500000000               0.062500000               0.000000000               0.130444442               0.025947013               0.000000000               0.153541665               0.032137825               0.000000000               0.176638887               0.038328636               0.000000000               0.199736109               0.044519448               0.000000000               0.222833332               0.050710260               0.000000000               0.245930554               0.056901071               0.000000000               0.269027776               0.063091883               0.000000000               0.292124999               0.069282695               0.000000000               0.315222221               0.075473506               0.000000000               0.338319444               0.081664318               0.000000000               0.361416666               0.087855130               0.000000000               0.384513888               0.094045942               0.000000000               0.407611111               0.100236753               0.000000000               0.430708333               0.106427565               0.000000000               0.453805555               0.112618377               0.000000000               0.476902778               0.118809188               0.000000000               0.500000000               0.125000000               0.000000000               0.127273065               0.038607862               0.000000000               0.150568498               0.047913621               0.000000000               0.173863932               0.057219379               0.000000000               0.197159365               0.066525138               0.000000000               0.220454798               0.075830897               0.000000000               0.243750232               0.085136655               0.000000000               0.267045665               0.094442414               0.000000000               0.290341099               0.103748172               0.000000000               0.313636532               0.113053931               0.000000000               0.336931966               0.122359690               0.000000000               0.360227399               0.131665448               0.000000000               0.383522833               0.140971207               0.000000000               0.406818266               0.150276966               0.000000000               0.430113700               0.159582724               0.000000000               0.453409133               0.168888483               0.000000000               0.476704567               0.178194241               0.000000000               0.500000000               0.187500000               0.000000000               0.122875978               0.050896897               0.000000000               0.146446229               0.063340840               0.000000000               0.170016481               0.075784784               0.000000000               0.193586732               0.088228728               0.000000000               0.217156983               0.100672672               0.000000000               0.240727235               0.113116616               0.000000000               0.264297486               0.125560560               0.000000000               0.287867738               0.138004504               0.000000000               0.311437989               0.150448448               0.000000000               0.335008240               0.162892392               0.000000000               0.358578492               0.175336336               0.000000000               0.382148743               0.187780280               0.000000000               0.405718994               0.200224224               0.000000000               0.429289246               0.212668168               0.000000000               0.452859497               0.225112112               0.000000000               0.476429749               0.237556056               0.000000000               0.500000000               0.250000000               0.000000000               0.117295528               0.062695766               0.000000000               0.141214558               0.078308531               0.000000000               0.165133587               0.093921295               0.000000000               0.189052617               0.109534060               0.000000000               0.212971646               0.125146824               0.000000000               0.236890676               0.140759589               0.000000000               0.260809705               0.156372354               0.000000000               0.284728735               0.171985118               0.000000000               0.308647764               0.187597883               0.000000000               0.332566794               0.203210648               0.000000000               0.356485823               0.218823412               0.000000000               0.380404853               0.234436177               0.000000000               0.404323882               0.250048941               0.000000000               0.428242912               0.265661706               0.000000000               0.452161941               0.281274471               0.000000000               0.476080971               0.296887235               0.000000000               0.500000000               0.312500000               0.000000000               0.110585458               0.073890841               0.000000000               0.134923867               0.092710163               0.000000000               0.159262276               0.111529486               0.000000000               0.183600685               0.130348808               0.000000000               0.207939094               0.149168131               0.000000000               0.232277503               0.167987453               0.000000000               0.256615912               0.186806776               0.000000000               0.280954320               0.205626098               0.000000000               0.305292729               0.224445420               0.000000000               0.329631138               0.243264743               0.000000000               0.353969547               0.262084065               0.000000000               0.378307956               0.280903388               0.000000000               0.402646365               0.299722710               0.000000000               0.426984773               0.318542033               0.000000000               0.451323182               0.337361355               0.000000000               0.475661591               0.356180678               0.000000000               0.500000000               0.375000000               0.000000000               0.102810390               0.084374307               0.000000000               0.127634741               0.106444663               0.000000000               0.152459092               0.128515018               0.000000000               0.177283442               0.150585374               0.000000000               0.202107793               0.172655730               0.000000000               0.226932143               0.194726086               0.000000000               0.251756494               0.216796442               0.000000000               0.276580845               0.238866798               0.000000000               0.301405195               0.260937153               0.000000000               0.326229546               0.283007509               0.000000000               0.351053896               0.305077865               0.000000000               0.375878247               0.327148221               0.000000000               0.400702598               0.349218577               0.000000000               0.425526948               0.371288933               0.000000000               0.450351299               0.393359288               0.000000000               0.475175649               0.415429644               0.000000000               0.500000000               0.437500000               0.000000000               0.094045202               0.094045202               0.000000000               0.119417377               0.119417377               0.000000000               0.144789552               0.144789552               0.000000000               0.170161727               0.170161727               0.000000000               0.195533901               0.195533901               0.000000000               0.220906076               0.220906076               0.000000000               0.246278251               0.246278251               0.000000000               0.271650426               0.271650426               0.000000000               0.297022601               0.297022601               0.000000000               0.322394776               0.322394776               0.000000000               0.347766951               0.347766951               0.000000000               0.373139126               0.373139126               0.000000000               0.398511300               0.398511300               0.000000000               0.423883475               0.423883475               0.000000000               0.449255650               0.449255650               0.000000000               0.474627825               0.474627825               0.000000000               0.500000000               0.500000000               0.000000000               0.084374307               0.102810390               0.000000000               0.106444663               0.127634741               0.000000000               0.128515018               0.152459092               0.000000000               0.150585374               0.177283442               0.000000000               0.172655730               0.202107793               0.000000000               0.194726086               0.226932143               0.000000000               0.216796442               0.251756494               0.000000000               0.238866798               0.276580845               0.000000000               0.260937153               0.301405195               0.000000000               0.283007509               0.326229546               0.000000000               0.305077865               0.351053896               0.000000000               0.327148221               0.375878247               0.000000000               0.349218577               0.400702598               0.000000000               0.371288933               0.425526948               0.000000000               0.393359288               0.450351299               0.000000000               0.415429644               0.475175649               0.000000000               0.437500000               0.500000000               0.000000000               0.073890841               0.110585458               0.000000000               0.092710163               0.134923867               0.000000000               0.111529486               0.159262276               0.000000000               0.130348808               0.183600685               0.000000000               0.149168131               0.207939094               0.000000000               0.167987453               0.232277503               0.000000000               0.186806776               0.256615912               0.000000000               0.205626098               0.280954320               0.000000000               0.224445420               0.305292729               0.000000000               0.243264743               0.329631138               0.000000000               0.262084065               0.353969547               0.000000000               0.280903388               0.378307956               0.000000000               0.299722710               0.402646365               0.000000000               0.318542033               0.426984773               0.000000000               0.337361355               0.451323182               0.000000000               0.356180678               0.475661591               0.000000000               0.375000000               0.500000000               0.000000000               0.062695766               0.117295528               0.000000000               0.078308531               0.141214558               0.000000000               0.093921295               0.165133587               0.000000000               0.109534060               0.189052617               0.000000000               0.125146824               0.212971646               0.000000000               0.140759589               0.236890676               0.000000000               0.156372354               0.260809705               0.000000000               0.171985118               0.284728735               0.000000000               0.187597883               0.308647764               0.000000000               0.203210648               0.332566794               0.000000000               0.218823412               0.356485823               0.000000000               0.234436177               0.380404853               0.000000000               0.250048941               0.404323882               0.000000000               0.265661706               0.428242912               0.000000000               0.281274471               0.452161941               0.000000000               0.296887235               0.476080971               0.000000000               0.312500000               0.500000000               0.000000000               0.050896897               0.122875978               0.000000000               0.063340840               0.146446229               0.000000000               0.075784784               0.170016481               0.000000000               0.088228728               0.193586732               0.000000000               0.100672672               0.217156983               0.000000000               0.113116616               0.240727235               0.000000000               0.125560560               0.264297486               0.000000000               0.138004504               0.287867738               0.000000000               0.150448448               0.311437989               0.000000000               0.162892392               0.335008240               0.000000000               0.175336336               0.358578492               0.000000000               0.187780280               0.382148743               0.000000000               0.200224224               0.405718994               0.000000000               0.212668168               0.429289246               0.000000000               0.225112112               0.452859497               0.000000000               0.237556056               0.476429749               0.000000000               0.250000000               0.500000000               0.000000000               0.038607862               0.127273065               0.000000000               0.047913621               0.150568498               0.000000000               0.057219379               0.173863932               0.000000000               0.066525138               0.197159365               0.000000000               0.075830897               0.220454798               0.000000000               0.085136655               0.243750232               0.000000000               0.094442414               0.267045665               0.000000000               0.103748172               0.290341099               0.000000000               0.113053931               0.313636532               0.000000000               0.122359690               0.336931966               0.000000000               0.131665448               0.360227399               0.000000000               0.140971207               0.383522833               0.000000000               0.150276966               0.406818266               0.000000000               0.159582724               0.430113700               0.000000000               0.168888483               0.453409133               0.000000000               0.178194241               0.476704567               0.000000000               0.187500000               0.500000000               0.000000000               0.025947013               0.130444442               0.000000000               0.032137825               0.153541665               0.000000000               0.038328636               0.176638887               0.000000000               0.044519448               0.199736109               0.000000000               0.050710260               0.222833332               0.000000000               0.056901071               0.245930554               0.000000000               0.063091883               0.269027776               0.000000000               0.069282695               0.292124999               0.000000000               0.075473506               0.315222221               0.000000000               0.081664318               0.338319444               0.000000000               0.087855130               0.361416666               0.000000000               0.094045942               0.384513888               0.000000000               0.100236753               0.407611111               0.000000000               0.106427565               0.430708333               0.000000000               0.112618377               0.453805555               0.000000000               0.118809188               0.476902778               0.000000000               0.125000000               0.500000000               0.000000000               0.013036280               0.132359569               0.000000000               0.016127762               0.155337096               0.000000000               0.019219245               0.178314623               0.000000000               0.022310727               0.201292150               0.000000000               0.025402210               0.224269676               0.000000000               0.028493692               0.247247203               0.000000000               0.031585175               0.270224730               0.000000000               0.034676657               0.293202257               0.000000000               0.037768140               0.316179784               0.000000000               0.040859622               0.339157311               0.000000000               0.043951105               0.362134838               0.000000000               0.047042587               0.385112365               0.000000000               0.050134070               0.408089892               0.000000000               0.053225552               0.431067419               0.000000000               0.056317035               0.454044946               0.000000000               0.059408517               0.477022473               0.000000000               0.062500000               0.500000000               0.000000000               0.000000000               0.133000000               0.000000000               0.000000000               0.155937500               0.000000000               0.000000000               0.178875000               0.000000000               0.000000000               0.201812500               0.000000000               0.000000000               0.224750000               0.000000000               0.000000000               0.247687500               0.000000000               0.000000000               0.270625000               0.000000000               0.000000000               0.293562500               0.000000000               0.000000000               0.316500000               0.000000000               0.000000000               0.339437500               0.000000000               0.000000000               0.362375000               0.000000000               0.000000000               0.385312500               0.000000000               0.000000000               0.408250000               0.000000000               0.000000000               0.431187500               0.000000000               0.000000000               0.454125000               0.000000000               0.000000000               0.477062500               0.000000000               0.000000000               0.500000000               0.000000000               0.133000000               0.000000000               0.000000000               0.155937500               0.000000000               0.000000000               0.178875000               0.000000000               0.000000000               0.201812500               0.000000000               0.000000000               0.224750000               0.000000000               0.000000000               0.247687500               0.000000000               0.000000000               0.270625000               0.000000000               0.000000000               0.293562500               0.000000000               0.000000000               0.316500000               0.000000000               0.000000000               0.339437500               0.000000000               0.000000000               0.362375000               0.000000000               0.000000000               0.385312500               0.000000000               0.000000000               0.408250000               0.000000000               0.000000000               0.431187500               0.000000000               0.000000000               0.454125000               0.000000000               0.000000000               0.477062500               0.000000000               0.000000000               0.500000000               0.000000000               0.000000000               0.132359569              -0.013036280               0.000000000               0.155337096              -0.016127762               0.000000000               0.178314623              -0.019219245               0.000000000               0.201292150              -0.022310727               0.000000000               0.224269676              -0.025402210               0.000000000               0.247247203              -0.028493692               0.000000000               0.270224730              -0.031585175               0.000000000               0.293202257              -0.034676657               0.000000000               0.316179784              -0.037768140               0.000000000               0.339157311              -0.040859622               0.000000000               0.362134838              -0.043951105               0.000000000               0.385112365              -0.047042587               0.000000000               0.408089892              -0.050134070               0.000000000               0.431067419              -0.053225552               0.000000000               0.454044946              -0.056317035               0.000000000               0.477022473              -0.059408517               0.000000000               0.500000000              -0.062500000               0.000000000               0.130444442              -0.025947013               0.000000000               0.153541665              -0.032137825               0.000000000               0.176638887              -0.038328636               0.000000000               0.199736109              -0.044519448               0.000000000               0.222833332              -0.050710260               0.000000000               0.245930554              -0.056901071               0.000000000               0.269027776              -0.063091883               0.000000000               0.292124999              -0.069282695               0.000000000               0.315222221              -0.075473506               0.000000000               0.338319444              -0.081664318               0.000000000               0.361416666              -0.087855130               0.000000000               0.384513888              -0.094045942               0.000000000               0.407611111              -0.100236753               0.000000000               0.430708333              -0.106427565               0.000000000               0.453805555              -0.112618377               0.000000000               0.476902778              -0.118809188               0.000000000               0.500000000              -0.125000000               0.000000000               0.127273065              -0.038607862               0.000000000               0.150568498              -0.047913621               0.000000000               0.173863932              -0.057219379               0.000000000               0.197159365              -0.066525138               0.000000000               0.220454798              -0.075830897               0.000000000               0.243750232              -0.085136655               0.000000000               0.267045665              -0.094442414               0.000000000               0.290341099              -0.103748172               0.000000000               0.313636532              -0.113053931               0.000000000               0.336931966              -0.122359690               0.000000000               0.360227399              -0.131665448               0.000000000               0.383522833              -0.140971207               0.000000000               0.406818266              -0.150276966               0.000000000               0.430113700              -0.159582724               0.000000000               0.453409133              -0.168888483               0.000000000               0.476704567              -0.178194241               0.000000000               0.500000000              -0.187500000               0.000000000               0.122875978              -0.050896897               0.000000000               0.146446229              -0.063340840               0.000000000               0.170016481              -0.075784784               0.000000000               0.193586732              -0.088228728               0.000000000               0.217156983              -0.100672672               0.000000000               0.240727235              -0.113116616               0.000000000               0.264297486              -0.125560560               0.000000000               0.287867738              -0.138004504               0.000000000               0.311437989              -0.150448448               0.000000000               0.335008240              -0.162892392               0.000000000               0.358578492              -0.175336336               0.000000000               0.382148743              -0.187780280               0.000000000               0.405718994              -0.200224224               0.000000000               0.429289246              -0.212668168               0.000000000               0.452859497              -0.225112112               0.000000000               0.476429749              -0.237556056               0.000000000               0.500000000              -0.250000000               0.000000000               0.117295528              -0.062695766               0.000000000               0.141214558              -0.078308531               0.000000000               0.165133587              -0.093921295               0.000000000               0.189052617              -0.109534060               0.000000000               0.212971646              -0.125146824               0.000000000               0.236890676              -0.140759589               0.000000000               0.260809705              -0.156372354               0.000000000               0.284728735              -0.171985118               0.000000000               0.308647764              -0.187597883               0.000000000               0.332566794              -0.203210648               0.000000000               0.356485823              -0.218823412               0.000000000               0.380404853              -0.234436177               0.000000000               0.404323882              -0.250048941               0.000000000               0.428242912              -0.265661706               0.000000000               0.452161941              -0.281274471               0.000000000               0.476080971              -0.296887235               0.000000000               0.500000000              -0.312500000               0.000000000               0.110585458              -0.073890841               0.000000000               0.134923867              -0.092710163               0.000000000               0.159262276              -0.111529486               0.000000000               0.183600685              -0.130348808               0.000000000               0.207939094              -0.149168131               0.000000000               0.232277503              -0.167987453               0.000000000               0.256615912              -0.186806776               0.000000000               0.280954320              -0.205626098               0.000000000               0.305292729              -0.224445420               0.000000000               0.329631138              -0.243264743               0.000000000               0.353969547              -0.262084065               0.000000000               0.378307956              -0.280903388               0.000000000               0.402646365              -0.299722710               0.000000000               0.426984773              -0.318542033               0.000000000               0.451323182              -0.337361355               0.000000000               0.475661591              -0.356180678               0.000000000               0.500000000              -0.375000000               0.000000000               0.102810390              -0.084374307               0.000000000               0.127634741              -0.106444663               0.000000000               0.152459092              -0.128515018               0.000000000               0.177283442              -0.150585374               0.000000000               0.202107793              -0.172655730               0.000000000               0.226932143              -0.194726086               0.000000000               0.251756494              -0.216796442               0.000000000               0.276580845              -0.238866798               0.000000000               0.301405195              -0.260937153               0.000000000               0.326229546              -0.283007509               0.000000000               0.351053896              -0.305077865               0.000000000               0.375878247              -0.327148221               0.000000000               0.400702598              -0.349218577               0.000000000               0.425526948              -0.371288933               0.000000000               0.450351299              -0.393359288               0.000000000               0.475175649              -0.415429644               0.000000000               0.500000000              -0.437500000               0.000000000               0.094045202              -0.094045202               0.000000000               0.119417377              -0.119417377               0.000000000               0.144789552              -0.144789552               0.000000000               0.170161727              -0.170161727               0.000000000               0.195533901              -0.195533901               0.000000000               0.220906076              -0.220906076               0.000000000               0.246278251              -0.246278251               0.000000000               0.271650426              -0.271650426               0.000000000               0.297022601              -0.297022601               0.000000000               0.322394776              -0.322394776               0.000000000               0.347766951              -0.347766951               0.000000000               0.373139126              -0.373139126               0.000000000               0.398511300              -0.398511300               0.000000000               0.423883475              -0.423883475               0.000000000               0.449255650              -0.449255650               0.000000000               0.474627825              -0.474627825               0.000000000               0.500000000              -0.500000000               0.000000000               0.084374307              -0.102810390               0.000000000               0.106444663              -0.127634741               0.000000000               0.128515018              -0.152459092               0.000000000               0.150585374              -0.177283442               0.000000000               0.172655730              -0.202107793               0.000000000               0.194726086              -0.226932143               0.000000000               0.216796442              -0.251756494               0.000000000               0.238866798              -0.276580845               0.000000000               0.260937153              -0.301405195               0.000000000               0.283007509              -0.326229546               0.000000000               0.305077865              -0.351053896               0.000000000               0.327148221              -0.375878247               0.000000000               0.349218577              -0.400702598               0.000000000               0.371288933              -0.425526948               0.000000000               0.393359288              -0.450351299               0.000000000               0.415429644              -0.475175649               0.000000000               0.437500000              -0.500000000               0.000000000               0.073890841              -0.110585458               0.000000000               0.092710163              -0.134923867               0.000000000               0.111529486              -0.159262276               0.000000000               0.130348808              -0.183600685               0.000000000               0.149168131              -0.207939094               0.000000000               0.167987453              -0.232277503               0.000000000               0.186806776              -0.256615912               0.000000000               0.205626098              -0.280954320               0.000000000               0.224445420              -0.305292729               0.000000000               0.243264743              -0.329631138               0.000000000               0.262084065              -0.353969547               0.000000000               0.280903388              -0.378307956               0.000000000               0.299722710              -0.402646365               0.000000000               0.318542033              -0.426984773               0.000000000               0.337361355              -0.451323182               0.000000000               0.356180678              -0.475661591               0.000000000               0.375000000              -0.500000000               0.000000000               0.062695766              -0.117295528               0.000000000               0.078308531              -0.141214558               0.000000000               0.093921295              -0.165133587               0.000000000               0.109534060              -0.189052617               0.000000000               0.125146824              -0.212971646               0.000000000               0.140759589              -0.236890676               0.000000000               0.156372354              -0.260809705               0.000000000               0.171985118              -0.284728735               0.000000000               0.187597883              -0.308647764               0.000000000               0.203210648              -0.332566794               0.000000000               0.218823412              -0.356485823               0.000000000               0.234436177              -0.380404853               0.000000000               0.250048941              -0.404323882               0.000000000               0.265661706              -0.428242912               0.000000000               0.281274471              -0.452161941               0.000000000               0.296887235              -0.476080971               0.000000000               0.312500000              -0.500000000               0.000000000               0.050896897              -0.122875978               0.000000000               0.063340840              -0.146446229               0.000000000               0.075784784              -0.170016481               0.000000000               0.088228728              -0.193586732               0.000000000               0.100672672              -0.217156983               0.000000000               0.113116616              -0.240727235               0.000000000               0.125560560              -0.264297486               0.000000000               0.138004504              -0.287867738               0.000000000               0.150448448              -0.311437989               0.000000000               0.162892392              -0.335008240               0.000000000               0.175336336              -0.358578492               0.000000000               0.187780280              -0.382148743               0.000000000               0.200224224              -0.405718994               0.000000000               0.212668168              -0.429289246               0.000000000               0.225112112              -0.452859497               0.000000000               0.237556056              -0.476429749               0.000000000               0.250000000              -0.500000000               0.000000000               0.038607862              -0.127273065               0.000000000               0.047913621              -0.150568498               0.000000000               0.057219379              -0.173863932               0.000000000               0.066525138              -0.197159365               0.000000000               0.075830897              -0.220454798               0.000000000               0.085136655              -0.243750232               0.000000000               0.094442414              -0.267045665               0.000000000               0.103748172              -0.290341099               0.000000000               0.113053931              -0.313636532               0.000000000               0.122359690              -0.336931966               0.000000000               0.131665448              -0.360227399               0.000000000               0.140971207              -0.383522833               0.000000000               0.150276966              -0.406818266               0.000000000               0.159582724              -0.430113700               0.000000000               0.168888483              -0.453409133               0.000000000               0.178194241              -0.476704567               0.000000000               0.187500000              -0.500000000               0.000000000               0.025947013              -0.130444442               0.000000000               0.032137825              -0.153541665               0.000000000               0.038328636              -0.176638887               0.000000000               0.044519448              -0.199736109               0.000000000               0.050710260              -0.222833332               0.000000000               0.056901071              -0.245930554               0.000000000               0.063091883              -0.269027776               0.000000000               0.069282695              -0.292124999               0.000000000               0.075473506              -0.315222221               0.000000000               0.081664318              -0.338319444               0.000000000               0.087855130              -0.361416666               0.000000000               0.094045942              -0.384513888               0.000000000               0.100236753              -0.407611111               0.000000000               0.106427565              -0.430708333               0.000000000               0.112618377              -0.453805555               0.000000000               0.118809188              -0.476902778               0.000000000               0.125000000              -0.500000000               0.000000000               0.013036280              -0.132359569               0.000000000               0.016127762              -0.155337096               0.000000000               0.019219245              -0.178314623               0.000000000               0.022310727              -0.201292150               0.000000000               0.025402210              -0.224269676               0.000000000               0.028493692              -0.247247203               0.000000000               0.031585175              -0.270224730               0.000000000               0.034676657              -0.293202257               0.000000000               0.037768140              -0.316179784               0.000000000               0.040859622              -0.339157311               0.000000000               0.043951105              -0.362134838               0.000000000               0.047042587              -0.385112365               0.000000000               0.050134070              -0.408089892               0.000000000               0.053225552              -0.431067419               0.000000000               0.056317035              -0.454044946               0.000000000               0.059408517              -0.477022473               0.000000000               0.062500000              -0.500000000               0.000000000               0.000000000              -0.133000000               0.000000000               0.000000000              -0.155937500               0.000000000               0.000000000              -0.178875000               0.000000000               0.000000000              -0.201812500               0.000000000               0.000000000              -0.224750000               0.000000000               0.000000000              -0.247687500               0.000000000               0.000000000              -0.270625000               0.000000000               0.000000000              -0.293562500               0.000000000               0.000000000              -0.316500000               0.000000000               0.000000000              -0.339437500               0.000000000               0.000000000              -0.362375000               0.000000000               0.000000000              -0.385312500               0.000000000               0.000000000              -0.408250000               0.000000000               0.000000000              -0.431187500               0.000000000               0.000000000              -0.454125000               0.000000000               0.000000000              -0.477062500               0.000000000               0.000000000              -0.500000000               0.000000000              -0.133000000               0.000000000               0.000000000              -0.155937500               0.000000000               0.000000000              -0.178875000               0.000000000               0.000000000              -0.201812500               0.000000000               0.000000000              -0.224750000               0.000000000               0.000000000              -0.247687500               0.000000000               0.000000000              -0.270625000               0.000000000               0.000000000              -0.293562500               0.000000000               0.000000000              -0.316500000               0.000000000               0.000000000              -0.339437500               0.000000000               0.000000000              -0.362375000               0.000000000               0.000000000              -0.385312500               0.000000000               0.000000000              -0.408250000               0.000000000               0.000000000              -0.431187500               0.000000000               0.000000000              -0.454125000               0.000000000               0.000000000              -0.477062500               0.000000000               0.000000000              -0.500000000               0.000000000               0.000000000              -0.132359569              -0.013036280               0.000000000              -0.155337096              -0.016127762               0.000000000              -0.178314623              -0.019219245               0.000000000              -0.201292150              -0.022310727               0.000000000              -0.224269676              -0.025402210               0.000000000              -0.247247203              -0.028493692               0.000000000              -0.270224730              -0.031585175               0.000000000              -0.293202257              -0.034676657               0.000000000              -0.316179784              -0.037768140               0.000000000              -0.339157311              -0.040859622               0.000000000              -0.362134838              -0.043951105               0.000000000              -0.385112365              -0.047042587               0.000000000              -0.408089892              -0.050134070               0.000000000              -0.431067419              -0.053225552               0.000000000              -0.454044946              -0.056317035               0.000000000              -0.477022473              -0.059408517               0.000000000              -0.500000000              -0.062500000               0.000000000              -0.130444442              -0.025947013               0.000000000              -0.153541665              -0.032137825               0.000000000              -0.176638887              -0.038328636               0.000000000              -0.199736109              -0.044519448               0.000000000              -0.222833332              -0.050710260               0.000000000              -0.245930554              -0.056901071               0.000000000              -0.269027776              -0.063091883               0.000000000              -0.292124999              -0.069282695               0.000000000              -0.315222221              -0.075473506               0.000000000              -0.338319444              -0.081664318               0.000000000              -0.361416666              -0.087855130               0.000000000              -0.384513888              -0.094045942               0.000000000              -0.407611111              -0.100236753               0.000000000              -0.430708333              -0.106427565               0.000000000              -0.453805555              -0.112618377               0.000000000              -0.476902778              -0.118809188               0.000000000              -0.500000000              -0.125000000               0.000000000              -0.127273065              -0.038607862               0.000000000              -0.150568498              -0.047913621               0.000000000              -0.173863932              -0.057219379               0.000000000              -0.197159365              -0.066525138               0.000000000              -0.220454798              -0.075830897               0.000000000              -0.243750232              -0.085136655               0.000000000              -0.267045665              -0.094442414               0.000000000              -0.290341099              -0.103748172               0.000000000              -0.313636532              -0.113053931               0.000000000              -0.336931966              -0.122359690               0.000000000              -0.360227399              -0.131665448               0.000000000              -0.383522833              -0.140971207               0.000000000              -0.406818266              -0.150276966               0.000000000              -0.430113700              -0.159582724               0.000000000              -0.453409133              -0.168888483               0.000000000              -0.476704567              -0.178194241               0.000000000              -0.500000000              -0.187500000               0.000000000              -0.122875978              -0.050896897               0.000000000              -0.146446229              -0.063340840               0.000000000              -0.170016481              -0.075784784               0.000000000              -0.193586732              -0.088228728               0.000000000              -0.217156983              -0.100672672               0.000000000              -0.240727235              -0.113116616               0.000000000              -0.264297486              -0.125560560               0.000000000              -0.287867738              -0.138004504               0.000000000              -0.311437989              -0.150448448               0.000000000              -0.335008240              -0.162892392               0.000000000              -0.358578492              -0.175336336               0.000000000              -0.382148743              -0.187780280               0.000000000              -0.405718994              -0.200224224               0.000000000              -0.429289246              -0.212668168               0.000000000              -0.452859497              -0.225112112               0.000000000              -0.476429749              -0.237556056               0.000000000              -0.500000000              -0.250000000               0.000000000              -0.117295528              -0.062695766               0.000000000              -0.141214558              -0.078308531               0.000000000              -0.165133587              -0.093921295               0.000000000              -0.189052617              -0.109534060               0.000000000              -0.212971646              -0.125146824               0.000000000              -0.236890676              -0.140759589               0.000000000              -0.260809705              -0.156372354               0.000000000              -0.284728735              -0.171985118               0.000000000              -0.308647764              -0.187597883               0.000000000              -0.332566794              -0.203210648               0.000000000              -0.356485823              -0.218823412               0.000000000              -0.380404853              -0.234436177               0.000000000              -0.404323882              -0.250048941               0.000000000              -0.428242912              -0.265661706               0.000000000              -0.452161941              -0.281274471               0.000000000              -0.476080971              -0.296887235               0.000000000              -0.500000000              -0.312500000               0.000000000              -0.110585458              -0.073890841               0.000000000              -0.134923867              -0.092710163               0.000000000              -0.159262276              -0.111529486               0.000000000              -0.183600685              -0.130348808               0.000000000              -0.207939094              -0.149168131               0.000000000              -0.232277503              -0.167987453               0.000000000              -0.256615912              -0.186806776               0.000000000              -0.280954320              -0.205626098               0.000000000              -0.305292729              -0.224445420               0.000000000              -0.329631138              -0.243264743               0.000000000              -0.353969547              -0.262084065               0.000000000              -0.378307956              -0.280903388               0.000000000              -0.402646365              -0.299722710               0.000000000              -0.426984773              -0.318542033               0.000000000              -0.451323182              -0.337361355               0.000000000              -0.475661591              -0.356180678               0.000000000              -0.500000000              -0.375000000               0.000000000              -0.102810390              -0.084374307               0.000000000              -0.127634741              -0.106444663               0.000000000              -0.152459092              -0.128515018               0.000000000              -0.177283442              -0.150585374               0.000000000              -0.202107793              -0.172655730               0.000000000              -0.226932143              -0.194726086               0.000000000              -0.251756494              -0.216796442               0.000000000              -0.276580845              -0.238866798               0.000000000              -0.301405195              -0.260937153               0.000000000              -0.326229546              -0.283007509               0.000000000              -0.351053896              -0.305077865               0.000000000              -0.375878247              -0.327148221               0.000000000              -0.400702598              -0.349218577               0.000000000              -0.425526948              -0.371288933               0.000000000              -0.450351299              -0.393359288               0.000000000              -0.475175649              -0.415429644               0.000000000              -0.500000000              -0.437500000               0.000000000              -0.094045202              -0.094045202               0.000000000              -0.119417377              -0.119417377               0.000000000              -0.144789552              -0.144789552               0.000000000              -0.170161727              -0.170161727               0.000000000              -0.195533901              -0.195533901               0.000000000              -0.220906076              -0.220906076               0.000000000              -0.246278251              -0.246278251               0.000000000              -0.271650426              -0.271650426               0.000000000              -0.297022601              -0.297022601               0.000000000              -0.322394776              -0.322394776               0.000000000              -0.347766951              -0.347766951               0.000000000              -0.373139126              -0.373139126               0.000000000              -0.398511300              -0.398511300               0.000000000              -0.423883475              -0.423883475               0.000000000              -0.449255650              -0.449255650               0.000000000              -0.474627825              -0.474627825               0.000000000              -0.500000000              -0.500000000               0.000000000              -0.084374307              -0.102810390               0.000000000              -0.106444663              -0.127634741               0.000000000              -0.128515018              -0.152459092               0.000000000              -0.150585374              -0.177283442               0.000000000              -0.172655730              -0.202107793               0.000000000              -0.194726086              -0.226932143               0.000000000              -0.216796442              -0.251756494               0.000000000              -0.238866798              -0.276580845               0.000000000              -0.260937153              -0.301405195               0.000000000              -0.283007509              -0.326229546               0.000000000              -0.305077865              -0.351053896               0.000000000              -0.327148221              -0.375878247               0.000000000              -0.349218577              -0.400702598               0.000000000              -0.371288933              -0.425526948               0.000000000              -0.393359288              -0.450351299               0.000000000              -0.415429644              -0.475175649               0.000000000              -0.437500000              -0.500000000               0.000000000              -0.073890841              -0.110585458               0.000000000              -0.092710163              -0.134923867               0.000000000              -0.111529486              -0.159262276               0.000000000              -0.130348808              -0.183600685               0.000000000              -0.149168131              -0.207939094               0.000000000              -0.167987453              -0.232277503               0.000000000              -0.186806776              -0.256615912               0.000000000              -0.205626098              -0.280954320               0.000000000              -0.224445420              -0.305292729               0.000000000              -0.243264743              -0.329631138               0.000000000              -0.262084065              -0.353969547               0.000000000              -0.280903388              -0.378307956               0.000000000              -0.299722710              -0.402646365               0.000000000              -0.318542033              -0.426984773               0.000000000              -0.337361355              -0.451323182               0.000000000              -0.356180678              -0.475661591               0.000000000              -0.375000000              -0.500000000               0.000000000              -0.062695766              -0.117295528               0.000000000              -0.078308531              -0.141214558               0.000000000              -0.093921295              -0.165133587               0.000000000              -0.109534060              -0.189052617               0.000000000              -0.125146824              -0.212971646               0.000000000              -0.140759589              -0.236890676               0.000000000              -0.156372354              -0.260809705               0.000000000              -0.171985118              -0.284728735               0.000000000              -0.187597883              -0.308647764               0.000000000              -0.203210648              -0.332566794               0.000000000              -0.218823412              -0.356485823               0.000000000              -0.234436177              -0.380404853               0.000000000              -0.250048941              -0.404323882               0.000000000              -0.265661706              -0.428242912               0.000000000              -0.281274471              -0.452161941               0.000000000              -0.296887235              -0.476080971               0.000000000              -0.312500000              -0.500000000               0.000000000              -0.050896897              -0.122875978               0.000000000              -0.063340840              -0.146446229               0.000000000              -0.075784784              -0.170016481               0.000000000              -0.088228728              -0.193586732               0.000000000              -0.100672672              -0.217156983               0.000000000              -0.113116616              -0.240727235               0.000000000              -0.125560560              -0.264297486               0.000000000              -0.138004504              -0.287867738               0.000000000              -0.150448448              -0.311437989               0.000000000              -0.162892392              -0.335008240               0.000000000              -0.175336336              -0.358578492               0.000000000              -0.187780280              -0.382148743               0.000000000              -0.200224224              -0.405718994               0.000000000              -0.212668168              -0.429289246               0.000000000              -0.225112112              -0.452859497               0.000000000              -0.237556056              -0.476429749               0.000000000              -0.250000000              -0.500000000               0.000000000              -0.038607862              -0.127273065               0.000000000              -0.047913621              -0.150568498               0.000000000              -0.057219379              -0.173863932               0.000000000              -0.066525138              -0.197159365               0.000000000              -0.075830897              -0.220454798               0.000000000              -0.085136655              -0.243750232               0.000000000              -0.094442414              -0.267045665               0.000000000              -0.103748172              -0.290341099               0.000000000              -0.113053931              -0.313636532               0.000000000              -0.122359690              -0.336931966               0.000000000              -0.131665448              -0.360227399               0.000000000              -0.140971207              -0.383522833               0.000000000              -0.150276966              -0.406818266               0.000000000              -0.159582724              -0.430113700               0.000000000              -0.168888483              -0.453409133               0.000000000              -0.178194241              -0.476704567               0.000000000              -0.187500000              -0.500000000               0.000000000              -0.025947013              -0.130444442               0.000000000              -0.032137825              -0.153541665               0.000000000              -0.038328636              -0.176638887               0.000000000              -0.044519448              -0.199736109               0.000000000              -0.050710260              -0.222833332               0.000000000              -0.056901071              -0.245930554               0.000000000              -0.063091883              -0.269027776               0.000000000              -0.069282695              -0.292124999               0.000000000              -0.075473506              -0.315222221               0.000000000              -0.081664318              -0.338319444               0.000000000              -0.087855130              -0.361416666               0.000000000              -0.094045942              -0.384513888               0.000000000              -0.100236753              -0.407611111               0.000000000              -0.106427565              -0.430708333               0.000000000              -0.112618377              -0.453805555               0.000000000              -0.118809188              -0.476902778               0.000000000              -0.125000000              -0.500000000               0.000000000              -0.013036280              -0.132359569               0.000000000              -0.016127762              -0.155337096               0.000000000              -0.019219245              -0.178314623               0.000000000              -0.022310727              -0.201292150               0.000000000              -0.025402210              -0.224269676               0.000000000              -0.028493692              -0.247247203               0.000000000              -0.031585175              -0.270224730               0.000000000              -0.034676657              -0.293202257               0.000000000              -0.037768140              -0.316179784               0.000000000              -0.040859622              -0.339157311               0.000000000              -0.043951105              -0.362134838               0.000000000              -0.047042587              -0.385112365               0.000000000              -0.050134070              -0.408089892               0.000000000              -0.053225552              -0.431067419               0.000000000              -0.056317035              -0.454044946               0.000000000              -0.059408517              -0.477022473               0.000000000              -0.062500000              -0.500000000               0.000000000               0.000000000              -0.133000000               0.000000000               0.000000000              -0.155937500               0.000000000               0.000000000              -0.178875000               0.000000000               0.000000000              -0.201812500               0.000000000               0.000000000              -0.224750000               0.000000000               0.000000000              -0.247687500               0.000000000               0.000000000              -0.270625000               0.000000000               0.000000000              -0.293562500               0.000000000               0.000000000              -0.316500000               0.000000000               0.000000000              -0.339437500               0.000000000               0.000000000              -0.362375000               0.000000000               0.000000000              -0.385312500               0.000000000               0.000000000              -0.408250000               0.000000000               0.000000000              -0.431187500               0.000000000               0.000000000              -0.454125000               0.000000000               0.000000000              -0.477062500               0.000000000               0.000000000              -0.500000000               0.000000000              -0.133000000               0.000000000               0.000000000              -0.155937500               0.000000000               0.000000000              -0.178875000               0.000000000               0.000000000              -0.201812500               0.000000000               0.000000000              -0.224750000               0.000000000               0.000000000              -0.247687500               0.000000000               0.000000000              -0.270625000               0.000000000               0.000000000              -0.293562500               0.000000000               0.000000000              -0.316500000               0.000000000               0.000000000              -0.339437500               0.000000000               0.000000000              -0.362375000               0.000000000               0.000000000              -0.385312500               0.000000000               0.000000000              -0.408250000               0.000000000               0.000000000              -0.431187500               0.000000000               0.000000000              -0.454125000               0.000000000               0.000000000              -0.477062500               0.000000000               0.000000000              -0.500000000               0.000000000               0.000000000              -0.132359569               0.013036280               0.000000000              -0.155337096               0.016127762               0.000000000              -0.178314623               0.019219245               0.000000000              -0.201292150               0.022310727               0.000000000              -0.224269676               0.025402210               0.000000000              -0.247247203               0.028493692               0.000000000              -0.270224730               0.031585175               0.000000000              -0.293202257               0.034676657               0.000000000              -0.316179784               0.037768140               0.000000000              -0.339157311               0.040859622               0.000000000              -0.362134838               0.043951105               0.000000000              -0.385112365               0.047042587               0.000000000              -0.408089892               0.050134070               0.000000000              -0.431067419               0.053225552               0.000000000              -0.454044946               0.056317035               0.000000000              -0.477022473               0.059408517               0.000000000              -0.500000000               0.062500000               0.000000000              -0.130444442               0.025947013               0.000000000              -0.153541665               0.032137825               0.000000000              -0.176638887               0.038328636               0.000000000              -0.199736109               0.044519448               0.000000000              -0.222833332               0.050710260               0.000000000              -0.245930554               0.056901071               0.000000000              -0.269027776               0.063091883               0.000000000              -0.292124999               0.069282695               0.000000000              -0.315222221               0.075473506               0.000000000              -0.338319444               0.081664318               0.000000000              -0.361416666               0.087855130               0.000000000              -0.384513888               0.094045942               0.000000000              -0.407611111               0.100236753               0.000000000              -0.430708333               0.106427565               0.000000000              -0.453805555               0.112618377               0.000000000              -0.476902778               0.118809188               0.000000000              -0.500000000               0.125000000               0.000000000              -0.127273065               0.038607862               0.000000000              -0.150568498               0.047913621               0.000000000              -0.173863932               0.057219379               0.000000000              -0.197159365               0.066525138               0.000000000              -0.220454798               0.075830897               0.000000000              -0.243750232               0.085136655               0.000000000              -0.267045665               0.094442414               0.000000000              -0.290341099               0.103748172               0.000000000              -0.313636532               0.113053931               0.000000000              -0.336931966               0.122359690               0.000000000              -0.360227399               0.131665448               0.000000000              -0.383522833               0.140971207               0.000000000              -0.406818266               0.150276966               0.000000000              -0.430113700               0.159582724               0.000000000              -0.453409133               0.168888483               0.000000000              -0.476704567               0.178194241               0.000000000              -0.500000000               0.187500000               0.000000000              -0.122875978               0.050896897               0.000000000              -0.146446229               0.063340840               0.000000000              -0.170016481               0.075784784               0.000000000              -0.193586732               0.088228728               0.000000000              -0.217156983               0.100672672               0.000000000              -0.240727235               0.113116616               0.000000000              -0.264297486               0.125560560               0.000000000              -0.287867738               0.138004504               0.000000000              -0.311437989               0.150448448               0.000000000              -0.335008240               0.162892392               0.000000000              -0.358578492               0.175336336               0.000000000              -0.382148743               0.187780280               0.000000000              -0.405718994               0.200224224               0.000000000              -0.429289246               0.212668168               0.000000000              -0.452859497               0.225112112               0.000000000              -0.476429749               0.237556056               0.000000000              -0.500000000               0.250000000               0.000000000              -0.117295528               0.062695766               0.000000000              -0.141214558               0.078308531               0.000000000              -0.165133587               0.093921295               0.000000000              -0.189052617               0.109534060               0.000000000              -0.212971646               0.125146824               0.000000000              -0.236890676               0.140759589               0.000000000              -0.260809705               0.156372354               0.000000000              -0.284728735               0.171985118               0.000000000              -0.308647764               0.187597883               0.000000000              -0.332566794               0.203210648               0.000000000              -0.356485823               0.218823412               0.000000000              -0.380404853               0.234436177               0.000000000              -0.404323882               0.250048941               0.000000000              -0.428242912               0.265661706               0.000000000              -0.452161941               0.281274471               0.000000000              -0.476080971               0.296887235               0.000000000              -0.500000000               0.312500000               0.000000000              -0.110585458               0.073890841               0.000000000              -0.134923867               0.092710163               0.000000000              -0.159262276               0.111529486               0.000000000              -0.183600685               0.130348808               0.000000000              -0.207939094               0.149168131               0.000000000              -0.232277503               0.167987453               0.000000000              -0.256615912               0.186806776               0.000000000              -0.280954320               0.205626098               0.000000000              -0.305292729               0.224445420               0.000000000              -0.329631138               0.243264743               0.000000000              -0.353969547               0.262084065               0.000000000              -0.378307956               0.280903388               0.000000000              -0.402646365               0.299722710               0.000000000              -0.426984773               0.318542033               0.000000000              -0.451323182               0.337361355               0.000000000              -0.475661591               0.356180678               0.000000000              -0.500000000               0.375000000               0.000000000              -0.102810390               0.084374307               0.000000000              -0.127634741               0.106444663               0.000000000              -0.152459092               0.128515018               0.000000000              -0.177283442               0.150585374               0.000000000              -0.202107793               0.172655730               0.000000000              -0.226932143               0.194726086               0.000000000              -0.251756494               0.216796442               0.000000000              -0.276580845               0.238866798               0.000000000              -0.301405195               0.260937153               0.000000000              -0.326229546               0.283007509               0.000000000              -0.351053896               0.305077865               0.000000000              -0.375878247               0.327148221               0.000000000              -0.400702598               0.349218577               0.000000000              -0.425526948               0.371288933               0.000000000              -0.450351299               0.393359288               0.000000000              -0.475175649               0.415429644               0.000000000              -0.500000000               0.437500000               0.000000000              -0.094045202               0.094045202               0.000000000              -0.119417377               0.119417377               0.000000000              -0.144789552               0.144789552               0.000000000              -0.170161727               0.170161727               0.000000000              -0.195533901               0.195533901               0.000000000              -0.220906076               0.220906076               0.000000000              -0.246278251               0.246278251               0.000000000              -0.271650426               0.271650426               0.000000000              -0.297022601               0.297022601               0.000000000              -0.322394776               0.322394776               0.000000000              -0.347766951               0.347766951               0.000000000              -0.373139126               0.373139126               0.000000000              -0.398511300               0.398511300               0.000000000              -0.423883475               0.423883475               0.000000000              -0.449255650               0.449255650               0.000000000              -0.474627825               0.474627825               0.000000000              -0.500000000               0.500000000               0.000000000              -0.084374307               0.102810390               0.000000000              -0.106444663               0.127634741               0.000000000              -0.128515018               0.152459092               0.000000000              -0.150585374               0.177283442               0.000000000              -0.172655730               0.202107793               0.000000000              -0.194726086               0.226932143               0.000000000              -0.216796442               0.251756494               0.000000000              -0.238866798               0.276580845               0.000000000              -0.260937153               0.301405195               0.000000000              -0.283007509               0.326229546               0.000000000              -0.305077865               0.351053896               0.000000000              -0.327148221               0.375878247               0.000000000              -0.349218577               0.400702598               0.000000000              -0.371288933               0.425526948               0.000000000              -0.393359288               0.450351299               0.000000000              -0.415429644               0.475175649               0.000000000              -0.437500000               0.500000000               0.000000000              -0.073890841               0.110585458               0.000000000              -0.092710163               0.134923867               0.000000000              -0.111529486               0.159262276               0.000000000              -0.130348808               0.183600685               0.000000000              -0.149168131               0.207939094               0.000000000              -0.167987453               0.232277503               0.000000000              -0.186806776               0.256615912               0.000000000              -0.205626098               0.280954320               0.000000000              -0.224445420               0.305292729               0.000000000              -0.243264743               0.329631138               0.000000000              -0.262084065               0.353969547               0.000000000              -0.280903388               0.378307956               0.000000000              -0.299722710               0.402646365               0.000000000              -0.318542033               0.426984773               0.000000000              -0.337361355               0.451323182               0.000000000              -0.356180678               0.475661591               0.000000000              -0.375000000               0.500000000               0.000000000              -0.062695766               0.117295528               0.000000000              -0.078308531               0.141214558               0.000000000              -0.093921295               0.165133587               0.000000000              -0.109534060               0.189052617               0.000000000              -0.125146824               0.212971646               0.000000000              -0.140759589               0.236890676               0.000000000              -0.156372354               0.260809705               0.000000000              -0.171985118               0.284728735               0.000000000              -0.187597883               0.308647764               0.000000000              -0.203210648               0.332566794               0.000000000              -0.218823412               0.356485823               0.000000000              -0.234436177               0.380404853               0.000000000              -0.250048941               0.404323882               0.000000000              -0.265661706               0.428242912               0.000000000              -0.281274471               0.452161941               0.000000000              -0.296887235               0.476080971               0.000000000              -0.312500000               0.500000000               0.000000000              -0.050896897               0.122875978               0.000000000              -0.063340840               0.146446229               0.000000000              -0.075784784               0.170016481               0.000000000              -0.088228728               0.193586732               0.000000000              -0.100672672               0.217156983               0.000000000              -0.113116616               0.240727235               0.000000000              -0.125560560               0.264297486               0.000000000              -0.138004504               0.287867738               0.000000000              -0.150448448               0.311437989               0.000000000              -0.162892392               0.335008240               0.000000000              -0.175336336               0.358578492               0.000000000              -0.187780280               0.382148743               0.000000000              -0.200224224               0.405718994               0.000000000              -0.212668168               0.429289246               0.000000000              -0.225112112               0.452859497               0.000000000              -0.237556056               0.476429749               0.000000000              -0.250000000               0.500000000               0.000000000              -0.038607862               0.127273065               0.000000000              -0.047913621               0.150568498               0.000000000              -0.057219379               0.173863932               0.000000000              -0.066525138               0.197159365               0.000000000              -0.075830897               0.220454798               0.000000000              -0.085136655               0.243750232               0.000000000              -0.094442414               0.267045665               0.000000000              -0.103748172               0.290341099               0.000000000              -0.113053931               0.313636532               0.000000000              -0.122359690               0.336931966               0.000000000              -0.131665448               0.360227399               0.000000000              -0.140971207               0.383522833               0.000000000              -0.150276966               0.406818266               0.000000000              -0.159582724               0.430113700               0.000000000              -0.168888483               0.453409133               0.000000000              -0.178194241               0.476704567               0.000000000              -0.187500000               0.500000000               0.000000000              -0.025947013               0.130444442               0.000000000              -0.032137825               0.153541665               0.000000000              -0.038328636               0.176638887               0.000000000              -0.044519448               0.199736109               0.000000000              -0.050710260               0.222833332               0.000000000              -0.056901071               0.245930554               0.000000000              -0.063091883               0.269027776               0.000000000              -0.069282695               0.292124999               0.000000000              -0.075473506               0.315222221               0.000000000              -0.081664318               0.338319444               0.000000000              -0.087855130               0.361416666               0.000000000              -0.094045942               0.384513888               0.000000000              -0.100236753               0.407611111               0.000000000              -0.106427565               0.430708333               0.000000000              -0.112618377               0.453805555               0.000000000              -0.118809188               0.476902778               0.000000000              -0.125000000               0.500000000               0.000000000              -0.013036280               0.132359569               0.000000000              -0.016127762               0.155337096               0.000000000              -0.019219245               0.178314623               0.000000000              -0.022310727               0.201292150               0.000000000              -0.025402210               0.224269676               0.000000000              -0.028493692               0.247247203               0.000000000              -0.031585175               0.270224730               0.000000000              -0.034676657               0.293202257               0.000000000              -0.037768140               0.316179784               0.000000000              -0.040859622               0.339157311               0.000000000              -0.043951105               0.362134838               0.000000000              -0.047042587               0.385112365               0.000000000              -0.050134070               0.408089892               0.000000000              -0.053225552               0.431067419               0.000000000              -0.056317035               0.454044946               0.000000000              -0.059408517               0.477022473               0.000000000              -0.062500000               0.500000000               0.000000000               0.000000000               0.133000000               0.000000000               0.000000000               0.155937500               0.000000000               0.000000000               0.178875000               0.000000000               0.000000000               0.201812500               0.000000000               0.000000000               0.224750000               0.000000000               0.000000000               0.247687500               0.000000000               0.000000000               0.270625000               0.000000000               0.000000000               0.293562500               0.000000000               0.000000000               0.316500000               0.000000000               0.000000000               0.339437500               0.000000000               0.000000000               0.362375000               0.000000000               0.000000000               0.385312500               0.000000000               0.000000000               0.408250000               0.000000000               0.000000000               0.431187500               0.000000000               0.000000000               0.454125000               0.000000000               0.000000000               0.477062500               0.000000000               0.000000000               0.500000000               0.000000000 </DataArray>
</Points>
<Cells>
<DataArray type="Int32"                                    Name="connectivity"                                                      NumberOfComponents=" 1" format="ascii">
         0          1         18         17          1          2         19         18          2          3         20         19          3          4         21         20          4          5         22         21          5          6         23         22          6          7         24         23          7          8         25         24          8          9         26         25          9         10         27         26         10         11         28         27         11         12         29         28         12         13         30         29         13         14         31         30         14         15         32         31         15         16         33         32         17         18         35         34         18         19         36         35         19         20         37         36         20         21         38         37         21         22         39         38         22         23         40         39         23         24         41         40         24         25         42         41         25         26         43         42         26         27         44         43         27         28         45         44         28         29         46         45         29         30         47         46         30         31         48         47         31         32         49         48         32         33         50         49         34         35         52         51         35         36         53         52         36         37         54         53         37         38         55         54         38         39         56         55         39         40         57         56         40         41         58         57         41         42         59         58         42         43         60         59         43         44         61         60         44         45         62         61         45         46         63         62         46         47         64         63         47         48         65         64         48         49         66         65         49         50         67         66         51         52         69         68         52         53         70         69         53         54         71         70         54         55         72         71         55         56         73         72         56         57         74         73         57         58         75         74         58         59         76         75         59         60         77         76         60         61         78         77         61         62         79         78         62         63         80         79         63         64         81         80         64         65         82         81         65         66         83         82         66         67         84         83         68         69         86         85         69         70         87         86         70         71         88         87         71         72         89         88         72         73         90         89         73         74         91         90         74         75         92         91         75         76         93         92         76         77         94         93         77         78         95         94         78         79         96         95         79         80         97         96         80         81         98         97         81         82         99         98         82         83        100         99         83         84        101        100         85         86        103        102         86         87        104        103         87         88        105        104         88         89        106        105         89         90        107        106         90         91        108        107         91         92        109        108         92         93        110        109         93         94        111        110         94         95        112        111         95         96        113        112         96         97        114        113         97         98        115        114         98         99        116        115         99        100        117        116        100        101        118        117        102        103        120        119        103        104        121        120        104        105        122        121        105        106        123        122        106        107        124        123        107        108        125        124        108        109        126        125        109        110        127        126        110        111        128        127        111        112        129        128        112        113        130        129        113        114        131        130        114        115        132        131        115        116        133        132        116        117        134        133        117        118        135        134        119        120        137        136        120        121        138        137        121        122        139        138        122        123        140        139        123        124        141        140        124        125        142        141        125        126        143        142        126        127        144        143        127        128        145        144        128        129        146        145        129        130        147        146        130        131        148        147        131        132        149        148        132        133        150        149        133        134        151        150        134        135        152        151        136        137        154        153        137        138        155        154        138        139        156        155        139        140        157        156        140        141        158        157        141        142        159        158        142        143        160        159        143        144        161        160        144        145        162        161        145        146        163        162        146        147        164        163        147        148        165        164        148        149        166        165        149        150        167        166        150        151        168        167        151        152        169        168        153        154        171        170        154        155        172        171        155        156        173        172        156        157        174        173        157        158        175        174        158        159        176        175        159        160        177        176        160        161        178        177        161        162        179        178        162        163        180        179        163        164        181        180        164        165        182        181        165        166        183        182        166        167        184        183        167        168        185        184        168        169        186        185        170        171        188        187        171        172        189        188        172        173        190        189        173        174        191        190        174        175        192        191        175        176        193        192        176        177        194        193        177        178        195        194        178        179        196        195        179        180        197        196        180        181        198        197        181        182        199        198        182        183        200        199        183        184        201        200        184        185        202        201        185        186        203        202        187        188        205        204        188        189        206        205        189        190        207        206        190        191        208        207        191        192        209        208        192        193        210        209        193        194        211        210        194        195        212        211        195        196        213        212        196        197        214        213        197        198        215        214        198        199        216        215        199        200        217        216        200        201        218        217        201        202        219        218        202        203        220        219        204        205        222        221        205        206        223        222        206        207        224        223        207        208        225        224        208        209        226        225        209        210        227        226        210        211        228        227        211        212        229        228        212        213        230        229        213        214        231        230        214        215        232        231        215        216        233        232        216        217        234        233        217        218        235        234        218        219        236        235        219        220        237        236        221        222        239        238        222        223        240        239        223        224        241        240        224        225        242        241        225        226        243        242        226        227        244        243        227        228        245        244        228        229        246        245        229        230        247        246        230        231        248        247        231        232        249        248        232        233        250        249        233        234        251        250        234        235        252        251        235        236        253        252        236        237        254        253        238        239        256        255        239        240        257        256        240        241        258        257        241        242        259        258        242        243        260        259        243        244        261        260        244        245        262        261        245        246        263        262        246        247        264        263        247        248        265        264        248        249        266        265        249        250        267        266        250        251        268        267        251        252        269        268        252        253        270        269        253        254        271        270        255        256        273        272        256        257        274        273        257        258        275        274        258        259        276        275        259        260        277        276        260        261        278        277        261        262        279        278        262        263        280        279        263        264        281        280        264        265        282        281        265        266        283        282        266        267        284        283        267        268        285        284        268        269        286        285        269        270        287        286        270        271        288        287        306        307          1          0        307        308          2          1        308        309          3          2        309        310          4          3        310        311          5          4        311        312          6          5        312        313          7          6        313        314          8          7        314        315          9          8        315        316         10          9        316        317         11         10        317        318         12         11        318        319         13         12        319        320         14         13        320        321         15         14        321        322         16         15        323        324        307        306        324        325        308        307        325        326        309        308        326        327        310        309        327        328        311        310        328        329        312        311        329        330        313        312        330        331        314        313        331        332        315        314        332        333        316        315        333        334        317        316        334        335        318        317        335        336        319        318        336        337        320        319        337        338        321        320        338        339        322        321        340        341        324        323        341        342        325        324        342        343        326        325        343        344        327        326        344        345        328        327        345        346        329        328        346        347        330        329        347        348        331        330        348        349        332        331        349        350        333        332        350        351        334        333        351        352        335        334        352        353        336        335        353        354        337        336        354        355        338        337        355        356        339        338        357        358        341        340        358        359        342        341        359        360        343        342        360        361        344        343        361        362        345        344        362        363        346        345        363        364        347        346        364        365        348        347        365        366        349        348        366        367        350        349        367        368        351        350        368        369        352        351        369        370        353        352        370        371        354        353        371        372        355        354        372        373        356        355        374        375        358        357        375        376        359        358        376        377        360        359        377        378        361        360        378        379        362        361        379        380        363        362        380        381        364        363        381        382        365        364        382        383        366        365        383        384        367        366        384        385        368        367        385        386        369        368        386        387        370        369        387        388        371        370        388        389        372        371        389        390        373        372        391        392        375        374        392        393        376        375        393        394        377        376        394        395        378        377        395        396        379        378        396        397        380        379        397        398        381        380        398        399        382        381        399        400        383        382        400        401        384        383        401        402        385        384        402        403        386        385        403        404        387        386        404        405        388        387        405        406        389        388        406        407        390        389        408        409        392        391        409        410        393        392        410        411        394        393        411        412        395        394        412        413        396        395        413        414        397        396        414        415        398        397        415        416        399        398        416        417        400        399        417        418        401        400        418        419        402        401        419        420        403        402        420        421        404        403        421        422        405        404        422        423        406        405        423        424        407        406        425        426        409        408        426        427        410        409        427        428        411        410        428        429        412        411        429        430        413        412        430        431        414        413        431        432        415        414        432        433        416        415        433        434        417        416        434        435        418        417        435        436        419        418        436        437        420        419        437        438        421        420        438        439        422        421        439        440        423        422        440        441        424        423        442        443        426        425        443        444        427        426        444        445        428        427        445        446        429        428        446        447        430        429        447        448        431        430        448        449        432        431        449        450        433        432        450        451        434        433        451        452        435        434        452        453        436        435        453        454        437        436        454        455        438        437        455        456        439        438        456        457        440        439        457        458        441        440        459        460        443        442        460        461        444        443        461        462        445        444        462        463        446        445        463        464        447        446        464        465        448        447        465        466        449        448        466        467        450        449        467        468        451        450        468        469        452        451        469        470        453        452        470        471        454        453        471        472        455        454        472        473        456        455        473        474        457        456        474        475        458        457        476        477        460        459        477        478        461        460        478        479        462        461        479        480        463        462        480        481        464        463        481        482        465        464        482        483        466        465        483        484        467        466        484        485        468        467        485        486        469        468        486        487        470        469        487        488        471        470        488        489        472        471        489        490        473        472        490        491        474        473        491        492        475        474        493        494        477        476        494        495        478        477        495        496        479        478        496        497        480        479        497        498        481        480        498        499        482        481        499        500        483        482        500        501        484        483        501        502        485        484        502        503        486        485        503        504        487        486        504        505        488        487        505        506        489        488        506        507        490        489        507        508        491        490        508        509        492        491        510        511        494        493        511        512        495        494        512        513        496        495        513        514        497        496        514        515        498        497        515        516        499        498        516        517        500        499        517        518        501        500        518        519        502        501        519        520        503        502        520        521        504        503        521        522        505        504        522        523        506        505        523        524        507        506        524        525        508        507        525        526        509        508        527        528        511        510        528        529        512        511        529        530        513        512        530        531        514        513        531        532        515        514        532        533        516        515        533        534        517        516        534        535        518        517        535        536        519        518        536        537        520        519        537        538        521        520        538        539        522        521        539        540        523        522        540        541        524        523        541        542        525        524        542        543        526        525        544        545        528        527        545        546        529        528        546        547        530        529        547        548        531        530        548        549        532        531        549        550        533        532        550        551        534        533        551        552        535        534        552        553        536        535        553        554        537        536        554        555        538        537        555        556        539        538        556        557        540        539        557        558        541        540        558        559        542        541        559        560        543        542        561        562        545        544        562        563        546        545        563        564        547        546        564        565        548        547        565        566        549        548        566        567        550        549        567        568        551        550        568        569        552        551        569        570        553        552        570        571        554        553        571        572        555        554        572        573        556        555        573        574        557        556        574        575        558        557        575        576        559        558        576        577        560        559        578        579        596        595        579        580        597        596        580        581        598        597        581        582        599        598        582        583        600        599        583        584        601        600        584        585        602        601        585        586        603        602        586        587        604        603        587        588        605        604        588        589        606        605        589        590        607        606        590        591        608        607        591        592        609        608        592        593        610        609        593        594        611        610        595        596        613        612        596        597        614        613        597        598        615        614        598        599        616        615        599        600        617        616        600        601        618        617        601        602        619        618        602        603        620        619        603        604        621        620        604        605        622        621        605        606        623        622        606        607        624        623        607        608        625        624        608        609        626        625        609        610        627        626        610        611        628        627        612        613        630        629        613        614        631        630        614        615        632        631        615        616        633        632        616        617        634        633        617        618        635        634        618        619        636        635        619        620        637        636        620        621        638        637        621        622        639        638        622        623        640        639        623        624        641        640        624        625        642        641        625        626        643        642        626        627        644        643        627        628        645        644        629        630        647        646        630        631        648        647        631        632        649        648        632        633        650        649        633        634        651        650        634        635        652        651        635        636        653        652        636        637        654        653        637        638        655        654        638        639        656        655        639        640        657        656        640        641        658        657        641        642        659        658        642        643        660        659        643        644        661        660        644        645        662        661        646        647        664        663        647        648        665        664        648        649        666        665        649        650        667        666        650        651        668        667        651        652        669        668        652        653        670        669        653        654        671        670        654        655        672        671        655        656        673        672        656        657        674        673        657        658        675        674        658        659        676        675        659        660        677        676        660        661        678        677        661        662        679        678        663        664        681        680        664        665        682        681        665        666        683        682        666        667        684        683        667        668        685        684        668        669        686        685        669        670        687        686        670        671        688        687        671        672        689        688        672        673        690        689        673        674        691        690        674        675        692        691        675        676        693        692        676        677        694        693        677        678        695        694        678        679        696        695        680        681        698        697        681        682        699        698        682        683        700        699        683        684        701        700        684        685        702        701        685        686        703        702        686        687        704        703        687        688        705        704        688        689        706        705        689        690        707        706        690        691        708        707        691        692        709        708        692        693        710        709        693        694        711        710        694        695        712        711        695        696        713        712        697        698        715        714        698        699        716        715        699        700        717        716        700        701        718        717        701        702        719        718        702        703        720        719        703        704        721        720        704        705        722        721        705        706        723        722        706        707        724        723        707        708        725        724        708        709        726        725        709        710        727        726        710        711        728        727        711        712        729        728        712        713        730        729        714        715        732        731        715        716        733        732        716        717        734        733        717        718        735        734        718        719        736        735        719        720        737        736        720        721        738        737        721        722        739        738        722        723        740        739        723        724        741        740        724        725        742        741        725        726        743        742        726        727        744        743        727        728        745        744        728        729        746        745        729        730        747        746        731        732        749        748        732        733        750        749        733        734        751        750        734        735        752        751        735        736        753        752        736        737        754        753        737        738        755        754        738        739        756        755        739        740        757        756        740        741        758        757        741        742        759        758        742        743        760        759        743        744        761        760        744        745        762        761        745        746        763        762        746        747        764        763        748        749        766        765        749        750        767        766        750        751        768        767        751        752        769        768        752        753        770        769        753        754        771        770        754        755        772        771        755        756        773        772        756        757        774        773        757        758        775        774        758        759        776        775        759        760        777        776        760        761        778        777        761        762        779        778        762        763        780        779        763        764        781        780        765        766        783        782        766        767        784        783        767        768        785        784        768        769        786        785        769        770        787        786        770        771        788        787        771        772        789        788        772        773        790        789        773        774        791        790        774        775        792        791        775        776        793        792        776        777        794        793        777        778        795        794        778        779        796        795        779        780        797        796        780        781        798        797        782        783        800        799        783        784        801        800        784        785        802        801        785        786        803        802        786        787        804        803        787        788        805        804        788        789        806        805        789        790        807        806        790        791        808        807        791        792        809        808        792        793        810        809        793        794        811        810        794        795        812        811        795        796        813        812        796        797        814        813        797        798        815        814        799        800        817        816        800        801        818        817        801        802        819        818        802        803        820        819        803        804        821        820        804        805        822        821        805        806        823        822        806        807        824        823        807        808        825        824        808        809        826        825        809        810        827        826        810        811        828        827        811        812        829        828        812        813        830        829        813        814        831        830        814        815        832        831        816        817        834        833        817        818        835        834        818        819        836        835        819        820        837        836        820        821        838        837        821        822        839        838        822        823        840        839        823        824        841        840        824        825        842        841        825        826        843        842        826        827        844        843        827        828        845        844        828        829        846        845        829        830        847        846        830        831        848        847        831        832        849        848        833        834        562        561        834        835        563        562        835        836        564        563        836        837        565        564        837        838        566        565        838        839        567        566        839        840        568        567        840        841        569        568        841        842        570        569        842        843        571        570        843        844        572        571        844        845        573        572        845        846        574        573        846        847        575        574        847        848        576        575        848        849        577        576        884        885        579        578        885        886        580        579        886        887        581        580        887        888        582        581        888        889        583        582        889        890        584        583        890        891        585        584        891        892        586        585        892        893        587        586        893        894        588        587        894        895        589        588        895        896        590        589        896        897        591        590        897        898        592        591        898        899        593        592        899        900        594        593        901        902        885        884        902        903        886        885        903        904        887        886        904        905        888        887        905        906        889        888        906        907        890        889        907        908        891        890        908        909        892        891        909        910        893        892        910        911        894        893        911        912        895        894        912        913        896        895        913        914        897        896        914        915        898        897        915        916        899        898        916        917        900        899        918        919        902        901        919        920        903        902        920        921        904        903        921        922        905        904        922        923        906        905        923        924        907        906        924        925        908        907        925        926        909        908        926        927        910        909        927        928        911        910        928        929        912        911        929        930        913        912        930        931        914        913        931        932        915        914        932        933        916        915        933        934        917        916        935        936        919        918        936        937        920        919        937        938        921        920        938        939        922        921        939        940        923        922        940        941        924        923        941        942        925        924        942        943        926        925        943        944        927        926        944        945        928        927        945        946        929        928        946        947        930        929        947        948        931        930        948        949        932        931        949        950        933        932        950        951        934        933        952        953        936        935        953        954        937        936        954        955        938        937        955        956        939        938        956        957        940        939        957        958        941        940        958        959        942        941        959        960        943        942        960        961        944        943        961        962        945        944        962        963        946        945        963        964        947        946        964        965        948        947        965        966        949        948        966        967        950        949        967        968        951        950        969        970        953        952        970        971        954        953        971        972        955        954        972        973        956        955        973        974        957        956        974        975        958        957        975        976        959        958        976        977        960        959        977        978        961        960        978        979        962        961        979        980        963        962        980        981        964        963        981        982        965        964        982        983        966        965        983        984        967        966        984        985        968        967        986        987        970        969        987        988        971        970        988        989        972        971        989        990        973        972        990        991        974        973        991        992        975        974        992        993        976        975        993        994        977        976        994        995        978        977        995        996        979        978        996        997        980        979        997        998        981        980        998        999        982        981        999       1000        983        982       1000       1001        984        983       1001       1002        985        984       1003       1004        987        986       1004       1005        988        987       1005       1006        989        988       1006       1007        990        989       1007       1008        991        990       1008       1009        992        991       1009       1010        993        992       1010       1011        994        993       1011       1012        995        994       1012       1013        996        995       1013       1014        997        996       1014       1015        998        997       1015       1016        999        998       1016       1017       1000        999       1017       1018       1001       1000       1018       1019       1002       1001       1020       1021       1004       1003       1021       1022       1005       1004       1022       1023       1006       1005       1023       1024       1007       1006       1024       1025       1008       1007       1025       1026       1009       1008       1026       1027       1010       1009       1027       1028       1011       1010       1028       1029       1012       1011       1029       1030       1013       1012       1030       1031       1014       1013       1031       1032       1015       1014       1032       1033       1016       1015       1033       1034       1017       1016       1034       1035       1018       1017       1035       1036       1019       1018       1037       1038       1021       1020       1038       1039       1022       1021       1039       1040       1023       1022       1040       1041       1024       1023       1041       1042       1025       1024       1042       1043       1026       1025       1043       1044       1027       1026       1044       1045       1028       1027       1045       1046       1029       1028       1046       1047       1030       1029       1047       1048       1031       1030       1048       1049       1032       1031       1049       1050       1033       1032       1050       1051       1034       1033       1051       1052       1035       1034       1052       1053       1036       1035       1054       1055       1038       1037       1055       1056       1039       1038       1056       1057       1040       1039       1057       1058       1041       1040       1058       1059       1042       1041       1059       1060       1043       1042       1060       1061       1044       1043       1061       1062       1045       1044       1062       1063       1046       1045       1063       1064       1047       1046       1064       1065       1048       1047       1065       1066       1049       1048       1066       1067       1050       1049       1067       1068       1051       1050       1068       1069       1052       1051       1069       1070       1053       1052       1071       1072       1055       1054       1072       1073       1056       1055       1073       1074       1057       1056       1074       1075       1058       1057       1075       1076       1059       1058       1076       1077       1060       1059       1077       1078       1061       1060       1078       1079       1062       1061       1079       1080       1063       1062       1080       1081       1064       1063       1081       1082       1065       1064       1082       1083       1066       1065       1083       1084       1067       1066       1084       1085       1068       1067       1085       1086       1069       1068       1086       1087       1070       1069       1088       1089       1072       1071       1089       1090       1073       1072       1090       1091       1074       1073       1091       1092       1075       1074       1092       1093       1076       1075       1093       1094       1077       1076       1094       1095       1078       1077       1095       1096       1079       1078       1096       1097       1080       1079       1097       1098       1081       1080       1098       1099       1082       1081       1099       1100       1083       1082       1100       1101       1084       1083       1101       1102       1085       1084       1102       1103       1086       1085       1103       1104       1087       1086       1105       1106       1089       1088       1106       1107       1090       1089       1107       1108       1091       1090       1108       1109       1092       1091       1109       1110       1093       1092       1110       1111       1094       1093       1111       1112       1095       1094       1112       1113       1096       1095       1113       1114       1097       1096       1114       1115       1098       1097       1115       1116       1099       1098       1116       1117       1100       1099       1117       1118       1101       1100       1118       1119       1102       1101       1119       1120       1103       1102       1120       1121       1104       1103       1122       1123       1106       1105       1123       1124       1107       1106       1124       1125       1108       1107       1125       1126       1109       1108       1126       1127       1110       1109       1127       1128       1111       1110       1128       1129       1112       1111       1129       1130       1113       1112       1130       1131       1114       1113       1131       1132       1115       1114       1132       1133       1116       1115       1133       1134       1117       1116       1134       1135       1118       1117       1135       1136       1119       1118       1136       1137       1120       1119       1137       1138       1121       1120        272        273       1123       1122        273        274       1124       1123        274        275       1125       1124        275        276       1126       1125        276        277       1127       1126        277        278       1128       1127        278        279       1129       1128        279        280       1130       1129        280        281       1131       1130        281        282       1132       1131        282        283       1133       1132        283        284       1134       1133        284        285       1135       1134        285        286       1136       1135        286        287       1137       1136        287        288       1138       1137 </DataArray>
<DataArray type="Int32"                                    Name="offsets"                                                      NumberOfComponents=" 1" format="ascii">
         4          8         12         16         20         24         28         32         36         40         44         48         52         56         60         64         68         72         76         80         84         88         92         96        100        104        108        112        116        120        124        128        132        136        140        144        148        152        156        160        164        168        172        176        180        184        188        192        196        200        204        208        212        216        220        224        228        232        236        240        244        248        252        256        260        264        268        272        276        280        284        288        292        296        300        304        308        312        316        320        324        328        332        336        340        344        348        352        356        360        364        368        372        376        380        384        388        392        396        400        404        408        412        416        420        424        428        432        436        440        444        448        452        456        460        464        468        472        476        480        484        488        492        496        500        504        508        512        516        520        524        528        532        536        540        544        548        552        556        560        564        568        572        576        580        584        588        592        596        600        604        608        612        616        620        624        628        632        636        640        644        648        652        656        660        664        668        672        676        680        684        688        692        696        700        704        708        712        716        720        724        728        732        736        740        744        748        752        756        760        764        768        772        776        780        784        788        792        796        800        804        808        812        816        820        824        828        832        836        840        844        848        852        856        860        864        868        872        876        880        884        888        892        896        900        904        908        912        916        920        924        928        932        936        940        944        948        952        956        960        964        968        972        976        980        984        988        992        996       1000       1004       1008       1012       1016       1020       1024       1028       1032       1036       1040       1044       1048       1052       1056       1060       1064       1068       1072       1076       1080       1084       1088       1092       1096       1100       1104       1108       1112       1116       1120       1124       1128       1132       1136       1140       1144       1148       1152       1156       1160       1164       1168       1172       1176       1180       1184       1188       1192       1196       1200       1204       1208       1212       1216       1220       1224       1228       1232       1236       1240       1244       1248       1252       1256       1260       1264       1268       1272       1276       1280       1284       1288       1292       1296       1300       1304       1308       1312       1316       1320       1324       1328       1332       1336       1340       1344       1348       1352       1356       1360       1364       1368       1372       1376       1380       1384       1388       1392       1396       1400       1404       1408       1412       1416       1420       1424       1428       1432       1436       1440       1444       1448       1452       1456       1460       1464       1468       1472       1476       1480       1484       1488       1492       1496       1500       1504       1508       1512       1516       1520       1524       1528       1532       1536       1540       1544       1548       1552       1556       1560       1564       1568       1572       1576       1580       1584       1588       1592       1596       1600       1604       1608       1612       1616       1620       1624       1628       1632       1636       1640       1644       1648       1652       1656       1660       1664       1668       1672       1676       1680       1684       1688       1692       1696       1700       1704       1708       1712       1716       1720       1724       1728       1732       1736       1740       1744       1748       1752       1756       1760       1764       1768       1772       1776       1780       1784       1788       1792       1796       1800       1804       1808       1812       1816       1820       1824       1828       1832       1836       1840       1844       1848       1852       1856       1860       1864       1868       1872       1876       1880       1884       1888       1892       1896       1900       1904       1908       1912       1916       1920       1924       1928       1932       1936       1940       1944       1948       1952       1956       1960       1964       1968       1972       1976       1980       1984       1988       1992       1996       2000       2004       2008       2012       2016       2020       2024       2028       2032       2036       2040       2044       2048       2052       2056       2060       2064       2068       2072       2076       2080       2084       2088       2092       2096       2100       2104       2108       2112       2116       2120       2124       2128       2132       2136       2140       2144       2148       2152       2156       2160       2164       2168       2172       2176       2180       2184       2188       2192       2196       2200       2204       2208       2212       2216       2220       2224       2228       2232       2236       2240       2244       2248       2252       2256       2260       2264       2268       2272       2276       2280       2284       2288       2292       2296       2300       2304       2308       2312       2316       2320       2324       2328       2332       2336       2340       2344       2348       2352       2356       2360       2364       2368       2372       2376       2380       2384       2388       2392       2396       2400       2404       2408       2412       2416       2420       2424       2428       2432       2436       2440       2444       2448       2452       2456       2460       2464       2468       2472       2476       2480       2484       2488       2492       2496       2500       2504       2508       2512       2516       2520       2524       2528       2532       2536       2540       2544       2548       2552       2556       2560       2564       2568       2572       2576       2580       2584       2588       2592       2596       2600       2604       2608       2612       2616       2620       2624       2628       2632       2636       2640       2644       2648       2652       2656       2660       2664       2668       2672       2676       2680       2684       2688       2692       2696       2700       2704       2708       2712       2716       2720       2724       2728       2732       2736       2740       2744       2748       2752       2756       2760       2764       2768       2772       2776       2780       2784       2788       2792       2796       2800       2804       2808       2812       2816       2820       2824       2828       2832       2836       2840       2844       2848       2852       2856       2860       2864       2868       2872       2876       2880       2884       2888       2892       2896       2900       2904       2908       2912       2916       2920       2924       2928       2932       2936       2940       2944       2948       2952       2956       2960       2964       2968       2972       2976       2980       2984       2988       2992       2996       3000       3004       3008       3012       3016       3020       3024       3028       3032       3036       3040       3044       3048       3052       3056       3060       3064       3068       3072       3076       3080       3084       3088       3092       3096       3100       3104       3108       3112       3116       3120       3124       3128       3132       3136       3140       3144       3148       3152       3156       3160       3164       3168       3172       3176       3180       3184       3188       3192       3196       3200       3204       3208       3212       3216       3220       3224       3228       3232       3236       3240       3244       3248       3252       3256       3260       3264       3268       3272       3276       3280       3284       3288       3292       3296       3300       3304       3308       3312       3316       3320       3324       3328       3332       3336       3340       3344       3348       3352       3356       3360       3364       3368       3372       3376       3380       3384       3388       3392       3396       3400       3404       3408       3412       3416       3420       3424       3428       3432       3436       3440       3444       3448       3452       3456       3460       3464       3468       3472       3476       3480       3484       3488       3492       3496       3500       3504       3508       3512       3516       3520       3524       3528       3532       3536       3540       3544       3548       3552       3556       3560       3564       3568       3572       3576       3580       3584       3588       3592       3596       3600       3604       3608       3612       3616       3620       3624       3628       3632       3636       3640       3644       3648       3652       3656       3660       3664       3668       3672       3676       3680       3684       3688       3692       3696       3700       3704       3708       3712       3716       3720       3724       3728       3732       3736       3740       3744       3748       3752       3756       3760       3764       3768       3772       3776       3780       3784       3788       3792       3796       3800       3804       3808       3812       3816       3820       3824       3828       3832       3836       3840       3844       3848       3852       3856       3860       3864       3868       3872       3876       3880       3884       3888       3892       3896       3900       3904       3908       3912       3916       3920       3924       3928       3932       3936       3940       3944       3948       3952       3956       3960       3964       3968       3972       3976       3980       3984       3988       3992       3996       4000       4004       4008       4012       4016       4020       4024       4028       4032       4036       4040       4044       4048       4052       4056       4060       4064       4068       4072       4076       4080       4084       4088       4092       4096 </DataArray>
<DataArray type="UInt8"                                    Name="types"                                                      NumberOfComponents=" 1" format="ascii">
         9          9          9          9          9          9          9          9          9          9          9          9          9          9          9          9          9          9          9          9          9          9          9          9          9          9          9          9          9          9          9          9          9          9          9          9          9          9          9          9          9          9          9          9          9          9          9          9          9          9          9          9          9          9          9          9          9          9          9          9          9          9          9          9          9          9          9          9          9          9          9          9          9          9          9          9          9          9          9          9          9          9          9          9          9          9          9          9          9          9          9          9          9          9          9          9          9          9          9          9          9          9          9          9          9          9          9          9          9          9          9          9          9          9          9          9          9          9          9          9          9          9          9          9          9          9          9          9          9          9          9          9          9          9          9          9          9          9          9          9          9          9          9          9          9          9          9          9          9          9          9          9          9          9          9          9          9          9          9          9          9          9          9          9          9          9          9          9          9          9          9          9          9          9          9          9          9          9          9          9          9          9          9          9          9          9          9          9          9          9          9          9          9          9          9          9          9          9          9          9          9          9          9          9          9          9          9          9          9          9          9          9          9          9          9          9          9          9          9          9          9          9          9          9          9          9          9          9          9          9          9          9          9          9          9          9          9          9          9          9          9          9          9          9          9          9          9          9          9          9          9          9          9          9          9          9          9          9          9          9          9          9          9          9          9          9          9          9          9          9          9          9          9          9          9          9          9          9          9          9          9          9          9          9          9          9          9          9          9          9          9          9          9          9          9          9          9          9          9          9          9          9          9          9          9          9          9          9          9          9          9          9          9          9          9          9          9          9          9          9          9          9          9          9          9          9          9          9          9          9          9          9          9          9          9          9          9          9          9          9          9          9          9          9          9          9          9          9          9          9          9          9          9          9          9          9          9          9          9          9          9          9          9          9          9          9          9          9          9          9          9          9          9          9          9          9          9          9          9          9          9          9          9          9          9          9          9          9          9          9          9          9          9          9          9          9          9          9          9          9          9          9          9          9          9          9          9          9          9          9          9          9          9          9          9          9          9          9          9          9          9          9          9          9          9          9          9          9          9          9          9          9          9          9          9          9          9          9          9          9          9          9          9          9          9          9          9          9          9          9          9          9          9          9          9          9          9          9          9          9          9          9          9          9          9          9          9          9          9          9          9          9          9          9          9          9          9          9          9          9          9          9          9          9          9          9          9          9          9          9          9          9          9          9          9          9          9          9          9          9          9          9          9          9          9          9          9          9          9          9          9          9          9          9          9          9          9          9          9          9          9          9          9          9          9          9          9          9          9          9          9          9          9          9          9          9          9          9          9          9          9          9          9          9          9          9          9          9          9          9          9          9          9          9          9          9          9          9          9          9          9          9          9          9          9          9          9          9          9          9          9          9          9          9          9          9          9          9          9          9          9          9          9          9          9          9          9          9          9          9          9          9          9          9          9          9          9          9          9          9          9          9          9          9          9          9          9          9          9          9          9          9          9          9          9          9          9          9          9          9          9          9          9          9          9          9          9          9          9          9          9          9          9          9          9          9          9          9          9          9          9          9          9          9          9          9          9          9          9          9          9          9          9          9          9          9          9          9          9          9          9          9          9          9          9          9          9          9          9          9          9          9          9          9          9          9          9          9          9          9          9          9          9          9          9          9          9          9          9          9          9          9          9          9          9          9          9          9          9          9          9          9          9          9          9          9          9          9          9          9          9          9          9          9          9          9          9          9          9          9          9          9          9          9          9          9          9          9          9          9          9          9          9          9          9          9          9          9          9          9          9          9          9          9          9          9          9          9          9          9          9          9          9          9          9          9          9          9          9          9          9          9          9          9          9          9          9          9          9          9          9          9          9          9          9          9          9          9          9          9          9          9          9          9          9          9          9          9          9          9          9          9          9          9          9          9          9          9          9          9          9          9          9          9          9          9          9          9          9          9          9          9          9          9          9          9          9          9          9          9          9          9          9          9          9          9          9          9          9          9          9          9          9          9          9          9          9          9          9          9          9          9          9          9          9          9          9          9          9          9          9          9          9          9          9          9          9          9          9          9          9          9          9          9          9          9          9          9          9          9          9          9          9          9          9          9          9          9          9          9          9          9          9          9          9          9          9          9          9          9          9          9          9          9          9          9          9          9          9          9          9          9          9          9          9          9          9          9          9          9          9          9          9          9          9          9          9          9          9          9          9          9          9          9          9          9          9          9          9          9          9          9          9          9          9          9          9          9          9          9          9          9          9          9          9          9          9          9          9          9          9          9          9          9          9          9          9          9          9          9          9          9          9          9          9          9          9          9          9          9          9          9          9          9          9          9          9          9          9          9          9          9          9          9          9          9          9          9          9          9          9          9          9          9          9          9          9          9          9          9          9          9          9          9          9          9          9          9          9          9          9          9          9          9          9          9          9          9          9          9          9          9          9          9 </DataArray>
</Cells>
<CellData>
<DataArray type="Int32"                                    Name="material"                                                      NumberOfComponents=" 1" format="ascii">
         1          1          1          1          1          1          1          1          1          1          1          1          1          1          1          1          1          1          1          1          1          1          1          1          1          1          1          1          1          1          1          1          1          1          1          1          1          1          1          1          1          1          1          1          1          1          1          1          1          1          1          1          1          1          1          1          1          1          1          1          1          1          1          1          1          1          1          1          1          1          1          1          1          1          1          1          1          1          1          1          1          1          1          1          1          1          1          1          1          1          1          1          1          1          1          1          1          1          1          1          1          1          1          1          1          1          1          1          1          1          1          1          1          1          1          1          1          1          1          1          1          1          1          1          1          1          1          1          1          1          1          1          1          1          1          1          1          1          1          1          1          1          1          1          1          1          1          1          1          1          1          1          1          1          1          1          1          1          1          1          1          1          1          1          1          1          1          1          1          1          1          1          1          1          1          1          1          1          1          1          1          1          1          1          1          1          1          1          1          1          1          1          1          1          1          1          1          1          1          1          1          1          1          1          1          1          1          1          1          1          1          1          1          1          1          1          1          1          1          1          1          1          1          1          1          1          1          1          1          1          1          1          1          1          1          1          1          1          1          1          1          1          1          1          1          1          1          1          1          1          1          1          1          1          1          1          1          1          1          1          1          1          1          1          1          1          1          1          1          1          1          1          1          1          1          1          1          1          1          1          1          1          1          1          1          1          1          1          1          1          1          1          1          1          1          1          1          1          1          1          1          1          1          1          1          1          1          1          1          1          1          1          1          1          1          1          1          1          1          1          1          1          1          1          1          1          1          1          1          1          1          1          1          1          1          1          1          1          1          1          1          1          1          1          1          1          1          1          1          1          1          1          1          1          1          1          1          1          1          1          1          1          1          1          1          1          1          1          1          1          1          1          1          1          1          1          1          1          1          1          1          1          1          1          1          1          1          1          1          1          1          1          1          1          1          1          1          1          1          1          1          1          1          1          1          1          1          1          1          1          1          1          1          1          1          1          1          1          1          1          1          1          1          1          1          1          1          1          1          1          1          1          1          1          1          1          1          1          1          1          1          1          1          1          1          1          1          1          1          1          1          1          1          1          1          1          1          1          1          1          1          1          1          1          1          1          1          1          1          1          1          1          1          1          1          1          1          1          1          1          1          1          1          1          1          1          1          1          1          1          1          1          1          1          1          1          1          1          1          1          1          1          1          1          1          1          1          1          1          1          1          1          1          1          1          1          1          1          1          1          1          1          1          1          1          1          1          1          1          1          1          1          1          1          1          1          1          1          1          1          1          1          1          1          1          1          1          1          1          1          1          1          1          1          1          1          1          1          1          1          1          1          1          1          1          1          1          1          1          1          1          1          1          1          1          1          1          1          1          1          1          1          1          1          1          1          1          1          1          1          1          1          1          1          1          1          1          1          1          1          1          1          1          1          1          1          1          1          1          1          1          1          1          1          1          1          1          1          1          1          1          1          1          1          1          1          1          1          1          1          1          1          1          1          1          1          1          1          1          1          1          1          1          1          1          1          1          1          1          1          1          1          1          1          1          1          1          1          1          1          1          1          1          1          1          1          1          1          1          1          1          1          1          1          1          1          1          1          1          1          1          1          1          1          1          1          1          1          1          1          1          1          1          1          1          1          1          1          1          1          1          1          1          1          1          1          1          1          1          1          1          1          1          1          1          1          1          1          1          1          1          1          1          1          1          1          1          1          1          1          1          1          1          1          1          1          1          1          1          1          1          1          1          1          1          1          1          1          1          1          1          1          1          1          1          1          1          1          1          1          1          1          1          1          1          1          1          1          1          1          1          1          1          1          1          1          1          1          1          1          1          1          1          1          1          1          1          1          1          1          1          1          1          1          1          1          1          1          1          1          1          1          1          1          1          1          1          1          1          1          1          1          1          1          1          1          1          1          1          1          1          1          1          1          1          1          1          1          1          1          1          1          1          1          1          1          1          1          1          1          1          1          1          1          1          1          1          1          1          1          1          1          1          1          1          1          1          1          1          1          1          1          1          1          1          1          1          1          1          1          1          1          1          1          1          1          1          1          1          1          1          1          1          1          1          1          1          1          1          1          1          1          1          1          1          1          1          1          1          1          1          1          1          1          1          1          1          1          1          1          1          1          1          1          1          1          1          1          1          1          1          1          1          1          1          1          1          1          1          1          1          1          1          1          1          1          1          1          1          1          1          1          1          1          1          1          1          1          1          1          1          1          1          1          1          1          1          1          1          1          1          1          1          1          1          1          1          1          1          1          1          1          1          1          1          1          1          1          1          1          1          1          1          1          1          1          1          1          1          1          1          1          1          1          1          1          1          1          1          1          1          1          1          1          1          1          1          1          1          1          1          1          1          1          1          1          1          1          1          1          1          1          1          1 </DataArray>
</CellData>
<PointData>
<DataArray type="Float64"                                    Name="u"                                                      NumberOfComponents=" 3" format="ascii">
              0.000000201               0.000000000               1.000000000              -0.000000111               0.000000000               1.000000000              -0.000000076               0.000000000               1.000000000              -0.000000012               0.000000000               1.000000000              -0.000000005              -0.000000000               1.000000000              -0.000000010              -0.000000000               1.000000000              -0.000000060               0.000000000               1.000000000              -0.000000177               0.000000000               1.000000000              -0.000000312              -0.000000000               1.000000000              -0.000000423              -0.000000000               1.000000000              -0.000000471              -0.000000000               1.000000000              -0.000000413              -0.000000000               1.000000000              -0.000000264              -0.000000000               1.000000000              -0.000000091              -0.000000000               1.000000000               0.000000021               0.000000000               1.000000000              -0.000000016               0.000000000               1.000000000              -0.000000276               0.000000000               1.000000000               0.000000168               0.000001064               1.000000000              -0.000000114               0.000000925               1.000000000              -0.000000064               0.000001000               1.000000000               0.000000033               0.000001251               1.000000000               0.000000006               0.000001527               1.000000000              -0.000000079               0.000001685               1.000000000              -0.000000113               0.000001940               1.000000000              -0.000000141               0.000002200               1.000000000              -0.000000178               0.000002374               1.000000000              -0.000000169               0.000002472               1.000000000              -0.000000101               0.000002464               1.000000000               0.000000003               0.000002412               1.000000000               0.000000123               0.000002398               1.000000000               0.000000204               0.000002504               1.000000000               0.000000164               0.000002799               1.000000000              -0.000000079               0.000003303               1.000000000              -0.000000618               0.000003973               1.000000000               0.000000159               0.000002168               1.000000000              -0.000000083               0.000001858               1.000000000              -0.000000056               0.000002050               1.000000000              -0.000000003               0.000002571               1.000000000               0.000000006               0.000003198               1.000000000               0.000000025               0.000003541               1.000000000               0.000000060               0.000004118               1.000000000               0.000000093               0.000004628               1.000000000               0.000000152               0.000005028               1.000000000               0.000000246               0.000005353               1.000000000               0.000000333               0.000005591               1.000000000               0.000000329               0.000005854               1.000000000               0.000000163               0.000006244               1.000000000              -0.000000223               0.000006896               1.000000000              -0.000000887               0.000007928               1.000000000              -0.000001877               0.000009429               1.000000000              -0.000003246               0.000011479               1.000000000               0.000000180               0.000003405               1.000000000              -0.000000017               0.000002906               1.000000000               0.000000074               0.000003245               1.000000000               0.000000090               0.000004129               1.000000000               0.000000048               0.000005118               1.000000000               0.000000015               0.000005872               1.000000000              -0.000000020               0.000006810               1.000000000               0.000000029               0.000007669               1.000000000               0.000000078               0.000008476               1.000000000               0.000000078               0.000009265               1.000000000              -0.000000011               0.000010137               1.000000000              -0.000000341               0.000011208               1.000000000              -0.000001015               0.000012618               1.000000000              -0.000002082               0.000014480               1.000000000              -0.000003594               0.000016887               1.000000000              -0.000005562               0.000019942               1.000000000              -0.000007972               0.000023735               1.000000000               0.000000215               0.000004842               1.000000000               0.000000139               0.000004166               1.000000000               0.000000203               0.000004677               1.000000000               0.000000075               0.000006030               1.000000000               0.000000000               0.000007574               1.000000000              -0.000000010               0.000008975               1.000000000              -0.000000021               0.000010446               1.000000000              -0.000000026               0.000011966               1.000000000              -0.000000158               0.000013430               1.000000000              -0.000000459               0.000015036               1.000000000              -0.000001021               0.000016901               1.000000000              -0.000001979               0.000019196               1.000000000              -0.000003402               0.000022048               1.000000000              -0.000005313               0.000025534               1.000000000              -0.000007724               0.000029720               1.000000000              -0.000010626               0.000034641               1.000000000              -0.000013991               0.000040313               1.000000000               0.000000266               0.000006476               1.000000000               0.000000337               0.000005627               1.000000000               0.000000331               0.000006473               1.000000000               0.000000175               0.000008467               1.000000000               0.000000052               0.000010823               1.000000000              -0.000000043               0.000012932               1.000000000              -0.000000120               0.000015181               1.000000000              -0.000000291               0.000017549               1.000000000              -0.000000700               0.000019981               1.000000000              -0.000001446               0.000022745               1.000000000              -0.000002595               0.000025980               1.000000000              -0.000004263               0.000029838               1.000000000              -0.000006501               0.000034399               1.000000000              -0.000009272               0.000039718               1.000000000              -0.000012571               0.000045819               1.000000000              -0.000016371               0.000052690               1.000000000              -0.000020633               0.000060333               1.000000000               0.000000332               0.000008307               1.000000000               0.000000557               0.000007293               1.000000000               0.000000521               0.000008673               1.000000000               0.000000205               0.000011385               1.000000000              -0.000000124               0.000014559               1.000000000              -0.000000257               0.000017513               1.000000000              -0.000000434               0.000020720               1.000000000              -0.000000799               0.000024144               1.000000000              -0.000001577               0.000027840               1.000000000              -0.000002797               0.000032055               1.000000000              -0.000004537               0.000037002               1.000000000              -0.000006923               0.000042709               1.000000000              -0.000009923               0.000049277               1.000000000              -0.000013496               0.000056708               1.000000000              -0.000017639               0.000064989               1.000000000              -0.000022305               0.000074117               1.000000000              -0.000027443               0.000084062               1.000000000               0.000000370               0.000010277               1.000000000               0.000000794               0.000009196               1.000000000               0.000000620               0.000011120               1.000000000               0.000000096               0.000014644               1.000000000              -0.000000282               0.000018690               1.000000000              -0.000000442               0.000022620               1.000000000              -0.000000725               0.000026977               1.000000000              -0.000001399               0.000031704               1.000000000              -0.000002591               0.000036933               1.000000000              -0.000004280               0.000042982               1.000000000              -0.000006651               0.000049931               1.000000000              -0.000009695               0.000057874               1.000000000              -0.000013381               0.000066812               1.000000000              -0.000017667               0.000076754               1.000000000              -0.000022539               0.000087657               1.000000000              -0.000027933               0.000099431               1.000000000              -0.000033789               0.000111945               1.000000000               0.000000306               0.000012220               1.000000000               0.000001010               0.000011251               1.000000000               0.000000688               0.000013749               1.000000000               0.000000016               0.000018109               1.000000000              -0.000000420               0.000023098               1.000000000              -0.000000570               0.000028275               1.000000000              -0.000001019               0.000034003               1.000000000              -0.000002062               0.000040340               1.000000000              -0.000003594               0.000047454               1.000000000              -0.000005801               0.000055672               1.000000000              -0.000008746               0.000064977               1.000000000              -0.000012366               0.000075434               1.000000000              -0.000016613               0.000087109               1.000000000              -0.000021475               0.000099896               1.000000000              -0.000026874               0.000113762               1.000000000              -0.000032748               0.000128539               1.000000000              -0.000038931               0.000143997               1.000000000               0.000000199               0.000014241               1.000000000               0.000001184               0.000013297               1.000000000               0.000001030               0.000015465               1.000000000               0.000000300               0.000019473               1.000000000              -0.000000320               0.000024528               1.000000000              -0.000000506               0.000029988               1.000000000              -0.000000765               0.000035853               1.000000000              -0.000001479               0.000042291               1.000000000              -0.000002534               0.000049288               1.000000000              -0.000004040               0.000057120               1.000000000              -0.000006094               0.000065923               1.000000000              -0.000008660               0.000075657               1.000000000              -0.000011745               0.000086426               1.000000000              -0.000015270               0.000098257               1.000000000              -0.000019249               0.000111123               1.000000000              -0.000023659               0.000124998               1.000000000              -0.000028459               0.000139863               1.000000000               0.000000147               0.000016223               1.000000000               0.000001310               0.000015349               1.000000000               0.000001233               0.000017157               1.000000000               0.000000557               0.000020867               1.000000000              -0.000000144               0.000025835               1.000000000              -0.000000480               0.000031446               1.000000000              -0.000000601               0.000037497               1.000000000              -0.000001016               0.000044056               1.000000000              -0.000001685               0.000051124               1.000000000              -0.000002667               0.000058775               1.000000000              -0.000003987               0.000067227               1.000000000              -0.000005671               0.000076525               1.000000000              -0.000007743               0.000086618               1.000000000              -0.000010165               0.000097600               1.000000000              -0.000012901               0.000109560               1.000000000              -0.000015987               0.000122372               1.000000000              -0.000019449               0.000136200               1.000000000               0.000000080               0.000018009               1.000000000               0.000001347               0.000017369               1.000000000               0.000001358               0.000018945               1.000000000               0.000000811               0.000022381               1.000000000               0.000000108               0.000027121               1.000000000              -0.000000333               0.000032728               1.000000000              -0.000000477               0.000038868               1.000000000              -0.000000637               0.000045556               1.000000000              -0.000001038               0.000052715               1.000000000              -0.000001603               0.000060379               1.000000000              -0.000002418               0.000068644               1.000000000              -0.000003452               0.000077662               1.000000000              -0.000004720               0.000087419               1.000000000              -0.000006242               0.000097848               1.000000000              -0.000007956               0.000109106               1.000000000              -0.000009849               0.000121133               1.000000000              -0.000011950               0.000133987               1.000000000               0.000000029               0.000019612               1.000000000               0.000001262               0.000019238               1.000000000               0.000001380               0.000020735               1.000000000               0.000000965               0.000023877               1.000000000               0.000000339               0.000028297               1.000000000              -0.000000140               0.000033756               1.000000000              -0.000000342               0.000039916               1.000000000              -0.000000396               0.000046709               1.000000000              -0.000000590               0.000054005               1.000000000              -0.000000882               0.000061763               1.000000000              -0.000001294               0.000070006               1.000000000              -0.000001864               0.000078863               1.000000000              -0.000002545               0.000088396               1.000000000              -0.000003372               0.000098583               1.000000000              -0.000004326               0.000109365               1.000000000              -0.000005351               0.000120899               1.000000000              -0.000006404               0.000133110               1.000000000               0.000000015               0.000020980               1.000000000               0.000001058               0.000020877               1.000000000               0.000001227               0.000022324               1.000000000               0.000000950               0.000025227               1.000000000               0.000000505               0.000029414               1.000000000               0.000000047               0.000034675               1.000000000              -0.000000179               0.000040773               1.000000000              -0.000000227               0.000047550               1.000000000              -0.000000284               0.000054914               1.000000000              -0.000000403               0.000062756               1.000000000              -0.000000570               0.000071028               1.000000000              -0.000000817               0.000079838               1.000000000              -0.000001133               0.000089225               1.000000000              -0.000001497               0.000099288               1.000000000              -0.000001930               0.000109870               1.000000000              -0.000002397               0.000121078               1.000000000              -0.000002844               0.000132902               1.000000000              -0.000000004               0.000021947               1.000000000               0.000000753               0.000022135               1.000000000               0.000000917               0.000023622               1.000000000               0.000000776               0.000026371               1.000000000               0.000000476               0.000030344               1.000000000               0.000000158               0.000035395               1.000000000              -0.000000041               0.000041380               1.000000000              -0.000000083               0.000048101               1.000000000              -0.000000112               0.000055463               1.000000000              -0.000000149               0.000063360               1.000000000              -0.000000197               0.000071680               1.000000000              -0.000000265               0.000080476               1.000000000              -0.000000351               0.000089777               1.000000000              -0.000000453               0.000099697               1.000000000              -0.000000591               0.000110192               1.000000000              -0.000000761               0.000121188               1.000000000              -0.000000948               0.000132725               1.000000000              -0.000000009               0.000022549               1.000000000               0.000000399               0.000022951               1.000000000               0.000000489               0.000024485               1.000000000               0.000000444               0.000027157               1.000000000               0.000000295               0.000031019               1.000000000               0.000000132               0.000035914               1.000000000               0.000000012               0.000041753               1.000000000              -0.000000027               0.000048416               1.000000000              -0.000000042               0.000055753               1.000000000              -0.000000048               0.000063663               1.000000000              -0.000000041               0.000072030               1.000000000              -0.000000038               0.000080829               1.000000000              -0.000000038               0.000090090               1.000000000              -0.000000042               0.000099888               1.000000000              -0.000000059               0.000110278               1.000000000              -0.000000107               0.000121132               1.000000000              -0.000000191               0.000132483               1.000000000              -0.000000000               0.000022764               1.000000000              -0.000000000               0.000023233               1.000000000              -0.000000000               0.000024783               1.000000000               0.000000000               0.000027434               1.000000000               0.000000000               0.000031244               1.000000000               0.000000000               0.000036106               1.000000000              -0.000000000               0.000041921               1.000000000               0.000000000               0.000048555               1.000000000               0.000000000               0.000055865               1.000000000               0.000000000               0.000063775               1.000000000              -0.000000000               0.000072157               1.000000000              -0.000000000               0.000080942               1.000000000               0.000000000               0.000090186               1.000000000              -0.000000000               0.000099938               1.000000000              -0.000000000               0.000110272               1.000000000               0.000000000               0.000121066               1.000000000               0.000000000               0.000132349               1.000000000               0.000000201               0.000000000               1.000000000              -0.000000111               0.000000000               1.000000000              -0.000000076               0.000000000               1.000000000              -0.000000012               0.000000000               1.000000000              -0.000000005              -0.000000000               1.000000000              -0.000000010              -0.000000000               1.000000000              -0.000000060               0.000000000               1.000000000              -0.000000177               0.000000000               1.000000000              -0.000000312              -0.000000000               1.000000000              -0.000000423              -0.000000000               1.000000000              -0.000000471              -0.000000000               1.000000000              -0.000000413              -0.000000000               1.000000000              -0.000000264              -0.000000000               1.000000000              -0.000000091              -0.000000000               1.000000000               0.000000021               0.000000000               1.000000000              -0.000000016               0.000000000               1.000000000              -0.000000276               0.000000000               1.000000000               0.000000168              -0.000001064               1.000000000              -0.000000114              -0.000000925               1.000000000              -0.000000064              -0.000001000               1.000000000               0.000000033              -0.000001251               1.000000000               0.000000006              -0.000001527               1.000000000              -0.000000079              -0.000001685               1.000000000              -0.000000113              -0.000001940               1.000000000              -0.000000141              -0.000002200               1.000000000              -0.000000178              -0.000002374               1.000000000              -0.000000169              -0.000002472               1.000000000              -0.000000101              -0.000002464               1.000000000               0.000000003              -0.000002412               1.000000000               0.000000123              -0.000002398               1.000000000               0.000000204              -0.000002504               1.000000000               0.000000164              -0.000002799               1.000000000              -0.000000079              -0.000003303               1.000000000              -0.000000618              -0.000003973               1.000000000               0.000000159              -0.000002168               1.000000000              -0.000000083              -0.000001858               1.000000000              -0.000000056              -0.000002050               1.000000000              -0.000000003              -0.000002571               1.000000000               0.000000006              -0.000003198               1.000000000               0.000000025              -0.000003541               1.000000000               0.000000060              -0.000004118               1.000000000               0.000000093              -0.000004628               1.000000000               0.000000152              -0.000005028               1.000000000               0.000000246              -0.000005353               1.000000000               0.000000333              -0.000005591               1.000000000               0.000000329              -0.000005854               1.000000000               0.000000163              -0.000006244               1.000000000              -0.000000223              -0.000006896               1.000000000              -0.000000887              -0.000007928               1.000000000              -0.000001877              -0.000009429               1.000000000              -0.000003246              -0.000011479               1.000000000               0.000000180              -0.000003405               1.000000000              -0.000000017              -0.000002906               1.000000000               0.000000074              -0.000003245               1.000000000               0.000000090              -0.000004129               1.000000000               0.000000048              -0.000005118               1.000000000               0.000000015              -0.000005872               1.000000000              -0.000000020              -0.000006810               1.000000000               0.000000029              -0.000007669               1.000000000               0.000000078              -0.000008476               1.000000000               0.000000078              -0.000009265               1.000000000              -0.000000011              -0.000010137               1.000000000              -0.000000341              -0.000011208               1.000000000              -0.000001015              -0.000012618               1.000000000              -0.000002082              -0.000014480               1.000000000              -0.000003594              -0.000016887               1.000000000              -0.000005562              -0.000019942               1.000000000              -0.000007972              -0.000023735               1.000000000               0.000000215              -0.000004842               1.000000000               0.000000139              -0.000004166               1.000000000               0.000000203              -0.000004677               1.000000000               0.000000075              -0.000006030               1.000000000               0.000000000              -0.000007574               1.000000000              -0.000000010              -0.000008975               1.000000000              -0.000000021              -0.000010446               1.000000000              -0.000000026              -0.000011966               1.000000000              -0.000000158              -0.000013430               1.000000000              -0.000000459              -0.000015036               1.000000000              -0.000001021              -0.000016901               1.000000000              -0.000001979              -0.000019196               1.000000000              -0.000003402              -0.000022048               1.000000000              -0.000005313              -0.000025534               1.000000000              -0.000007724              -0.000029720               1.000000000              -0.000010626              -0.000034641               1.000000000              -0.000013991              -0.000040313               1.000000000               0.000000266              -0.000006476               1.000000000               0.000000337              -0.000005627               1.000000000               0.000000331              -0.000006473               1.000000000               0.000000175              -0.000008467               1.000000000               0.000000052              -0.000010823               1.000000000              -0.000000043              -0.000012932               1.000000000              -0.000000120              -0.000015181               1.000000000              -0.000000291              -0.000017549               1.000000000              -0.000000700              -0.000019981               1.000000000              -0.000001446              -0.000022745               1.000000000              -0.000002595              -0.000025980               1.000000000              -0.000004263              -0.000029838               1.000000000              -0.000006501              -0.000034399               1.000000000              -0.000009272              -0.000039718               1.000000000              -0.000012571              -0.000045819               1.000000000              -0.000016371              -0.000052690               1.000000000              -0.000020633              -0.000060333               1.000000000               0.000000332              -0.000008307               1.000000000               0.000000557              -0.000007293               1.000000000               0.000000521              -0.000008673               1.000000000               0.000000205              -0.000011385               1.000000000              -0.000000124              -0.000014559               1.000000000              -0.000000257              -0.000017513               1.000000000              -0.000000434              -0.000020720               1.000000000              -0.000000799              -0.000024144               1.000000000              -0.000001577              -0.000027840               1.000000000              -0.000002797              -0.000032055               1.000000000              -0.000004537              -0.000037002               1.000000000              -0.000006923              -0.000042709               1.000000000              -0.000009923              -0.000049277               1.000000000              -0.000013496              -0.000056708               1.000000000              -0.000017639              -0.000064989               1.000000000              -0.000022305              -0.000074117               1.000000000              -0.000027443              -0.000084062               1.000000000               0.000000370              -0.000010277               1.000000000               0.000000794              -0.000009196               1.000000000               0.000000620              -0.000011120               1.000000000               0.000000096              -0.000014644               1.000000000              -0.000000282              -0.000018690               1.000000000              -0.000000442              -0.000022620               1.000000000              -0.000000725              -0.000026977               1.000000000              -0.000001399              -0.000031704               1.000000000              -0.000002591              -0.000036933               1.000000000              -0.000004280              -0.000042982               1.000000000              -0.000006651              -0.000049931               1.000000000              -0.000009695              -0.000057874               1.000000000              -0.000013381              -0.000066812               1.000000000              -0.000017667              -0.000076754               1.000000000              -0.000022539              -0.000087657               1.000000000              -0.000027933              -0.000099431               1.000000000              -0.000033789              -0.000111945               1.000000000               0.000000306              -0.000012220               1.000000000               0.000001010              -0.000011251               1.000000000               0.000000688              -0.000013749               1.000000000               0.000000016              -0.000018109               1.000000000              -0.000000420              -0.000023098               1.000000000              -0.000000570              -0.000028275               1.000000000              -0.000001019              -0.000034003               1.000000000              -0.000002062              -0.000040340               1.000000000              -0.000003594              -0.000047454               1.000000000              -0.000005801              -0.000055672               1.000000000              -0.000008746              -0.000064977               1.000000000              -0.000012366              -0.000075434               1.000000000              -0.000016613              -0.000087109               1.000000000              -0.000021475              -0.000099896               1.000000000              -0.000026874              -0.000113762               1.000000000              -0.000032748              -0.000128539               1.000000000              -0.000038931              -0.000143997               1.000000000               0.000000199              -0.000014241               1.000000000               0.000001184              -0.000013297               1.000000000               0.000001030              -0.000015465               1.000000000               0.000000300              -0.000019473               1.000000000              -0.000000320              -0.000024528               1.000000000              -0.000000506              -0.000029988               1.000000000              -0.000000765              -0.000035853               1.000000000              -0.000001479              -0.000042291               1.000000000              -0.000002534              -0.000049288               1.000000000              -0.000004040              -0.000057120               1.000000000              -0.000006094              -0.000065923               1.000000000              -0.000008660              -0.000075657               1.000000000              -0.000011745              -0.000086426               1.000000000              -0.000015270              -0.000098257               1.000000000              -0.000019249              -0.000111123               1.000000000              -0.000023659              -0.000124998               1.000000000              -0.000028459              -0.000139863               1.000000000               0.000000147              -0.000016223               1.000000000               0.000001310              -0.000015349               1.000000000               0.000001233              -0.000017157               1.000000000               0.000000557              -0.000020867               1.000000000              -0.000000144              -0.000025835               1.000000000              -0.000000480              -0.000031446               1.000000000              -0.000000601              -0.000037497               1.000000000              -0.000001016              -0.000044056               1.000000000              -0.000001685              -0.000051124               1.000000000              -0.000002667              -0.000058775               1.000000000              -0.000003987              -0.000067227               1.000000000              -0.000005671              -0.000076525               1.000000000              -0.000007743              -0.000086618               1.000000000              -0.000010165              -0.000097600               1.000000000              -0.000012901              -0.000109560               1.000000000              -0.000015987              -0.000122372               1.000000000              -0.000019449              -0.000136200               1.000000000               0.000000080              -0.000018009               1.000000000               0.000001347              -0.000017369               1.000000000               0.000001358              -0.000018945               1.000000000               0.000000811              -0.000022381               1.000000000               0.000000108              -0.000027121               1.000000000              -0.000000333              -0.000032728               1.000000000              -0.000000477              -0.000038868               1.000000000              -0.000000637              -0.000045556               1.000000000              -0.000001038              -0.000052715               1.000000000              -0.000001603              -0.000060379               1.000000000              -0.000002418              -0.000068644               1.000000000              -0.000003452              -0.000077662               1.000000000              -0.000004720              -0.000087419               1.000000000              -0.000006242              -0.000097848               1.000000000              -0.000007956              -0.000109106               1.000000000              -0.000009849              -0.000121133               1.000000000              -0.000011950              -0.000133987               1.000000000               0.000000029              -0.000019612               1.000000000               0.000001262              -0.000019238               1.000000000               0.000001380              -0.000020735               1.000000000               0.000000965              -0.000023877               1.000000000               0.000000339              -0.000028297               1.000000000              -0.000000140              -0.000033756               1.000000000              -0.000000342              -0.000039916               1.000000000              -0.000000396              -0.000046709               1.000000000              -0.000000590              -0.000054005               1.000000000              -0.000000882              -0.000061763               1.000000000              -0.000001294              -0.000070006               1.000000000              -0.000001864              -0.000078863               1.000000000              -0.000002545              -0.000088396               1.000000000              -0.000003372              -0.000098583               1.000000000              -0.000004326              -0.000109365               1.000000000              -0.000005351              -0.000120899               1.000000000              -0.000006404              -0.000133110               1.000000000               0.000000015              -0.000020980               1.000000000               0.000001058              -0.000020877               1.000000000               0.000001227              -0.000022324               1.000000000               0.000000950              -0.000025227               1.000000000               0.000000505              -0.000029414               1.000000000               0.000000047              -0.000034675               1.000000000              -0.000000179              -0.000040773               1.000000000              -0.000000227              -0.000047550               1.000000000              -0.000000284              -0.000054914               1.000000000              -0.000000403              -0.000062756               1.000000000              -0.000000570              -0.000071028               1.000000000              -0.000000817              -0.000079838               1.000000000              -0.000001133              -0.000089225               1.000000000              -0.000001497              -0.000099288               1.000000000              -0.000001930              -0.000109870               1.000000000              -0.000002397              -0.000121078               1.000000000              -0.000002844              -0.000132902               1.000000000              -0.000000004              -0.000021947               1.000000000               0.000000753              -0.000022135               1.000000000               0.000000917              -0.000023622               1.000000000               0.000000776              -0.000026371               1.000000000               0.000000476              -0.000030344               1.000000000               0.000000158              -0.000035395               1.000000000              -0.000000041              -0.000041380               1.000000000              -0.000000083              -0.000048101               1.000000000              -0.000000112              -0.000055463               1.000000000              -0.000000149              -0.000063360               1.000000000              -0.000000197              -0.000071680               1.000000000              -0.000000265              -0.000080476               1.000000000              -0.000000351              -0.000089777               1.000000000              -0.000000453              -0.000099697               1.000000000              -0.000000591              -0.000110192               1.000000000              -0.000000761              -0.000121188               1.000000000              -0.000000948              -0.000132725               1.000000000              -0.000000009              -0.000022549               1.000000000               0.000000399              -0.000022951               1.000000000               0.000000489              -0.000024485               1.000000000               0.000000444              -0.000027157               1.000000000               0.000000295              -0.000031019               1.000000000               0.000000132              -0.000035914               1.000000000               0.000000012              -0.000041753               1.000000000              -0.000000027              -0.000048416               1.000000000              -0.000000042              -0.000055753               1.000000000              -0.000000048              -0.000063663               1.000000000              -0.000000041              -0.000072030               1.000000000              -0.000000038              -0.000080829               1.000000000              -0.000000038              -0.000090090               1.000000000              -0.000000042              -0.000099888               1.000000000              -0.000000059              -0.000110278               1.000000000              -0.000000107              -0.000121132               1.000000000              -0.000000191              -0.000132483               1.000000000              -0.000000000              -0.000022764               1.000000000              -0.000000000              -0.000023233               1.000000000              -0.000000000              -0.000024783               1.000000000               0.000000000              -0.000027434               1.000000000              -0.000000000              -0.000031244               1.000000000              -0.000000000              -0.000036106               1.000000000              -0.000000000              -0.000041921               1.000000000              -0.000000000              -0.000048555               1.000000000              -0.000000000              -0.000055865               1.000000000               0.000000000              -0.000063775               1.000000000               0.000000000              -0.000072157               1.000000000               0.000000000              -0.000080942               1.000000000              -0.000000000              -0.000090186               1.000000000              -0.000000000              -0.000099938               1.000000000              -0.000000000              -0.000110272               1.000000000               0.000000000              -0.000121066               1.000000000               0.000000000              -0.000132349               1.000000000              -0.000000201               0.000000000               1.000000000               0.000000111               0.000000000               1.000000000               0.000000076               0.000000000               1.000000000               0.000000012               0.000000000               1.000000000               0.000000005               0.000000000               1.000000000               0.000000010               0.000000000               1.000000000               0.000000060              -0.000000000               1.000000000               0.000000177              -0.000000000               1.000000000               0.000000312              -0.000000000               1.000000000               0.000000423               0.000000000               1.000000000               0.000000471               0.000000000               1.000000000               0.000000413              -0.000000000               1.000000000               0.000000264               0.000000000               1.000000000               0.000000091               0.000000000               1.000000000              -0.000000021               0.000000000               1.000000000               0.000000016               0.000000000               1.000000000               0.000000276               0.000000000               1.000000000              -0.000000168              -0.000001064               1.000000000               0.000000114              -0.000000925               1.000000000               0.000000064              -0.000001000               1.000000000              -0.000000033              -0.000001251               1.000000000              -0.000000006              -0.000001527               1.000000000               0.000000079              -0.000001685               1.000000000               0.000000113              -0.000001940               1.000000000               0.000000141              -0.000002200               1.000000000               0.000000178              -0.000002374               1.000000000               0.000000169              -0.000002472               1.000000000               0.000000101              -0.000002464               1.000000000              -0.000000003              -0.000002412               1.000000000              -0.000000123              -0.000002398               1.000000000              -0.000000204              -0.000002504               1.000000000              -0.000000164              -0.000002799               1.000000000               0.000000079              -0.000003303               1.000000000               0.000000618              -0.000003973               1.000000000              -0.000000159              -0.000002168               1.000000000               0.000000083              -0.000001858               1.000000000               0.000000056              -0.000002050               1.000000000               0.000000003              -0.000002571               1.000000000              -0.000000006              -0.000003198               1.000000000              -0.000000025              -0.000003541               1.000000000              -0.000000060              -0.000004118               1.000000000              -0.000000093              -0.000004628               1.000000000              -0.000000152              -0.000005028               1.000000000              -0.000000246              -0.000005353               1.000000000              -0.000000333              -0.000005591               1.000000000              -0.000000329              -0.000005854               1.000000000              -0.000000163              -0.000006244               1.000000000               0.000000223              -0.000006896               1.000000000               0.000000887              -0.000007928               1.000000000               0.000001877              -0.000009429               1.000000000               0.000003246              -0.000011479               1.000000000              -0.000000180              -0.000003405               1.000000000               0.000000017              -0.000002906               1.000000000              -0.000000074              -0.000003245               1.000000000              -0.000000090              -0.000004129               1.000000000              -0.000000048              -0.000005118               1.000000000              -0.000000015              -0.000005872               1.000000000               0.000000020              -0.000006810               1.000000000              -0.000000029              -0.000007669               1.000000000              -0.000000078              -0.000008476               1.000000000              -0.000000078              -0.000009265               1.000000000               0.000000011              -0.000010137               1.000000000               0.000000341              -0.000011208               1.000000000               0.000001015              -0.000012618               1.000000000               0.000002082              -0.000014480               1.000000000               0.000003594              -0.000016887               1.000000000               0.000005562              -0.000019942               1.000000000               0.000007972              -0.000023735               1.000000000              -0.000000215              -0.000004842               1.000000000              -0.000000139              -0.000004166               1.000000000              -0.000000203              -0.000004677               1.000000000              -0.000000075              -0.000006030               1.000000000              -0.000000000              -0.000007574               1.000000000               0.000000010              -0.000008975               1.000000000               0.000000021              -0.000010446               1.000000000               0.000000026              -0.000011966               1.000000000               0.000000158              -0.000013430               1.000000000               0.000000459              -0.000015036               1.000000000               0.000001021              -0.000016901               1.000000000               0.000001979              -0.000019196               1.000000000               0.000003402              -0.000022048               1.000000000               0.000005313              -0.000025534               1.000000000               0.000007724              -0.000029720               1.000000000               0.000010626              -0.000034641               1.000000000               0.000013991              -0.000040313               1.000000000              -0.000000266              -0.000006476               1.000000000              -0.000000337              -0.000005627               1.000000000              -0.000000331              -0.000006473               1.000000000              -0.000000175              -0.000008467               1.000000000              -0.000000052              -0.000010823               1.000000000               0.000000043              -0.000012932               1.000000000               0.000000120              -0.000015181               1.000000000               0.000000291              -0.000017549               1.000000000               0.000000700              -0.000019981               1.000000000               0.000001446              -0.000022745               1.000000000               0.000002595              -0.000025980               1.000000000               0.000004263              -0.000029838               1.000000000               0.000006501              -0.000034399               1.000000000               0.000009272              -0.000039718               1.000000000               0.000012571              -0.000045819               1.000000000               0.000016371              -0.000052690               1.000000000               0.000020633              -0.000060333               1.000000000              -0.000000332              -0.000008307               1.000000000              -0.000000557              -0.000007293               1.000000000              -0.000000521              -0.000008673               1.000000000              -0.000000205              -0.000011385               1.000000000               0.000000124              -0.000014559               1.000000000               0.000000257              -0.000017513               1.000000000               0.000000434              -0.000020720               1.000000000               0.000000799              -0.000024144               1.000000000               0.000001577              -0.000027840               1.000000000               0.000002797              -0.000032055               1.000000000               0.000004537              -0.000037002               1.000000000               0.000006923              -0.000042709               1.000000000               0.000009923              -0.000049277               1.000000000               0.000013496              -0.000056708               1.000000000               0.000017639              -0.000064989               1.000000000               0.000022305              -0.000074117               1.000000000               0.000027443              -0.000084062               1.000000000              -0.000000370              -0.000010277               1.000000000              -0.000000794              -0.000009196               1.000000000              -0.000000620              -0.000011120               1.000000000              -0.000000096              -0.000014644               1.000000000               0.000000282              -0.000018690               1.000000000               0.000000442              -0.000022620               1.000000000               0.000000725              -0.000026977               1.000000000               0.000001399              -0.000031704               1.000000000               0.000002591              -0.000036933               1.000000000               0.000004280              -0.000042982               1.000000000               0.000006651              -0.000049931               1.000000000               0.000009695              -0.000057874               1.000000000               0.000013381              -0.000066812               1.000000000               0.000017667              -0.000076754               1.000000000               0.000022539              -0.000087657               1.000000000               0.000027933              -0.000099431               1.000000000               0.000033789              -0.000111945               1.000000000              -0.000000306              -0.000012220               1.000000000              -0.000001010              -0.000011251               1.000000000              -0.000000688              -0.000013749               1.000000000              -0.000000016              -0.000018109               1.000000000               0.000000420              -0.000023098               1.000000000               0.000000570              -0.000028275               1.000000000               0.000001019              -0.000034003               1.000000000               0.000002062              -0.000040340               1.000000000               0.000003594              -0.000047454               1.000000000               0.000005801              -0.000055672               1.000000000               0.000008746              -0.000064977               1.000000000               0.000012366              -0.000075434               1.000000000               0.000016613              -0.000087109               1.000000000               0.000021475              -0.000099896               1.000000000               0.000026874              -0.000113762               1.000000000               0.000032748              -0.000128539               1.000000000               0.000038931              -0.000143997               1.000000000              -0.000000199              -0.000014241               1.000000000              -0.000001184              -0.000013297               1.000000000              -0.000001030              -0.000015465               1.000000000              -0.000000300              -0.000019473               1.000000000               0.000000320              -0.000024528               1.000000000               0.000000506              -0.000029988               1.000000000               0.000000765              -0.000035853               1.000000000               0.000001479              -0.000042291               1.000000000               0.000002534              -0.000049288               1.000000000               0.000004040              -0.000057120               1.000000000               0.000006094              -0.000065923               1.000000000               0.000008660              -0.000075657               1.000000000               0.000011745              -0.000086426               1.000000000               0.000015270              -0.000098257               1.000000000               0.000019249              -0.000111123               1.000000000               0.000023659              -0.000124998               1.000000000               0.000028459              -0.000139863               1.000000000              -0.000000147              -0.000016223               1.000000000              -0.000001310              -0.000015349               1.000000000              -0.000001233              -0.000017157               1.000000000              -0.000000557              -0.000020867               1.000000000               0.000000144              -0.000025835               1.000000000               0.000000480              -0.000031446               1.000000000               0.000000601              -0.000037497               1.000000000               0.000001016              -0.000044056               1.000000000               0.000001685              -0.000051124               1.000000000               0.000002667              -0.000058775               1.000000000               0.000003987              -0.000067227               1.000000000               0.000005671              -0.000076525               1.000000000               0.000007743              -0.000086618               1.000000000               0.000010165              -0.000097600               1.000000000               0.000012901              -0.000109560               1.000000000               0.000015987              -0.000122372               1.000000000               0.000019449              -0.000136200               1.000000000              -0.000000080              -0.000018009               1.000000000              -0.000001347              -0.000017369               1.000000000              -0.000001358              -0.000018945               1.000000000              -0.000000811              -0.000022381               1.000000000              -0.000000108              -0.000027121               1.000000000               0.000000333              -0.000032728               1.000000000               0.000000477              -0.000038868               1.000000000               0.000000637              -0.000045556               1.000000000               0.000001038              -0.000052715               1.000000000               0.000001603              -0.000060379               1.000000000               0.000002418              -0.000068644               1.000000000               0.000003452              -0.000077662               1.000000000               0.000004720              -0.000087419               1.000000000               0.000006242              -0.000097848               1.000000000               0.000007956              -0.000109106               1.000000000               0.000009849              -0.000121133               1.000000000               0.000011950              -0.000133987               1.000000000              -0.000000029              -0.000019612               1.000000000              -0.000001262              -0.000019238               1.000000000              -0.000001380              -0.000020735               1.000000000              -0.000000965              -0.000023877               1.000000000              -0.000000339              -0.000028297               1.000000000               0.000000140              -0.000033756               1.000000000               0.000000342              -0.000039916               1.000000000               0.000000396              -0.000046709               1.000000000               0.000000590              -0.000054005               1.000000000               0.000000882              -0.000061763               1.000000000               0.000001294              -0.000070006               1.000000000               0.000001864              -0.000078863               1.000000000               0.000002545              -0.000088396               1.000000000               0.000003372              -0.000098583               1.000000000               0.000004326              -0.000109365               1.000000000               0.000005351              -0.000120899               1.000000000               0.000006404              -0.000133110               1.000000000              -0.000000015              -0.000020980               1.000000000              -0.000001058              -0.000020877               1.000000000              -0.000001227              -0.000022324               1.000000000              -0.000000950              -0.000025227               1.000000000              -0.000000505              -0.000029414               1.000000000              -0.000000047              -0.000034675               1.000000000               0.000000179              -0.000040773               1.000000000               0.000000227              -0.000047550               1.000000000               0.000000284              -0.000054914               1.000000000               0.000000403              -0.000062756               1.000000000               0.000000570              -0.000071028               1.000000000               0.000000817              -0.000079838               1.000000000               0.000001133              -0.000089225               1.000000000               0.000001497              -0.000099288               1.000000000               0.000001930              -0.000109870               1.000000000               0.000002397              -0.000121078               1.000000000               0.000002844              -0.000132902               1.000000000               0.000000004              -0.000021947               1.000000000              -0.000000753              -0.000022135               1.000000000              -0.000000917              -0.000023622               1.000000000              -0.000000776              -0.000026371               1.000000000              -0.000000476              -0.000030344               1.000000000              -0.000000158              -0.000035395               1.000000000               0.000000041              -0.000041380               1.000000000               0.000000083              -0.000048101               1.000000000               0.000000112              -0.000055463               1.000000000               0.000000149              -0.000063360               1.000000000               0.000000197              -0.000071680               1.000000000               0.000000265              -0.000080476               1.000000000               0.000000351              -0.000089777               1.000000000               0.000000453              -0.000099697               1.000000000               0.000000591              -0.000110192               1.000000000               0.000000761              -0.000121188               1.000000000               0.000000948              -0.000132725               1.000000000               0.000000009              -0.000022549               1.000000000              -0.000000399              -0.000022951               1.000000000              -0.000000489              -0.000024485               1.000000000              -0.000000444              -0.000027157               1.000000000              -0.000000295              -0.000031019               1.000000000              -0.000000132              -0.000035914               1.000000000              -0.000000012              -0.000041753               1.000000000               0.000000027              -0.000048416               1.000000000               0.000000042              -0.000055753               1.000000000               0.000000048              -0.000063663               1.000000000               0.000000041              -0.000072030               1.000000000               0.000000038              -0.000080829               1.000000000               0.000000038              -0.000090090               1.000000000               0.000000042              -0.000099888               1.000000000               0.000000059              -0.000110278               1.000000000               0.000000107              -0.000121132               1.000000000               0.000000191              -0.000132483               1.000000000              -0.000000000              -0.000022764               1.000000000              -0.000000000              -0.000023233               1.000000000              -0.000000000              -0.000024783               1.000000000               0.000000000              -0.000027434               1.000000000              -0.000000000              -0.000031244               1.000000000              -0.000000000              -0.000036106               1.000000000              -0.000000000              -0.000041921               1.000000000              -0.000000000              -0.000048555               1.000000000              -0.000000000              -0.000055865               1.000000000               0.000000000              -0.000063775               1.000000000               0.000000000              -0.000072157               1.000000000               0.000000000              -0.000080942               1.000000000              -0.000000000              -0.000090186               1.000000000              -0.000000000              -0.000099938               1.000000000              -0.000000000              -0.000110272               1.000000000               0.000000000              -0.000121066               1.000000000               0.000000000              -0.000132349               1.000000000              -0.000000201               0.000000000               1.000000000               0.000000111               0.000000000               1.000000000               0.000000076               0.000000000               1.000000000               0.000000012               0.000000000               1.000000000               0.000000005               0.000000000               1.000000000               0.000000010               0.000000000               1.000000000               0.000000060              -0.000000000               1.000000000               0.000000177              -0.000000000               1.000000000               0.000000312              -0.000000000               1.000000000               0.000000423               0.000000000               1.000000000               0.000000471               0.000000000               1.000000000               0.000000413              -0.000000000               1.000000000               0.000000264               0.000000000               1.000000000               0.000000091               0.000000000               1.000000000              -0.000000021               0.000000000               1.000000000               0.000000016               0.000000000               1.000000000               0.000000276               0.000000000               1.000000000              -0.000000168               0.000001064               1.000000000               0.000000114               0.000000925               1.000000000               0.000000064               0.000001000               1.000000000              -0.000000033               0.000001251               1.000000000              -0.000000006               0.000001527               1.000000000               0.000000079               0.000001685               1.000000000               0.000000113               0.000001940               1.000000000               0.000000141               0.000002200               1.000000000               0.000000178               0.000002374               1.000000000               0.000000169               0.000002472               1.000000000               0.000000101               0.000002464               1.000000000              -0.000000003               0.000002412               1.000000000              -0.000000123               0.000002398               1.000000000              -0.000000204               0.000002504               1.000000000              -0.000000164               0.000002799               1.000000000               0.000000079               0.000003303               1.000000000               0.000000618               0.000003973               1.000000000              -0.000000159               0.000002168               1.000000000               0.000000083               0.000001858               1.000000000               0.000000056               0.000002050               1.000000000               0.000000003               0.000002571               1.000000000              -0.000000006               0.000003198               1.000000000              -0.000000025               0.000003541               1.000000000              -0.000000060               0.000004118               1.000000000              -0.000000093               0.000004628               1.000000000              -0.000000152               0.000005028               1.000000000              -0.000000246               0.000005353               1.000000000              -0.000000333               0.000005591               1.000000000              -0.000000329               0.000005854               1.000000000              -0.000000163               0.000006244               1.000000000               0.000000223               0.000006896               1.000000000               0.000000887               0.000007928               1.000000000               0.000001877               0.000009429               1.000000000               0.000003246               0.000011479               1.000000000              -0.000000180               0.000003405               1.000000000               0.000000017               0.000002906               1.000000000              -0.000000074               0.000003245               1.000000000              -0.000000090               0.000004129               1.000000000              -0.000000048               0.000005118               1.000000000              -0.000000015               0.000005872               1.000000000               0.000000020               0.000006810               1.000000000              -0.000000029               0.000007669               1.000000000              -0.000000078               0.000008476               1.000000000              -0.000000078               0.000009265               1.000000000               0.000000011               0.000010137               1.000000000               0.000000341               0.000011208               1.000000000               0.000001015               0.000012618               1.000000000               0.000002082               0.000014480               1.000000000               0.000003594               0.000016887               1.000000000               0.000005562               0.000019942               1.000000000               0.000007972               0.000023735               1.000000000              -0.000000215               0.000004842               1.000000000              -0.000000139               0.000004166               1.000000000              -0.000000203               0.000004677               1.000000000              -0.000000075               0.000006030               1.000000000              -0.000000000               0.000007574               1.000000000               0.000000010               0.000008975               1.000000000               0.000000021               0.000010446               1.000000000               0.000000026               0.000011966               1.000000000               0.000000158               0.000013430               1.000000000               0.000000459               0.000015036               1.000000000               0.000001021               0.000016901               1.000000000               0.000001979               0.000019196               1.000000000               0.000003402               0.000022048               1.000000000               0.000005313               0.000025534               1.000000000               0.000007724               0.000029720               1.000000000               0.000010626               0.000034641               1.000000000               0.000013991               0.000040313               1.000000000              -0.000000266               0.000006476               1.000000000              -0.000000337               0.000005627               1.000000000              -0.000000331               0.000006473               1.000000000              -0.000000175               0.000008467               1.000000000              -0.000000052               0.000010823               1.000000000               0.000000043               0.000012932               1.000000000               0.000000120               0.000015181               1.000000000               0.000000291               0.000017549               1.000000000               0.000000700               0.000019981               1.000000000               0.000001446               0.000022745               1.000000000               0.000002595               0.000025980               1.000000000               0.000004263               0.000029838               1.000000000               0.000006501               0.000034399               1.000000000               0.000009272               0.000039718               1.000000000               0.000012571               0.000045819               1.000000000               0.000016371               0.000052690               1.000000000               0.000020633               0.000060333               1.000000000              -0.000000332               0.000008307               1.000000000              -0.000000557               0.000007293               1.000000000              -0.000000521               0.000008673               1.000000000              -0.000000205               0.000011385               1.000000000               0.000000124               0.000014559               1.000000000               0.000000257               0.000017513               1.000000000               0.000000434               0.000020720               1.000000000               0.000000799               0.000024144               1.000000000               0.000001577               0.000027840               1.000000000               0.000002797               0.000032055               1.000000000               0.000004537               0.000037002               1.000000000               0.000006923               0.000042709               1.000000000               0.000009923               0.000049277               1.000000000               0.000013496               0.000056708               1.000000000               0.000017639               0.000064989               1.000000000               0.000022305               0.000074117               1.000000000               0.000027443               0.000084062               1.000000000              -0.000000370               0.000010277               1.000000000              -0.000000794               0.000009196               1.000000000              -0.000000620               0.000011120               1.000000000              -0.000000096               0.000014644               1.000000000               0.000000282               0.000018690               1.000000000               0.000000442               0.000022620               1.000000000               0.000000725               0.000026977               1.000000000               0.000001399               0.000031704               1.000000000               0.000002591               0.000036933               1.000000000               0.000004280               0.000042982               1.000000000               0.000006651               0.000049931               1.000000000               0.000009695               0.000057874               1.000000000               0.000013381               0.000066812               1.000000000               0.000017667               0.000076754               1.000000000               0.000022539               0.000087657               1.000000000               0.000027933               0.000099431               1.000000000               0.000033789               0.000111945               1.000000000              -0.000000306               0.000012220               1.000000000              -0.000001010               0.000011251               1.000000000              -0.000000688               0.000013749               1.000000000              -0.000000016               0.000018109               1.000000000               0.000000420               0.000023098               1.000000000               0.000000570               0.000028275               1.000000000               0.000001019               0.000034003               1.000000000               0.000002062               0.000040340               1.000000000               0.000003594               0.000047454               1.000000000               0.000005801               0.000055672               1.000000000               0.000008746               0.000064977               1.000000000               0.000012366               0.000075434               1.000000000               0.000016613               0.000087109               1.000000000               0.000021475               0.000099896               1.000000000               0.000026874               0.000113762               1.000000000               0.000032748               0.000128539               1.000000000               0.000038931               0.000143997               1.000000000              -0.000000199               0.000014241               1.000000000              -0.000001184               0.000013297               1.000000000              -0.000001030               0.000015465               1.000000000              -0.000000300               0.000019473               1.000000000               0.000000320               0.000024528               1.000000000               0.000000506               0.000029988               1.000000000               0.000000765               0.000035853               1.000000000               0.000001479               0.000042291               1.000000000               0.000002534               0.000049288               1.000000000               0.000004040               0.000057120               1.000000000               0.000006094               0.000065923               1.000000000               0.000008660               0.000075657               1.000000000               0.000011745               0.000086426               1.000000000               0.000015270               0.000098257               1.000000000               0.000019249               0.000111123               1.000000000               0.000023659               0.000124998               1.000000000               0.000028459               0.000139863               1.000000000              -0.000000147               0.000016223               1.000000000              -0.000001310               0.000015349               1.000000000              -0.000001233               0.000017157               1.000000000              -0.000000557               0.000020867               1.000000000               0.000000144               0.000025835               1.000000000               0.000000480               0.000031446               1.000000000               0.000000601               0.000037497               1.000000000               0.000001016               0.000044056               1.000000000               0.000001685               0.000051124               1.000000000               0.000002667               0.000058775               1.000000000               0.000003987               0.000067227               1.000000000               0.000005671               0.000076525               1.000000000               0.000007743               0.000086618               1.000000000               0.000010165               0.000097600               1.000000000               0.000012901               0.000109560               1.000000000               0.000015987               0.000122372               1.000000000               0.000019449               0.000136200               1.000000000              -0.000000080               0.000018009               1.000000000              -0.000001347               0.000017369               1.000000000              -0.000001358               0.000018945               1.000000000              -0.000000811               0.000022381               1.000000000              -0.000000108               0.000027121               1.000000000               0.000000333               0.000032728               1.000000000               0.000000477               0.000038868               1.000000000               0.000000637               0.000045556               1.000000000               0.000001038               0.000052715               1.000000000               0.000001603               0.000060379               1.000000000               0.000002418               0.000068644               1.000000000               0.000003452               0.000077662               1.000000000               0.000004720               0.000087419               1.000000000               0.000006242               0.000097848               1.000000000               0.000007956               0.000109106               1.000000000               0.000009849               0.000121133               1.000000000               0.000011950               0.000133987               1.000000000              -0.000000029               0.000019612               1.000000000              -0.000001262               0.000019238               1.000000000              -0.000001380               0.000020735               1.000000000              -0.000000965               0.000023877               1.000000000              -0.000000339               0.000028297               1.000000000               0.000000140               0.000033756               1.000000000               0.000000342               0.000039916               1.000000000               0.000000396               0.000046709               1.000000000               0.000000590               0.000054005               1.000000000               0.000000882               0.000061763               1.000000000               0.000001294               0.000070006               1.000000000               0.000001864               0.000078863               1.000000000               0.000002545               0.000088396               1.000000000               0.000003372               0.000098583               1.000000000               0.000004326               0.000109365               1.000000000               0.000005351               0.000120899               1.000000000               0.000006404               0.000133110               1.000000000              -0.000000015               0.000020980               1.000000000              -0.000001058               0.000020877               1.000000000              -0.000001227               0.000022324               1.000000000              -0.000000950               0.000025227               1.000000000              -0.000000505               0.000029414               1.000000000              -0.000000047               0.000034675               1.000000000               0.000000179               0.000040773               1.000000000               0.000000227               0.000047550               1.000000000               0.000000284               0.000054914               1.000000000               0.000000403               0.000062756               1.000000000               0.000000570               0.000071028               1.000000000               0.000000817               0.000079838               1.000000000               0.000001133               0.000089225               1.000000000               0.000001497               0.000099288               1.000000000               0.000001930               0.000109870               1.000000000               0.000002397               0.000121078               1.000000000               0.000002844               0.000132902               1.000000000               0.000000004               0.000021947               1.000000000              -0.000000753               0.000022135               1.000000000              -0.000000917               0.000023622               1.000000000              -0.000000776               0.000026371               1.000000000              -0.000000476               0.000030344               1.000000000              -0.000000158               0.000035395               1.000000000               0.000000041               0.000041380               1.000000000               0.000000083               0.000048101               1.000000000               0.000000112               0.000055463               1.000000000               0.000000149               0.000063360               1.000000000               0.000000197               0.000071680               1.000000000               0.000000265               0.000080476               1.000000000               0.000000351               0.000089777               1.000000000               0.000000453               0.000099697               1.000000000               0.000000591               0.000110192               1.000000000               0.000000761               0.000121188               1.000000000               0.000000948               0.000132725               1.000000000               0.000000009               0.000022549               1.000000000              -0.000000399               0.000022951               1.000000000              -0.000000489               0.000024485               1.000000000              -0.000000444               0.000027157               1.000000000              -0.000000295               0.000031019               1.000000000              -0.000000132               0.000035914               1.000000000              -0.000000012               0.000041753               1.000000000               0.000000027               0.000048416               1.000000000               0.000000042               0.000055753               1.000000000               0.000000048               0.000063663               1.000000000               0.000000041               0.000072030               1.000000000               0.000000038               0.000080829               1.000000000               0.000000038               0.000090090               1.000000000               0.000000042               0.000099888               1.000000000               0.000000059               0.000110278               1.000000000               0.000000107               0.000121132               1.000000000               0.000000191               0.000132483               1.000000000              -0.000000000               0.000022764               1.000000000              -0.000000000               0.000023233               1.000000000              -0.000000000               0.000024783               1.000000000               0.000000000               0.000027434               1.000000000               0.000000000               0.000031244               1.000000000               0.000000000               0.000036106               1.000000000              -0.000000000               0.000041921               1.000000000               0.000000000               0.000048555               1.000000000               0.000000000               0.000055865               1.000000000               0.000000000               0.000063775               1.000000000              -0.000000000               0.000072157               1.000000000              -0.000000000               0.000080942               1.000000000               0.000000000               0.000090186               1.000000000              -0.000000000               0.000099938               1.000000000              -0.000000000               0.000110272               1.000000000               0.000000000               0.000121066               1.000000000               0.000000000               0.000132349               1.000000000 </DataArray>
<DataArray type="Float64"                                    Name="defo"                                                      NumberOfComponents=" 3" format="ascii">
              0.000000201               0.000000000               1.000000000              -0.000000111               0.000000000               1.000000000              -0.000000076               0.000000000               1.000000000              -0.000000012               0.000000000               1.000000000              -0.000000005              -0.000000000               1.000000000              -0.000000010              -0.000000000               1.000000000              -0.000000060               0.000000000               1.000000000              -0.000000177               0.000000000               1.000000000              -0.000000312              -0.000000000               1.000000000              -0.000000423              -0.000000000               1.000000000              -0.000000471              -0.000000000               1.000000000              -0.000000413              -0.000000000               1.000000000              -0.000000264              -0.000000000               1.000000000              -0.000000091              -0.000000000               1.000000000               0.000000021               0.000000000               1.000000000              -0.000000016               0.000000000               1.000000000              -0.000000276               0.000000000               1.000000000               0.000000168               0.000001064               1.000000000              -0.000000114               0.000000925               1.000000000              -0.000000064               0.000001000               1.000000000               0.000000033               0.000001251               1.000000000               0.000000006               0.000001527               1.000000000              -0.000000079               0.000001685               1.000000000              -0.000000113               0.000001940               1.000000000              -0.000000141               0.000002200               1.000000000              -0.000000178               0.000002374               1.000000000              -0.000000169               0.000002472               1.000000000              -0.000000101               0.000002464               1.000000000               0.000000003               0.000002412               1.000000000               0.000000123               0.000002398               1.000000000               0.000000204               0.000002504               1.000000000               0.000000164               0.000002799               1.000000000              -0.000000079               0.000003303               1.000000000              -0.000000618               0.000003973               1.000000000               0.000000159               0.000002168               1.000000000              -0.000000083               0.000001858               1.000000000              -0.000000056               0.000002050               1.000000000              -0.000000003               0.000002571               1.000000000               0.000000006               0.000003198               1.000000000               0.000000025               0.000003541               1.000000000               0.000000060               0.000004118               1.000000000               0.000000093               0.000004628               1.000000000               0.000000152               0.000005028               1.000000000               0.000000246               0.000005353               1.000000000               0.000000333               0.000005591               1.000000000               0.000000329               0.000005854               1.000000000               0.000000163               0.000006244               1.000000000              -0.000000223               0.000006896               1.000000000              -0.000000887               0.000007928               1.000000000              -0.000001877               0.000009429               1.000000000              -0.000003246               0.000011479               1.000000000               0.000000180               0.000003405               1.000000000              -0.000000017               0.000002906               1.000000000               0.000000074               0.000003245               1.000000000               0.000000090               0.000004129               1.000000000               0.000000048               0.000005118               1.000000000               0.000000015               0.000005872               1.000000000              -0.000000020               0.000006810               1.000000000               0.000000029               0.000007669               1.000000000               0.000000078               0.000008476               1.000000000               0.000000078               0.000009265               1.000000000              -0.000000011               0.000010137               1.000000000              -0.000000341               0.000011208               1.000000000              -0.000001015               0.000012618               1.000000000              -0.000002082               0.000014480               1.000000000              -0.000003594               0.000016887               1.000000000              -0.000005562               0.000019942               1.000000000              -0.000007972               0.000023735               1.000000000               0.000000215               0.000004842               1.000000000               0.000000139               0.000004166               1.000000000               0.000000203               0.000004677               1.000000000               0.000000075               0.000006030               1.000000000               0.000000000               0.000007574               1.000000000              -0.000000010               0.000008975               1.000000000              -0.000000021               0.000010446               1.000000000              -0.000000026               0.000011966               1.000000000              -0.000000158               0.000013430               1.000000000              -0.000000459               0.000015036               1.000000000              -0.000001021               0.000016901               1.000000000              -0.000001979               0.000019196               1.000000000              -0.000003402               0.000022048               1.000000000              -0.000005313               0.000025534               1.000000000              -0.000007724               0.000029720               1.000000000              -0.000010626               0.000034641               1.000000000              -0.000013991               0.000040313               1.000000000               0.000000266               0.000006476               1.000000000               0.000000337               0.000005627               1.000000000               0.000000331               0.000006473               1.000000000               0.000000175               0.000008467               1.000000000               0.000000052               0.000010823               1.000000000              -0.000000043               0.000012932               1.000000000              -0.000000120               0.000015181               1.000000000              -0.000000291               0.000017549               1.000000000              -0.000000700               0.000019981               1.000000000              -0.000001446               0.000022745               1.000000000              -0.000002595               0.000025980               1.000000000              -0.000004263               0.000029838               1.000000000              -0.000006501               0.000034399               1.000000000              -0.000009272               0.000039718               1.000000000              -0.000012571               0.000045819               1.000000000              -0.000016371               0.000052690               1.000000000              -0.000020633               0.000060333               1.000000000               0.000000332               0.000008307               1.000000000               0.000000557               0.000007293               1.000000000               0.000000521               0.000008673               1.000000000               0.000000205               0.000011385               1.000000000              -0.000000124               0.000014559               1.000000000              -0.000000257               0.000017513               1.000000000              -0.000000434               0.000020720               1.000000000              -0.000000799               0.000024144               1.000000000              -0.000001577               0.000027840               1.000000000              -0.000002797               0.000032055               1.000000000              -0.000004537               0.000037002               1.000000000              -0.000006923               0.000042709               1.000000000              -0.000009923               0.000049277               1.000000000              -0.000013496               0.000056708               1.000000000              -0.000017639               0.000064989               1.000000000              -0.000022305               0.000074117               1.000000000              -0.000027443               0.000084062               1.000000000               0.000000370               0.000010277               1.000000000               0.000000794               0.000009196               1.000000000               0.000000620               0.000011120               1.000000000               0.000000096               0.000014644               1.000000000              -0.000000282               0.000018690               1.000000000              -0.000000442               0.000022620               1.000000000              -0.000000725               0.000026977               1.000000000              -0.000001399               0.000031704               1.000000000              -0.000002591               0.000036933               1.000000000              -0.000004280               0.000042982               1.000000000              -0.000006651               0.000049931               1.000000000              -0.000009695               0.000057874               1.000000000              -0.000013381               0.000066812               1.000000000              -0.000017667               0.000076754               1.000000000              -0.000022539               0.000087657               1.000000000              -0.000027933               0.000099431               1.000000000              -0.000033789               0.000111945               1.000000000               0.000000306               0.000012220               1.000000000               0.000001010               0.000011251               1.000000000               0.000000688               0.000013749               1.000000000               0.000000016               0.000018109               1.000000000              -0.000000420               0.000023098               1.000000000              -0.000000570               0.000028275               1.000000000              -0.000001019               0.000034003               1.000000000              -0.000002062               0.000040340               1.000000000              -0.000003594               0.000047454               1.000000000              -0.000005801               0.000055672               1.000000000              -0.000008746               0.000064977               1.000000000              -0.000012366               0.000075434               1.000000000              -0.000016613               0.000087109               1.000000000              -0.000021475               0.000099896               1.000000000              -0.000026874               0.000113762               1.000000000              -0.000032748               0.000128539               1.000000000              -0.000038931               0.000143997               1.000000000               0.000000199               0.000014241               1.000000000               0.000001184               0.000013297               1.000000000               0.000001030               0.000015465               1.000000000               0.000000300               0.000019473               1.000000000              -0.000000320               0.000024528               1.000000000              -0.000000506               0.000029988               1.000000000              -0.000000765               0.000035853               1.000000000              -0.000001479               0.000042291               1.000000000              -0.000002534               0.000049288               1.000000000              -0.000004040               0.000057120               1.000000000              -0.000006094               0.000065923               1.000000000              -0.000008660               0.000075657               1.000000000              -0.000011745               0.000086426               1.000000000              -0.000015270               0.000098257               1.000000000              -0.000019249               0.000111123               1.000000000              -0.000023659               0.000124998               1.000000000              -0.000028459               0.000139863               1.000000000               0.000000147               0.000016223               1.000000000               0.000001310               0.000015349               1.000000000               0.000001233               0.000017157               1.000000000               0.000000557               0.000020867               1.000000000              -0.000000144               0.000025835               1.000000000              -0.000000480               0.000031446               1.000000000              -0.000000601               0.000037497               1.000000000              -0.000001016               0.000044056               1.000000000              -0.000001685               0.000051124               1.000000000              -0.000002667               0.000058775               1.000000000              -0.000003987               0.000067227               1.000000000              -0.000005671               0.000076525               1.000000000              -0.000007743               0.000086618               1.000000000              -0.000010165               0.000097600               1.000000000              -0.000012901               0.000109560               1.000000000              -0.000015987               0.000122372               1.000000000              -0.000019449               0.000136200               1.000000000               0.000000080               0.000018009               1.000000000               0.000001347               0.000017369               1.000000000               0.000001358               0.000018945               1.000000000               0.000000811               0.000022381               1.000000000               0.000000108               0.000027121               1.000000000              -0.000000333               0.000032728               1.000000000              -0.000000477               0.000038868               1.000000000              -0.000000637               0.000045556               1.000000000              -0.000001038               0.000052715               1.000000000              -0.000001603               0.000060379               1.000000000              -0.000002418               0.000068644               1.000000000              -0.000003452               0.000077662               1.000000000              -0.000004720               0.000087419               1.000000000              -0.000006242               0.000097848               1.000000000              -0.000007956               0.000109106               1.000000000              -0.000009849               0.000121133               1.000000000              -0.000011950               0.000133987               1.000000000               0.000000029               0.000019612               1.000000000               0.000001262               0.000019238               1.000000000               0.000001380               0.000020735               1.000000000               0.000000965               0.000023877               1.000000000               0.000000339               0.000028297               1.000000000              -0.000000140               0.000033756               1.000000000              -0.000000342               0.000039916               1.000000000              -0.000000396               0.000046709               1.000000000              -0.000000590               0.000054005               1.000000000              -0.000000882               0.000061763               1.000000000              -0.000001294               0.000070006               1.000000000              -0.000001864               0.000078863               1.000000000              -0.000002545               0.000088396               1.000000000              -0.000003372               0.000098583               1.000000000              -0.000004326               0.000109365               1.000000000              -0.000005351               0.000120899               1.000000000              -0.000006404               0.000133110               1.000000000               0.000000015               0.000020980               1.000000000               0.000001058               0.000020877               1.000000000               0.000001227               0.000022324               1.000000000               0.000000950               0.000025227               1.000000000               0.000000505               0.000029414               1.000000000               0.000000047               0.000034675               1.000000000              -0.000000179               0.000040773               1.000000000              -0.000000227               0.000047550               1.000000000              -0.000000284               0.000054914               1.000000000              -0.000000403               0.000062756               1.000000000              -0.000000570               0.000071028               1.000000000              -0.000000817               0.000079838               1.000000000              -0.000001133               0.000089225               1.000000000              -0.000001497               0.000099288               1.000000000              -0.000001930               0.000109870               1.000000000              -0.000002397               0.000121078               1.000000000              -0.000002844               0.000132902               1.000000000              -0.000000004               0.000021947               1.000000000               0.000000753               0.000022135               1.000000000               0.000000917               0.000023622               1.000000000               0.000000776               0.000026371               1.000000000               0.000000476               0.000030344               1.000000000               0.000000158               0.000035395               1.000000000              -0.000000041               0.000041380               1.000000000              -0.000000083               0.000048101               1.000000000              -0.000000112               0.000055463               1.000000000              -0.000000149               0.000063360               1.000000000              -0.000000197               0.000071680               1.000000000              -0.000000265               0.000080476               1.000000000              -0.000000351               0.000089777               1.000000000              -0.000000453               0.000099697               1.000000000              -0.000000591               0.000110192               1.000000000              -0.000000761               0.000121188               1.000000000              -0.000000948               0.000132725               1.000000000              -0.000000009               0.000022549               1.000000000               0.000000399               0.000022951               1.000000000               0.000000489               0.000024485               1.000000000               0.000000444               0.000027157               1.000000000               0.000000295               0.000031019               1.000000000               0.000000132               0.000035914               1.000000000               0.000000012               0.000041753               1.000000000              -0.000000027               0.000048416               1.000000000              -0.000000042               0.000055753               1.000000000              -0.000000048               0.000063663               1.000000000              -0.000000041               0.000072030               1.000000000              -0.000000038               0.000080829               1.000000000              -0.000000038               0.000090090               1.000000000              -0.000000042               0.000099888               1.000000000              -0.000000059               0.000110278               1.000000000              -0.000000107               0.000121132               1.000000000              -0.000000191               0.000132483               1.000000000              -0.000000000               0.000022764               1.000000000              -0.000000000               0.000023233               1.000000000              -0.000000000               0.000024783               1.000000000               0.000000000               0.000027434               1.000000000               0.000000000               0.000031244               1.000000000               0.000000000               0.000036106               1.000000000              -0.000000000               0.000041921               1.000000000               0.000000000               0.000048555               1.000000000               0.000000000               0.000055865               1.000000000               0.000000000               0.000063775               1.000000000              -0.000000000               0.000072157               1.000000000              -0.000000000               0.000080942               1.000000000               0.000000000               0.000090186               1.000000000              -0.000000000               0.000099938               1.000000000              -0.000000000               0.000110272               1.000000000               0.000000000               0.000121066               1.000000000               0.000000000               0.000132349               1.000000000               0.000000201               0.000000000               1.000000000              -0.000000111               0.000000000               1.000000000              -0.000000076               0.000000000               1.000000000              -0.000000012               0.000000000               1.000000000              -0.000000005              -0.000000000               1.000000000              -0.000000010              -0.000000000               1.000000000              -0.000000060               0.000000000               1.000000000              -0.000000177               0.000000000               1.000000000              -0.000000312              -0.000000000               1.000000000              -0.000000423              -0.000000000               1.000000000              -0.000000471              -0.000000000               1.000000000              -0.000000413              -0.000000000               1.000000000              -0.000000264              -0.000000000               1.000000000              -0.000000091              -0.000000000               1.000000000               0.000000021               0.000000000               1.000000000              -0.000000016               0.000000000               1.000000000              -0.000000276               0.000000000               1.000000000               0.000000168              -0.000001064               1.000000000              -0.000000114              -0.000000925               1.000000000              -0.000000064              -0.000001000               1.000000000               0.000000033              -0.000001251               1.000000000               0.000000006              -0.000001527               1.000000000              -0.000000079              -0.000001685               1.000000000              -0.000000113              -0.000001940               1.000000000              -0.000000141              -0.000002200               1.000000000              -0.000000178              -0.000002374               1.000000000              -0.000000169              -0.000002472               1.000000000              -0.000000101              -0.000002464               1.000000000               0.000000003              -0.000002412               1.000000000               0.000000123              -0.000002398               1.000000000               0.000000204              -0.000002504               1.000000000               0.000000164              -0.000002799               1.000000000              -0.000000079              -0.000003303               1.000000000              -0.000000618              -0.000003973               1.000000000               0.000000159              -0.000002168               1.000000000              -0.000000083              -0.000001858               1.000000000              -0.000000056              -0.000002050               1.000000000              -0.000000003              -0.000002571               1.000000000               0.000000006              -0.000003198               1.000000000               0.000000025              -0.000003541               1.000000000               0.000000060              -0.000004118               1.000000000               0.000000093              -0.000004628               1.000000000               0.000000152              -0.000005028               1.000000000               0.000000246              -0.000005353               1.000000000               0.000000333              -0.000005591               1.000000000               0.000000329              -0.000005854               1.000000000               0.000000163              -0.000006244               1.000000000              -0.000000223              -0.000006896               1.000000000              -0.000000887              -0.000007928               1.000000000              -0.000001877              -0.000009429               1.000000000              -0.000003246              -0.000011479               1.000000000               0.000000180              -0.000003405               1.000000000              -0.000000017              -0.000002906               1.000000000               0.000000074              -0.000003245               1.000000000               0.000000090              -0.000004129               1.000000000               0.000000048              -0.000005118               1.000000000               0.000000015              -0.000005872               1.000000000              -0.000000020              -0.000006810               1.000000000               0.000000029              -0.000007669               1.000000000               0.000000078              -0.000008476               1.000000000               0.000000078              -0.000009265               1.000000000              -0.000000011              -0.000010137               1.000000000              -0.000000341              -0.000011208               1.000000000              -0.000001015              -0.000012618               1.000000000              -0.000002082              -0.000014480               1.000000000              -0.000003594              -0.000016887               1.000000000              -0.000005562              -0.000019942               1.000000000              -0.000007972              -0.000023735               1.000000000               0.000000215              -0.000004842               1.000000000               0.000000139              -0.000004166               1.000000000               0.000000203              -0.000004677               1.000000000               0.000000075              -0.000006030               1.000000000               0.000000000              -0.000007574               1.000000000              -0.000000010              -0.000008975               1.000000000              -0.000000021              -0.000010446               1.000000000              -0.000000026              -0.000011966               1.000000000              -0.000000158              -0.000013430               1.000000000              -0.000000459              -0.000015036               1.000000000              -0.000001021              -0.000016901               1.000000000              -0.000001979              -0.000019196               1.000000000              -0.000003402              -0.000022048               1.000000000              -0.000005313              -0.000025534               1.000000000              -0.000007724              -0.000029720               1.000000000              -0.000010626              -0.000034641               1.000000000              -0.000013991              -0.000040313               1.000000000               0.000000266              -0.000006476               1.000000000               0.000000337              -0.000005627               1.000000000               0.000000331              -0.000006473               1.000000000               0.000000175              -0.000008467               1.000000000               0.000000052              -0.000010823               1.000000000              -0.000000043              -0.000012932               1.000000000              -0.000000120              -0.000015181               1.000000000              -0.000000291              -0.000017549               1.000000000              -0.000000700              -0.000019981               1.000000000              -0.000001446              -0.000022745               1.000000000              -0.000002595              -0.000025980               1.000000000              -0.000004263              -0.000029838               1.000000000              -0.000006501              -0.000034399               1.000000000              -0.000009272              -0.000039718               1.000000000              -0.000012571              -0.000045819               1.000000000              -0.000016371              -0.000052690               1.000000000              -0.000020633              -0.000060333               1.000000000               0.000000332              -0.000008307               1.000000000               0.000000557              -0.000007293               1.000000000               0.000000521              -0.000008673               1.000000000               0.000000205              -0.000011385               1.000000000              -0.000000124              -0.000014559               1.000000000              -0.000000257              -0.000017513               1.000000000              -0.000000434              -0.000020720               1.000000000              -0.000000799              -0.000024144               1.000000000              -0.000001577              -0.000027840               1.000000000              -0.000002797              -0.000032055               1.000000000              -0.000004537              -0.000037002               1.000000000              -0.000006923              -0.000042709               1.000000000              -0.000009923              -0.000049277               1.000000000              -0.000013496              -0.000056708               1.000000000              -0.000017639              -0.000064989               1.000000000              -0.000022305              -0.000074117               1.000000000              -0.000027443              -0.000084062               1.000000000               0.000000370              -0.000010277               1.000000000               0.000000794              -0.000009196               1.000000000               0.000000620              -0.000011120               1.000000000               0.000000096              -0.000014644               1.000000000              -0.000000282              -0.000018690               1.000000000              -0.000000442              -0.000022620               1.000000000              -0.000000725              -0.000026977               1.000000000              -0.000001399              -0.000031704               1.000000000              -0.000002591              -0.000036933               1.000000000              -0.000004280              -0.000042982               1.000000000              -0.000006651              -0.000049931               1.000000000              -0.000009695              -0.000057874               1.000000000              -0.000013381              -0.000066812               1.000000000              -0.000017667              -0.000076754               1.000000000              -0.000022539              -0.000087657               1.000000000              -0.000027933              -0.000099431               1.000000000              -0.000033789              -0.000111945               1.000000000               0.000000306              -0.000012220               1.000000000               0.000001010              -0.000011251               1.000000000               0.000000688              -0.000013749               1.000000000               0.000000016              -0.000018109               1.000000000              -0.000000420              -0.000023098               1.000000000              -0.000000570              -0.000028275               1.000000000              -0.000001019              -0.000034003               1.000000000              -0.000002062              -0.000040340               1.000000000              -0.000003594              -0.000047454               1.000000000              -0.000005801              -0.000055672               1.000000000              -0.000008746              -0.000064977               1.000000000              -0.000012366              -0.000075434               1.000000000              -0.000016613              -0.000087109               1.000000000              -0.000021475              -0.000099896               1.000000000              -0.000026874              -0.000113762               1.000000000              -0.000032748              -0.000128539               1.000000000              -0.000038931              -0.000143997               1.000000000               0.000000199              -0.000014241               1.000000000               0.000001184              -0.000013297               1.000000000               0.000001030              -0.000015465               1.000000000               0.000000300              -0.000019473               1.000000000              -0.000000320              -0.000024528               1.000000000              -0.000000506              -0.000029988               1.000000000              -0.000000765              -0.000035853               1.000000000              -0.000001479              -0.000042291               1.000000000              -0.000002534              -0.000049288               1.000000000              -0.000004040              -0.000057120               1.000000000              -0.000006094              -0.000065923               1.000000000              -0.000008660              -0.000075657               1.000000000              -0.000011745              -0.000086426               1.000000000              -0.000015270              -0.000098257               1.000000000              -0.000019249              -0.000111123               1.000000000              -0.000023659              -0.000124998               1.000000000              -0.000028459              -0.000139863               1.000000000               0.000000147              -0.000016223               1.000000000               0.000001310              -0.000015349               1.000000000               0.000001233              -0.000017157               1.000000000               0.000000557              -0.000020867               1.000000000              -0.000000144              -0.000025835               1.000000000              -0.000000480              -0.000031446               1.000000000              -0.000000601              -0.000037497               1.000000000              -0.000001016              -0.000044056               1.000000000              -0.000001685              -0.000051124               1.000000000              -0.000002667              -0.000058775               1.000000000              -0.000003987              -0.000067227               1.000000000              -0.000005671              -0.000076525               1.000000000              -0.000007743              -0.000086618               1.000000000              -0.000010165              -0.000097600               1.000000000              -0.000012901              -0.000109560               1.000000000              -0.000015987              -0.000122372               1.000000000              -0.000019449              -0.000136200               1.000000000               0.000000080              -0.000018009               1.000000000               0.000001347              -0.000017369               1.000000000               0.000001358              -0.000018945               1.000000000               0.000000811              -0.000022381               1.000000000               0.000000108              -0.000027121               1.000000000              -0.000000333              -0.000032728               1.000000000              -0.000000477              -0.000038868               1.000000000              -0.000000637              -0.000045556               1.000000000              -0.000001038              -0.000052715               1.000000000              -0.000001603              -0.000060379               1.000000000              -0.000002418              -0.000068644               1.000000000              -0.000003452              -0.000077662               1.000000000              -0.000004720              -0.000087419               1.000000000              -0.000006242              -0.000097848               1.000000000              -0.000007956              -0.000109106               1.000000000              -0.000009849              -0.000121133               1.000000000              -0.000011950              -0.000133987               1.000000000               0.000000029              -0.000019612               1.000000000               0.000001262              -0.000019238               1.000000000               0.000001380              -0.000020735               1.000000000               0.000000965              -0.000023877               1.000000000               0.000000339              -0.000028297               1.000000000              -0.000000140              -0.000033756               1.000000000              -0.000000342              -0.000039916               1.000000000              -0.000000396              -0.000046709               1.000000000              -0.000000590              -0.000054005               1.000000000              -0.000000882              -0.000061763               1.000000000              -0.000001294              -0.000070006               1.000000000              -0.000001864              -0.000078863               1.000000000              -0.000002545              -0.000088396               1.000000000              -0.000003372              -0.000098583               1.000000000              -0.000004326              -0.000109365               1.000000000              -0.000005351              -0.000120899               1.000000000              -0.000006404              -0.000133110               1.000000000               0.000000015              -0.000020980               1.000000000               0.000001058              -0.000020877               1.000000000               0.000001227              -0.000022324               1.000000000               0.000000950              -0.000025227               1.000000000               0.000000505              -0.000029414               1.000000000               0.000000047              -0.000034675               1.000000000              -0.000000179              -0.000040773               1.000000000              -0.000000227              -0.000047550               1.000000000              -0.000000284              -0.000054914               1.000000000              -0.000000403              -0.000062756               1.000000000              -0.000000570              -0.000071028               1.000000000              -0.000000817              -0.000079838               1.000000000              -0.000001133              -0.000089225               1.000000000              -0.000001497              -0.000099288               1.000000000              -0.000001930              -0.000109870               1.000000000              -0.000002397              -0.000121078               1.000000000              -0.000002844              -0.000132902               1.000000000              -0.000000004              -0.000021947               1.000000000               0.000000753              -0.000022135               1.000000000               0.000000917              -0.000023622               1.000000000               0.000000776              -0.000026371               1.000000000               0.000000476              -0.000030344               1.000000000               0.000000158              -0.000035395               1.000000000              -0.000000041              -0.000041380               1.000000000              -0.000000083              -0.000048101               1.000000000              -0.000000112              -0.000055463               1.000000000              -0.000000149              -0.000063360               1.000000000              -0.000000197              -0.000071680               1.000000000              -0.000000265              -0.000080476               1.000000000              -0.000000351              -0.000089777               1.000000000              -0.000000453              -0.000099697               1.000000000              -0.000000591              -0.000110192               1.000000000              -0.000000761              -0.000121188               1.000000000              -0.000000948              -0.000132725               1.000000000              -0.000000009              -0.000022549               1.000000000               0.000000399              -0.000022951               1.000000000               0.000000489              -0.000024485               1.000000000               0.000000444              -0.000027157               1.000000000               0.000000295              -0.000031019               1.000000000               0.000000132              -0.000035914               1.000000000               0.000000012              -0.000041753               1.000000000              -0.000000027              -0.000048416               1.000000000              -0.000000042              -0.000055753               1.000000000              -0.000000048              -0.000063663               1.000000000              -0.000000041              -0.000072030               1.000000000              -0.000000038              -0.000080829               1.000000000              -0.000000038              -0.000090090               1.000000000              -0.000000042              -0.000099888               1.000000000              -0.000000059              -0.000110278               1.000000000              -0.000000107              -0.000121132               1.000000000              -0.000000191              -0.000132483               1.000000000              -0.000000000              -0.000022764               1.000000000              -0.000000000              -0.000023233               1.000000000              -0.000000000              -0.000024783               1.000000000               0.000000000              -0.000027434               1.000000000              -0.000000000              -0.000031244               1.000000000              -0.000000000              -0.000036106               1.000000000              -0.000000000              -0.000041921               1.000000000              -0.000000000              -0.000048555               1.000000000              -0.000000000              -0.000055865               1.000000000               0.000000000              -0.000063775               1.000000000               0.000000000              -0.000072157               1.000000000               0.000000000              -0.000080942               1.000000000              -0.000000000              -0.000090186               1.000000000              -0.000000000              -0.000099938               1.000000000              -0.000000000              -0.000110272               1.000000000               0.000000000              -0.000121066               1.000000000               0.000000000              -0.000132349               1.000000000              -0.000000201               0.000000000               1.000000000               0.000000111               0.000000000               1.000000000               0.000000076               0.000000000               1.000000000               0.000000012               0.000000000               1.000000000               0.000000005               0.000000000               1.000000000               0.000000010               0.000000000               1.000000000               0.000000060              -0.000000000               1.000000000               0.000000177              -0.000000000               1.000000000               0.000000312              -0.000000000               1.000000000               0.000000423               0.000000000               1.000000000               0.000000471               0.000000000               1.000000000               0.000000413              -0.000000000               1.000000000               0.000000264               0.000000000               1.000000000               0.000000091               0.000000000               1.000000000              -0.000000021               0.000000000               1.000000000               0.000000016               0.000000000               1.000000000               0.000000276               0.000000000               1.000000000              -0.000000168              -0.000001064               1.000000000               0.000000114              -0.000000925               1.000000000               0.000000064              -0.000001000               1.000000000              -0.000000033              -0.000001251               1.000000000              -0.000000006              -0.000001527               1.000000000               0.000000079              -0.000001685               1.000000000               0.000000113              -0.000001940               1.000000000               0.000000141              -0.000002200               1.000000000               0.000000178              -0.000002374               1.000000000               0.000000169              -0.000002472               1.000000000               0.000000101              -0.000002464               1.000000000              -0.000000003              -0.000002412               1.000000000              -0.000000123              -0.000002398               1.000000000              -0.000000204              -0.000002504               1.000000000              -0.000000164              -0.000002799               1.000000000               0.000000079              -0.000003303               1.000000000               0.000000618              -0.000003973               1.000000000              -0.000000159              -0.000002168               1.000000000               0.000000083              -0.000001858               1.000000000               0.000000056              -0.000002050               1.000000000               0.000000003              -0.000002571               1.000000000              -0.000000006              -0.000003198               1.000000000              -0.000000025              -0.000003541               1.000000000              -0.000000060              -0.000004118               1.000000000              -0.000000093              -0.000004628               1.000000000              -0.000000152              -0.000005028               1.000000000              -0.000000246              -0.000005353               1.000000000              -0.000000333              -0.000005591               1.000000000              -0.000000329              -0.000005854               1.000000000              -0.000000163              -0.000006244               1.000000000               0.000000223              -0.000006896               1.000000000               0.000000887              -0.000007928               1.000000000               0.000001877              -0.000009429               1.000000000               0.000003246              -0.000011479               1.000000000              -0.000000180              -0.000003405               1.000000000               0.000000017              -0.000002906               1.000000000              -0.000000074              -0.000003245               1.000000000              -0.000000090              -0.000004129               1.000000000              -0.000000048              -0.000005118               1.000000000              -0.000000015              -0.000005872               1.000000000               0.000000020              -0.000006810               1.000000000              -0.000000029              -0.000007669               1.000000000              -0.000000078              -0.000008476               1.000000000              -0.000000078              -0.000009265               1.000000000               0.000000011              -0.000010137               1.000000000               0.000000341              -0.000011208               1.000000000               0.000001015              -0.000012618               1.000000000               0.000002082              -0.000014480               1.000000000               0.000003594              -0.000016887               1.000000000               0.000005562              -0.000019942               1.000000000               0.000007972              -0.000023735               1.000000000              -0.000000215              -0.000004842               1.000000000              -0.000000139              -0.000004166               1.000000000              -0.000000203              -0.000004677               1.000000000              -0.000000075              -0.000006030               1.000000000              -0.000000000              -0.000007574               1.000000000               0.000000010              -0.000008975               1.000000000               0.000000021              -0.000010446               1.000000000               0.000000026              -0.000011966               1.000000000               0.000000158              -0.000013430               1.000000000               0.000000459              -0.000015036               1.000000000               0.000001021              -0.000016901               1.000000000               0.000001979              -0.000019196               1.000000000               0.000003402              -0.000022048               1.000000000               0.000005313              -0.000025534               1.000000000               0.000007724              -0.000029720               1.000000000               0.000010626              -0.000034641               1.000000000               0.000013991              -0.000040313               1.000000000              -0.000000266              -0.000006476               1.000000000              -0.000000337              -0.000005627               1.000000000              -0.000000331              -0.000006473               1.000000000              -0.000000175              -0.000008467               1.000000000              -0.000000052              -0.000010823               1.000000000               0.000000043              -0.000012932               1.000000000               0.000000120              -0.000015181               1.000000000               0.000000291              -0.000017549               1.000000000               0.000000700              -0.000019981               1.000000000               0.000001446              -0.000022745               1.000000000               0.000002595              -0.000025980               1.000000000               0.000004263              -0.000029838               1.000000000               0.000006501              -0.000034399               1.000000000               0.000009272              -0.000039718               1.000000000               0.000012571              -0.000045819               1.000000000               0.000016371              -0.000052690               1.000000000               0.000020633              -0.000060333               1.000000000              -0.000000332              -0.000008307               1.000000000              -0.000000557              -0.000007293               1.000000000              -0.000000521              -0.000008673               1.000000000              -0.000000205              -0.000011385               1.000000000               0.000000124              -0.000014559               1.000000000               0.000000257              -0.000017513               1.000000000               0.000000434              -0.000020720               1.000000000               0.000000799              -0.000024144               1.000000000               0.000001577              -0.000027840               1.000000000               0.000002797              -0.000032055               1.000000000               0.000004537              -0.000037002               1.000000000               0.000006923              -0.000042709               1.000000000               0.000009923              -0.000049277               1.000000000               0.000013496              -0.000056708               1.000000000               0.000017639              -0.000064989               1.000000000               0.000022305              -0.000074117               1.000000000               0.000027443              -0.000084062               1.000000000              -0.000000370              -0.000010277               1.000000000              -0.000000794              -0.000009196               1.000000000              -0.000000620              -0.000011120               1.000000000              -0.000000096              -0.000014644               1.000000000               0.000000282              -0.000018690               1.000000000               0.000000442              -0.000022620               1.000000000               0.000000725              -0.000026977               1.000000000               0.000001399              -0.000031704               1.000000000               0.000002591              -0.000036933               1.000000000               0.000004280              -0.000042982               1.000000000               0.000006651              -0.000049931               1.000000000               0.000009695              -0.000057874               1.000000000               0.000013381              -0.000066812               1.000000000               0.000017667              -0.000076754               1.000000000               0.000022539              -0.000087657               1.000000000               0.000027933              -0.000099431               1.000000000               0.000033789              -0.000111945               1.000000000              -0.000000306              -0.000012220               1.000000000              -0.000001010              -0.000011251               1.000000000              -0.000000688              -0.000013749               1.000000000              -0.000000016              -0.000018109               1.000000000               0.000000420              -0.000023098               1.000000000               0.000000570              -0.000028275               1.000000000               0.000001019              -0.000034003               1.000000000               0.000002062              -0.000040340               1.000000000               0.000003594              -0.000047454               1.000000000               0.000005801              -0.000055672               1.000000000               0.000008746              -0.000064977               1.000000000               0.000012366              -0.000075434               1.000000000               0.000016613              -0.000087109               1.000000000               0.000021475              -0.000099896               1.000000000               0.000026874              -0.000113762               1.000000000               0.000032748              -0.000128539               1.000000000               0.000038931              -0.000143997               1.000000000              -0.000000199              -0.000014241               1.000000000              -0.000001184              -0.000013297               1.000000000              -0.000001030              -0.000015465               1.000000000              -0.000000300              -0.000019473               1.000000000               0.000000320              -0.000024528               1.000000000               0.000000506              -0.000029988               1.000000000               0.000000765              -0.000035853               1.000000000               0.000001479              -0.000042291               1.000000000               0.000002534              -0.000049288               1.000000000               0.000004040              -0.000057120               1.000000000               0.000006094              -0.000065923               1.000000000               0.000008660              -0.000075657               1.000000000               0.000011745              -0.000086426               1.000000000               0.000015270              -0.000098257               1.000000000               0.000019249              -0.000111123               1.000000000               0.000023659              -0.000124998               1.000000000               0.000028459              -0.000139863               1.000000000              -0.000000147              -0.000016223               1.000000000              -0.000001310              -0.000015349               1.000000000              -0.000001233              -0.000017157               1.000000000              -0.000000557              -0.000020867               1.000000000               0.000000144              -0.000025835               1.000000000               0.000000480              -0.000031446               1.000000000               0.000000601              -0.000037497               1.000000000               0.000001016              -0.000044056               1.000000000               0.000001685              -0.000051124               1.000000000               0.000002667              -0.000058775               1.000000000               0.000003987              -0.000067227               1.000000000               0.000005671              -0.000076525               1.000000000               0.000007743              -0.000086618               1.000000000               0.000010165              -0.000097600               1.000000000               0.000012901              -0.000109560               1.000000000               0.000015987              -0.000122372               1.000000000               0.000019449              -0.000136200               1.000000000              -0.000000080              -0.000018009               1.000000000              -0.000001347              -0.000017369               1.000000000              -0.000001358              -0.000018945               1.000000000              -0.000000811              -0.000022381               1.000000000              -0.000000108              -0.000027121               1.000000000               0.000000333              -0.000032728               1.000000000               0.000000477              -0.000038868               1.000000000               0.000000637              -0.000045556               1.000000000               0.000001038              -0.000052715               1.000000000               0.000001603              -0.000060379               1.000000000               0.000002418              -0.000068644               1.000000000               0.000003452              -0.000077662               1.000000000               0.000004720              -0.000087419               1.000000000               0.000006242              -0.000097848               1.000000000               0.000007956              -0.000109106               1.000000000               0.000009849              -0.000121133               1.000000000               0.000011950              -0.000133987               1.000000000              -0.000000029              -0.000019612               1.000000000              -0.000001262              -0.000019238               1.000000000              -0.000001380              -0.000020735               1.000000000              -0.000000965              -0.000023877               1.000000000              -0.000000339              -0.000028297               1.000000000               0.000000140              -0.000033756               1.000000000               0.000000342              -0.000039916               1.000000000               0.000000396              -0.000046709               1.000000000               0.000000590              -0.000054005               1.000000000               0.000000882              -0.000061763               1.000000000               0.000001294              -0.000070006               1.000000000               0.000001864              -0.000078863               1.000000000               0.000002545              -0.000088396               1.000000000               0.000003372              -0.000098583               1.000000000               0.000004326              -0.000109365               1.000000000               0.000005351              -0.000120899               1.000000000               0.000006404              -0.000133110               1.000000000              -0.000000015              -0.000020980               1.000000000              -0.000001058              -0.000020877               1.000000000              -0.000001227              -0.000022324               1.000000000              -0.000000950              -0.000025227               1.000000000              -0.000000505              -0.000029414               1.000000000              -0.000000047              -0.000034675               1.000000000               0.000000179              -0.000040773               1.000000000               0.000000227              -0.000047550               1.000000000               0.000000284              -0.000054914               1.000000000               0.000000403              -0.000062756               1.000000000               0.000000570              -0.000071028               1.000000000               0.000000817              -0.000079838               1.000000000               0.000001133              -0.000089225               1.000000000               0.000001497              -0.000099288               1.000000000               0.000001930              -0.000109870               1.000000000               0.000002397              -0.000121078               1.000000000               0.000002844              -0.000132902               1.000000000               0.000000004              -0.000021947               1.000000000              -0.000000753              -0.000022135               1.000000000              -0.000000917              -0.000023622               1.000000000              -0.000000776              -0.000026371               1.000000000              -0.000000476              -0.000030344               1.000000000              -0.000000158              -0.000035395               1.000000000               0.000000041              -0.000041380               1.000000000               0.000000083              -0.000048101               1.000000000               0.000000112              -0.000055463               1.000000000               0.000000149              -0.000063360               1.000000000               0.000000197              -0.000071680               1.000000000               0.000000265              -0.000080476               1.000000000               0.000000351              -0.000089777               1.000000000               0.000000453              -0.000099697               1.000000000               0.000000591              -0.000110192               1.000000000               0.000000761              -0.000121188               1.000000000               0.000000948              -0.000132725               1.000000000               0.000000009              -0.000022549               1.000000000              -0.000000399              -0.000022951               1.000000000              -0.000000489              -0.000024485               1.000000000              -0.000000444              -0.000027157               1.000000000              -0.000000295              -0.000031019               1.000000000              -0.000000132              -0.000035914               1.000000000              -0.000000012              -0.000041753               1.000000000               0.000000027              -0.000048416               1.000000000               0.000000042              -0.000055753               1.000000000               0.000000048              -0.000063663               1.000000000               0.000000041              -0.000072030               1.000000000               0.000000038              -0.000080829               1.000000000               0.000000038              -0.000090090               1.000000000               0.000000042              -0.000099888               1.000000000               0.000000059              -0.000110278               1.000000000               0.000000107              -0.000121132               1.000000000               0.000000191              -0.000132483               1.000000000              -0.000000000              -0.000022764               1.000000000              -0.000000000              -0.000023233               1.000000000              -0.000000000              -0.000024783               1.000000000               0.000000000              -0.000027434               1.000000000              -0.000000000              -0.000031244               1.000000000              -0.000000000              -0.000036106               1.000000000              -0.000000000              -0.000041921               1.000000000              -0.000000000              -0.000048555               1.000000000              -0.000000000              -0.000055865               1.000000000               0.000000000              -0.000063775               1.000000000               0.000000000              -0.000072157               1.000000000               0.000000000              -0.000080942               1.000000000              -0.000000000              -0.000090186               1.000000000              -0.000000000              -0.000099938               1.000000000              -0.000000000              -0.000110272               1.000000000               0.000000000              -0.000121066               1.000000000               0.000000000              -0.000132349               1.000000000              -0.000000201               0.000000000               1.000000000               0.000000111               0.000000000               1.000000000               0.000000076               0.000000000               1.000000000               0.000000012               0.000000000               1.000000000               0.000000005               0.000000000               1.000000000               0.000000010               0.000000000               1.000000000               0.000000060              -0.000000000               1.000000000               0.000000177              -0.000000000               1.000000000               0.000000312              -0.000000000               1.000000000               0.000000423               0.000000000               1.000000000               0.000000471               0.000000000               1.000000000               0.000000413              -0.000000000               1.000000000               0.000000264               0.000000000               1.000000000               0.000000091               0.000000000               1.000000000              -0.000000021               0.000000000               1.000000000               0.000000016               0.000000000               1.000000000               0.000000276               0.000000000               1.000000000              -0.000000168               0.000001064               1.000000000               0.000000114               0.000000925               1.000000000               0.000000064               0.000001000               1.000000000              -0.000000033               0.000001251               1.000000000              -0.000000006               0.000001527               1.000000000               0.000000079               0.000001685               1.000000000               0.000000113               0.000001940               1.000000000               0.000000141               0.000002200               1.000000000               0.000000178               0.000002374               1.000000000               0.000000169               0.000002472               1.000000000               0.000000101               0.000002464               1.000000000              -0.000000003               0.000002412               1.000000000              -0.000000123               0.000002398               1.000000000              -0.000000204               0.000002504               1.000000000              -0.000000164               0.000002799               1.000000000               0.000000079               0.000003303               1.000000000               0.000000618               0.000003973               1.000000000              -0.000000159               0.000002168               1.000000000               0.000000083               0.000001858               1.000000000               0.000000056               0.000002050               1.000000000               0.000000003               0.000002571               1.000000000              -0.000000006               0.000003198               1.000000000              -0.000000025               0.000003541               1.000000000              -0.000000060               0.000004118               1.000000000              -0.000000093               0.000004628               1.000000000              -0.000000152               0.000005028               1.000000000              -0.000000246               0.000005353               1.000000000              -0.000000333               0.000005591               1.000000000              -0.000000329               0.000005854               1.000000000              -0.000000163               0.000006244               1.000000000               0.000000223               0.000006896               1.000000000               0.000000887               0.000007928               1.000000000               0.000001877               0.000009429               1.000000000               0.000003246               0.000011479               1.000000000              -0.000000180               0.000003405               1.000000000               0.000000017               0.000002906               1.000000000              -0.000000074               0.000003245               1.000000000              -0.000000090               0.000004129               1.000000000              -0.000000048               0.000005118               1.000000000              -0.000000015               0.000005872               1.000000000               0.000000020               0.000006810               1.000000000              -0.000000029               0.000007669               1.000000000              -0.000000078               0.000008476               1.000000000              -0.000000078               0.000009265               1.000000000               0.000000011               0.000010137               1.000000000               0.000000341               0.000011208               1.000000000               0.000001015               0.000012618               1.000000000               0.000002082               0.000014480               1.000000000               0.000003594               0.000016887               1.000000000               0.000005562               0.000019942               1.000000000               0.000007972               0.000023735               1.000000000              -0.000000215               0.000004842               1.000000000              -0.000000139               0.000004166               1.000000000              -0.000000203               0.000004677               1.000000000              -0.000000075               0.000006030               1.000000000              -0.000000000               0.000007574               1.000000000               0.000000010               0.000008975               1.000000000               0.000000021               0.000010446               1.000000000               0.000000026               0.000011966               1.000000000               0.000000158               0.000013430               1.000000000               0.000000459               0.000015036               1.000000000               0.000001021               0.000016901               1.000000000               0.000001979               0.000019196               1.000000000               0.000003402               0.000022048               1.000000000               0.000005313               0.000025534               1.000000000               0.000007724               0.000029720               1.000000000               0.000010626               0.000034641               1.000000000               0.000013991               0.000040313               1.000000000              -0.000000266               0.000006476               1.000000000              -0.000000337               0.000005627               1.000000000              -0.000000331               0.000006473               1.000000000              -0.000000175               0.000008467               1.000000000              -0.000000052               0.000010823               1.000000000               0.000000043               0.000012932               1.000000000               0.000000120               0.000015181               1.000000000               0.000000291               0.000017549               1.000000000               0.000000700               0.000019981               1.000000000               0.000001446               0.000022745               1.000000000               0.000002595               0.000025980               1.000000000               0.000004263               0.000029838               1.000000000               0.000006501               0.000034399               1.000000000               0.000009272               0.000039718               1.000000000               0.000012571               0.000045819               1.000000000               0.000016371               0.000052690               1.000000000               0.000020633               0.000060333               1.000000000              -0.000000332               0.000008307               1.000000000              -0.000000557               0.000007293               1.000000000              -0.000000521               0.000008673               1.000000000              -0.000000205               0.000011385               1.000000000               0.000000124               0.000014559               1.000000000               0.000000257               0.000017513               1.000000000               0.000000434               0.000020720               1.000000000               0.000000799               0.000024144               1.000000000               0.000001577               0.000027840               1.000000000               0.000002797               0.000032055               1.000000000               0.000004537               0.000037002               1.000000000               0.000006923               0.000042709               1.000000000               0.000009923               0.000049277               1.000000000               0.000013496               0.000056708               1.000000000               0.000017639               0.000064989               1.000000000               0.000022305               0.000074117               1.000000000               0.000027443               0.000084062               1.000000000              -0.000000370               0.000010277               1.000000000              -0.000000794               0.000009196               1.000000000              -0.000000620               0.000011120               1.000000000              -0.000000096               0.000014644               1.000000000               0.000000282               0.000018690               1.000000000               0.000000442               0.000022620               1.000000000               0.000000725               0.000026977               1.000000000               0.000001399               0.000031704               1.000000000               0.000002591               0.000036933               1.000000000               0.000004280               0.000042982               1.000000000               0.000006651               0.000049931               1.000000000               0.000009695               0.000057874               1.000000000               0.000013381               0.000066812               1.000000000               0.000017667               0.000076754               1.000000000               0.000022539               0.000087657               1.000000000               0.000027933               0.000099431               1.000000000               0.000033789               0.000111945               1.000000000              -0.000000306               0.000012220               1.000000000              -0.000001010               0.000011251               1.000000000              -0.000000688               0.000013749               1.000000000              -0.000000016               0.000018109               1.000000000               0.000000420               0.000023098               1.000000000               0.000000570               0.000028275               1.000000000               0.000001019               0.000034003               1.000000000               0.000002062               0.000040340               1.000000000               0.000003594               0.000047454               1.000000000               0.000005801               0.000055672               1.000000000               0.000008746               0.000064977               1.000000000               0.000012366               0.000075434               1.000000000               0.000016613               0.000087109               1.000000000               0.000021475               0.000099896               1.000000000               0.000026874               0.000113762               1.000000000               0.000032748               0.000128539               1.000000000               0.000038931               0.000143997               1.000000000              -0.000000199               0.000014241               1.000000000              -0.000001184               0.000013297               1.000000000              -0.000001030               0.000015465               1.000000000              -0.000000300               0.000019473               1.000000000               0.000000320               0.000024528               1.000000000               0.000000506               0.000029988               1.000000000               0.000000765               0.000035853               1.000000000               0.000001479               0.000042291               1.000000000               0.000002534               0.000049288               1.000000000               0.000004040               0.000057120               1.000000000               0.000006094               0.000065923               1.000000000               0.000008660               0.000075657               1.000000000               0.000011745               0.000086426               1.000000000               0.000015270               0.000098257               1.000000000               0.000019249               0.000111123               1.000000000               0.000023659               0.000124998               1.000000000               0.000028459               0.000139863               1.000000000              -0.000000147               0.000016223               1.000000000              -0.000001310               0.000015349               1.000000000              -0.000001233               0.000017157               1.000000000              -0.000000557               0.000020867               1.000000000               0.000000144               0.000025835               1.000000000               0.000000480               0.000031446               1.000000000               0.000000601               0.000037497               1.000000000               0.000001016               0.000044056               1.000000000               0.000001685               0.000051124               1.000000000               0.000002667               0.000058775               1.000000000               0.000003987               0.000067227               1.000000000               0.000005671               0.000076525               1.000000000               0.000007743               0.000086618               1.000000000               0.000010165               0.000097600               1.000000000               0.000012901               0.000109560               1.000000000               0.000015987               0.000122372               1.000000000               0.000019449               0.000136200               1.000000000              -0.000000080               0.000018009               1.000000000              -0.000001347               0.000017369               1.000000000              -0.000001358               0.000018945               1.000000000              -0.000000811               0.000022381               1.000000000              -0.000000108               0.000027121               1.000000000               0.000000333               0.000032728               1.000000000               0.000000477               0.000038868               1.000000000               0.000000637               0.000045556               1.000000000               0.000001038               0.000052715               1.000000000               0.000001603               0.000060379               1.000000000               0.000002418               0.000068644               1.000000000               0.000003452               0.000077662               1.000000000               0.000004720               0.000087419               1.000000000               0.000006242               0.000097848               1.000000000               0.000007956               0.000109106               1.000000000               0.000009849               0.000121133               1.000000000               0.000011950               0.000133987               1.000000000              -0.000000029               0.000019612               1.000000000              -0.000001262               0.000019238               1.000000000              -0.000001380               0.000020735               1.000000000              -0.000000965               0.000023877               1.000000000              -0.000000339               0.000028297               1.000000000               0.000000140               0.000033756               1.000000000               0.000000342               0.000039916               1.000000000               0.000000396               0.000046709               1.000000000               0.000000590               0.000054005               1.000000000               0.000000882               0.000061763               1.000000000               0.000001294               0.000070006               1.000000000               0.000001864               0.000078863               1.000000000               0.000002545               0.000088396               1.000000000               0.000003372               0.000098583               1.000000000               0.000004326               0.000109365               1.000000000               0.000005351               0.000120899               1.000000000               0.000006404               0.000133110               1.000000000              -0.000000015               0.000020980               1.000000000              -0.000001058               0.000020877               1.000000000              -0.000001227               0.000022324               1.000000000              -0.000000950               0.000025227               1.000000000              -0.000000505               0.000029414               1.000000000              -0.000000047               0.000034675               1.000000000               0.000000179               0.000040773               1.000000000               0.000000227               0.000047550               1.000000000               0.000000284               0.000054914               1.000000000               0.000000403               0.000062756               1.000000000               0.000000570               0.000071028               1.000000000               0.000000817               0.000079838               1.000000000               0.000001133               0.000089225               1.000000000               0.000001497               0.000099288               1.000000000               0.000001930               0.000109870               1.000000000               0.000002397               0.000121078               1.000000000               0.000002844               0.000132902               1.000000000               0.000000004               0.000021947               1.000000000              -0.000000753               0.000022135               1.000000000              -0.000000917               0.000023622               1.000000000              -0.000000776               0.000026371               1.000000000              -0.000000476               0.000030344               1.000000000              -0.000000158               0.000035395               1.000000000               0.000000041               0.000041380               1.000000000               0.000000083               0.000048101               1.000000000               0.000000112               0.000055463               1.000000000               0.000000149               0.000063360               1.000000000               0.000000197               0.000071680               1.000000000               0.000000265               0.000080476               1.000000000               0.000000351               0.000089777               1.000000000               0.000000453               0.000099697               1.000000000               0.000000591               0.000110192               1.000000000               0.000000761               0.000121188               1.000000000               0.000000948               0.000132725               1.000000000               0.000000009               0.000022549               1.000000000              -0.000000399               0.000022951               1.000000000              -0.000000489               0.000024485               1.000000000              -0.000000444               0.000027157               1.000000000              -0.000000295               0.000031019               1.000000000              -0.000000132               0.000035914               1.000000000              -0.000000012               0.000041753               1.000000000               0.000000027               0.000048416               1.000000000               0.000000042               0.000055753               1.000000000               0.000000048               0.000063663               1.000000000               0.000000041               0.000072030               1.000000000               0.000000038               0.000080829               1.000000000               0.000000038               0.000090090               1.000000000               0.000000042               0.000099888               1.000000000               0.000000059               0.000110278               1.000000000               0.000000107               0.000121132               1.000000000               0.000000191               0.000132483               1.000000000              -0.000000000               0.000022764               1.000000000              -0.000000000               0.000023233               1.000000000              -0.000000000               0.000024783               1.000000000               0.000000000               0.000027434               1.000000000               0.000000000               0.000031244               1.000000000               0.000000000               0.000036106               1.000000000              -0.000000000               0.000041921               1.000000000               0.000000000               0.000048555               1.000000000               0.000000000               0.000055865               1.000000000               0.000000000               0.000063775               1.000000000              -0.000000000               0.000072157               1.000000000              -0.000000000               0.000080942               1.000000000               0.000000000               0.000090186               1.000000000              -0.000000000               0.000099938               1.000000000              -0.000000000               0.000110272               1.000000000               0.000000000               0.000121066               1.000000000               0.000000000               0.000132349               1.000000000 </DataArray>
<DataArray type="Float64"                                    Name="stress"                                                      NumberOfComponents="10" format="ascii">
              0.000032894               0.000203207               0.000000000              -0.000013066               0.000072090               0.000059025               0.000000000               0.000000000               0.000000000               0.000000000               0.000043813               0.000173101              -0.000000000              -0.000005208               0.000059436               0.000054228               0.000000000               0.000000000               0.000000000               0.000000000               0.000061108               0.000163185              -0.000000000               0.000002517               0.000053555               0.000056073               0.000000000               0.000000000               0.000000000               0.000000000               0.000060440               0.000170227              -0.000000000               0.000001386               0.000056280               0.000057666               0.000000000               0.000000000               0.000000000               0.000000000               0.000056869               0.000177220              -0.000000000              -0.000000827               0.000059348               0.000058522               0.000000000               0.000000000               0.000000000               0.000000000               0.000054939               0.000177560               0.000000000              -0.000001593               0.000059717               0.000058124               0.000000000               0.000000000               0.000000000               0.000000000               0.000052940               0.000181553               0.000000000              -0.000002842               0.000061464               0.000058623               0.000000000               0.000000000               0.000000000               0.000000000               0.000050501               0.000184944              -0.000000000              -0.000004180               0.000063041               0.000058861               0.000000000               0.000000000               0.000000000               0.000000000               0.000050784               0.000183647              -0.000000000              -0.000003912               0.000062519               0.000058607               0.000000000               0.000000000               0.000000000               0.000000000               0.000054066               0.000178183              -0.000000000              -0.000001998               0.000060060               0.000058062               0.000000000               0.000000000               0.000000000               0.000000000               0.000059045               0.000168685              -0.000000000               0.000001056               0.000055876               0.000056932               0.000000000               0.000000000               0.000000000               0.000000000               0.000064237               0.000158477              -0.000000000               0.000004279               0.000051399               0.000055678               0.000000000               0.000000000               0.000000000               0.000000000               0.000065638               0.000150492               0.000000000               0.000005803               0.000048229               0.000054032               0.000000000               0.000000000               0.000000000               0.000000000               0.000060160               0.000147093               0.000000000               0.000004173               0.000047639               0.000051813               0.000000000               0.000000000               0.000000000               0.000000000               0.000046911               0.000149847               0.000000000              -0.000001139               0.000050328               0.000049189               0.000000000               0.000000000               0.000000000               0.000000000               0.000025944               0.000158171               0.000000000              -0.000010042               0.000056070               0.000046028               0.000000000               0.000000000               0.000000000               0.000000000               0.000015401               0.000167809              -0.000000000              -0.000015201               0.000061003               0.000045802               0.000000000               0.000000000               0.000000000               0.000000000               0.000036063               0.000204095              -0.000017716              -0.000011988               0.000072027               0.000060039               0.000000000               0.000000000               0.000000000               0.000000000               0.000045346               0.000174009              -0.000008998              -0.000004746               0.000059585               0.000054838               0.000000000               0.000000000               0.000000000               0.000000000               0.000063157               0.000167462               0.000000726               0.000002751               0.000054903               0.000057654               0.000000000               0.000000000               0.000000000               0.000000000               0.000062603               0.000176518               0.000004207               0.000001411               0.000058368               0.000059779               0.000000000               0.000000000               0.000000000               0.000000000               0.000057413               0.000185017               0.000001450              -0.000001597               0.000062204               0.000060607               0.000000000               0.000000000               0.000000000               0.000000000               0.000057174               0.000186937               0.000001544              -0.000001927               0.000062954               0.000061027               0.000000000               0.000000000               0.000000000               0.000000000               0.000060138               0.000193848               0.000004524              -0.000001679               0.000065175               0.000063496               0.000000000               0.000000000               0.000000000               0.000000000               0.000060019               0.000197500               0.000004414              -0.000002180               0.000066559               0.000064379               0.000000000               0.000000000               0.000000000               0.000000000               0.000061456               0.000197607               0.000003583              -0.000001655               0.000066420               0.000064765               0.000000000               0.000000000               0.000000000               0.000000000               0.000065468               0.000195964               0.000002327               0.000000055               0.000065302               0.000065358               0.000000000               0.000000000               0.000000000               0.000000000               0.000068471               0.000192446               0.000000823               0.000001621               0.000063608               0.000065229               0.000000000               0.000000000               0.000000000               0.000000000               0.000069687               0.000189685               0.000000008               0.000002422               0.000062420               0.000064842               0.000000000               0.000000000               0.000000000               0.000000000               0.000067837               0.000189871              -0.000000069               0.000001705               0.000062721               0.000064426               0.000000000               0.000000000               0.000000000               0.000000000               0.000060337               0.000194590               0.000000801              -0.000001697               0.000065428               0.000063731               0.000000000               0.000000000               0.000000000               0.000000000               0.000046228               0.000205154               0.000001987              -0.000008309               0.000071153               0.000062845               0.000000000               0.000000000               0.000000000               0.000000000               0.000025325               0.000222283               0.000002176              -0.000018288               0.000080190               0.000061901               0.000000000               0.000000000               0.000000000               0.000000000               0.000016401               0.000239758               0.000000083              -0.000023819               0.000087858               0.000064039               0.000000000               0.000000000               0.000000000               0.000000000               0.000043040               0.000211906              -0.000033948              -0.000010348               0.000074084               0.000063736               0.000000000               0.000000000               0.000000000               0.000000000               0.000048907               0.000183139              -0.000016657              -0.000004552               0.000062563               0.000058011               0.000000000               0.000000000               0.000000000               0.000000000               0.000063925               0.000183078               0.000003061               0.000001087               0.000060663               0.000061750               0.000000000               0.000000000               0.000000000               0.000000000               0.000067495               0.000198905               0.000008939               0.000000448               0.000066152               0.000066600               0.000000000               0.000000000               0.000000000               0.000000000               0.000069390               0.000212708               0.000003348              -0.000000567               0.000071091               0.000070524               0.000000000               0.000000000               0.000000000               0.000000000               0.000073669               0.000222591               0.000002251              -0.000000198               0.000074262               0.000074064               0.000000000               0.000000000               0.000000000               0.000000000               0.000079045               0.000232893               0.000004547               0.000000530               0.000077454               0.000077984               0.000000000               0.000000000               0.000000000               0.000000000               0.000082200               0.000238786               0.000001510               0.000000977               0.000079269               0.000080246               0.000000000               0.000000000               0.000000000               0.000000000               0.000086067               0.000244864              -0.000001820               0.000001667               0.000081065               0.000082732               0.000000000               0.000000000               0.000000000               0.000000000               0.000089993               0.000252830              -0.000005818               0.000002144               0.000083561               0.000085705               0.000000000               0.000000000               0.000000000               0.000000000               0.000089367               0.000263893              -0.000009746               0.000000526               0.000087788               0.000088314               0.000000000               0.000000000               0.000000000               0.000000000               0.000083060               0.000278686              -0.000012349              -0.000003688               0.000094124               0.000090436               0.000000000               0.000000000               0.000000000               0.000000000               0.000073172               0.000298185              -0.000013484              -0.000009834               0.000102672               0.000092838               0.000000000               0.000000000               0.000000000               0.000000000               0.000059751               0.000322143              -0.000012612              -0.000017861               0.000113334               0.000095473               0.000000000               0.000000000               0.000000000               0.000000000               0.000042646               0.000350283              -0.000009940              -0.000027793               0.000126024               0.000098231               0.000000000               0.000000000               0.000000000               0.000000000               0.000022219               0.000383614              -0.000005605              -0.000039619               0.000141077               0.000101457               0.000000000               0.000000000               0.000000000               0.000000000               0.000016359               0.000411929              -0.000006023              -0.000045356               0.000152427               0.000107071               0.000000000               0.000000000               0.000000000               0.000000000               0.000053666               0.000230182              -0.000051573              -0.000008648               0.000079609               0.000070961               0.000000000               0.000000000               0.000000000               0.000000000               0.000057652               0.000206701              -0.000025167              -0.000004218               0.000070306               0.000066088               0.000000000               0.000000000               0.000000000               0.000000000               0.000069609               0.000215331               0.000004045              -0.000000813               0.000072047               0.000071234               0.000000000               0.000000000               0.000000000               0.000000000               0.000076026               0.000240800               0.000010621              -0.000001590               0.000080796               0.000079206               0.000000000               0.000000000               0.000000000               0.000000000               0.000085094               0.000264564               0.000002800              -0.000001160               0.000088574               0.000087414               0.000000000               0.000000000               0.000000000               0.000000000               0.000094539               0.000288030              -0.000001859              -0.000000552               0.000096193               0.000095641               0.000000000               0.000000000               0.000000000               0.000000000               0.000104303               0.000305884              -0.000002245               0.000000878               0.000101668               0.000102546               0.000000000               0.000000000               0.000000000               0.000000000               0.000112765               0.000322125              -0.000007661               0.000002021               0.000106700               0.000108721               0.000000000               0.000000000               0.000000000               0.000000000               0.000116917               0.000338228              -0.000013832               0.000001565               0.000112220               0.000113785               0.000000000               0.000000000               0.000000000               0.000000000               0.000120018               0.000359029              -0.000019783               0.000000128               0.000119633               0.000119761               0.000000000               0.000000000               0.000000000               0.000000000               0.000116639               0.000385377              -0.000024690              -0.000004433               0.000129935               0.000125503               0.000000000               0.000000000               0.000000000               0.000000000               0.000104235               0.000416631              -0.000027594              -0.000012991               0.000143206               0.000130215               0.000000000               0.000000000               0.000000000               0.000000000               0.000087551               0.000453163              -0.000028075              -0.000023814               0.000158991               0.000135177               0.000000000               0.000000000               0.000000000               0.000000000               0.000067746               0.000492929              -0.000025920              -0.000036211               0.000176378               0.000140167               0.000000000               0.000000000               0.000000000               0.000000000               0.000045346               0.000534011              -0.000020708              -0.000049747               0.000194584               0.000144837               0.000000000               0.000000000               0.000000000               0.000000000               0.000022383               0.000575371              -0.000011908              -0.000063528               0.000212964               0.000149437               0.000000000               0.000000000               0.000000000               0.000000000               0.000016445               0.000605431              -0.000009799              -0.000069512               0.000224979               0.000155467               0.000000000               0.000000000               0.000000000               0.000000000               0.000068479               0.000249816              -0.000069091              -0.000005548               0.000085120               0.000079573               0.000000000               0.000000000               0.000000000               0.000000000               0.000066507               0.000235685              -0.000035797              -0.000004520               0.000080068               0.000075547               0.000000000               0.000000000               0.000000000               0.000000000               0.000076288               0.000263190              -0.000000244              -0.000004291               0.000089159               0.000084869               0.000000000               0.000000000               0.000000000               0.000000000               0.000089287               0.000305880               0.000009363              -0.000004752               0.000103543               0.000098791               0.000000000               0.000000000               0.000000000               0.000000000               0.000109658               0.000346304               0.000001300              -0.000002166               0.000116156               0.000113989               0.000000000               0.000000000               0.000000000               0.000000000               0.000124601               0.000378431              -0.000006368              -0.000000578               0.000126335               0.000125757               0.000000000               0.000000000               0.000000000               0.000000000               0.000135572               0.000405677              -0.000009224               0.000000130               0.000135181               0.000135311               0.000000000               0.000000000               0.000000000               0.000000000               0.000141994               0.000432121              -0.000017314              -0.000000767               0.000144294               0.000143527               0.000000000               0.000000000               0.000000000               0.000000000               0.000142501               0.000458996              -0.000026261              -0.000003937               0.000154309               0.000150373               0.000000000               0.000000000               0.000000000               0.000000000               0.000141376               0.000492511              -0.000032907              -0.000008548               0.000167018               0.000158470               0.000000000               0.000000000               0.000000000               0.000000000               0.000132949               0.000530966              -0.000037438              -0.000016515               0.000182492               0.000165977               0.000000000               0.000000000               0.000000000               0.000000000               0.000116197               0.000572894              -0.000038762              -0.000028038               0.000200309               0.000172271               0.000000000               0.000000000               0.000000000               0.000000000               0.000095983               0.000617252              -0.000037052              -0.000041163               0.000219470               0.000178307               0.000000000               0.000000000               0.000000000               0.000000000               0.000073564               0.000662104              -0.000032199              -0.000055176               0.000239091               0.000183915               0.000000000               0.000000000               0.000000000               0.000000000               0.000049030               0.000705342              -0.000024210              -0.000069781               0.000258372               0.000188591               0.000000000               0.000000000               0.000000000               0.000000000               0.000024057               0.000745284              -0.000013210              -0.000084139               0.000276472               0.000192333               0.000000000               0.000000000               0.000000000               0.000000000               0.000016967               0.000772654              -0.000010015              -0.000090219               0.000287622               0.000197403               0.000000000               0.000000000               0.000000000               0.000000000               0.000082354               0.000263633              -0.000085696              -0.000002071               0.000088567               0.000086496               0.000000000               0.000000000               0.000000000               0.000000000               0.000074772               0.000265328              -0.000046526              -0.000005127               0.000090151               0.000085024               0.000000000               0.000000000               0.000000000               0.000000000               0.000086728               0.000323585              -0.000005001              -0.000007925               0.000110502               0.000102577               0.000000000               0.000000000               0.000000000               0.000000000               0.000107641               0.000382182               0.000007290              -0.000007407               0.000129862               0.000122454               0.000000000               0.000000000               0.000000000               0.000000000               0.000135070               0.000428807              -0.000003475              -0.000002950               0.000143917               0.000140968               0.000000000               0.000000000               0.000000000               0.000000000               0.000153925               0.000464361              -0.000014038              -0.000000323               0.000154893               0.000154570               0.000000000               0.000000000               0.000000000               0.000000000               0.000165398               0.000500299              -0.000018964              -0.000000513               0.000166936               0.000166422               0.000000000               0.000000000               0.000000000               0.000000000               0.000166574               0.000534182              -0.000028275              -0.000004308               0.000179495               0.000175187               0.000000000               0.000000000               0.000000000               0.000000000               0.000161356               0.000572114              -0.000037527              -0.000011006               0.000194371               0.000183365               0.000000000               0.000000000               0.000000000               0.000000000               0.000153619               0.000616920              -0.000042444              -0.000019508               0.000212140               0.000192633               0.000000000               0.000000000               0.000000000               0.000000000               0.000139119               0.000666165              -0.000044609              -0.000031101               0.000232420               0.000201319               0.000000000               0.000000000               0.000000000               0.000000000               0.000117312               0.000715604              -0.000043558              -0.000045458               0.000253685               0.000208227               0.000000000               0.000000000               0.000000000               0.000000000               0.000094322               0.000764984              -0.000039380              -0.000060252               0.000275076               0.000214824               0.000000000               0.000000000               0.000000000               0.000000000               0.000070916               0.000812571              -0.000032411              -0.000074978               0.000295847               0.000220869               0.000000000               0.000000000               0.000000000               0.000000000               0.000046402               0.000856581              -0.000023288              -0.000089672               0.000315415               0.000225743               0.000000000               0.000000000               0.000000000               0.000000000               0.000022590               0.000897050              -0.000012277              -0.000103660               0.000333567               0.000229907               0.000000000               0.000000000               0.000000000               0.000000000               0.000016498               0.000925011              -0.000009485              -0.000109440               0.000344814               0.000235374               0.000000000               0.000000000               0.000000000               0.000000000               0.000094897               0.000272096              -0.000100557               0.000001574               0.000090173               0.000091747               0.000000000               0.000000000               0.000000000               0.000000000               0.000085208               0.000296173              -0.000056632              -0.000005069               0.000100413               0.000095344               0.000000000               0.000000000               0.000000000               0.000000000               0.000098420               0.000380529              -0.000011986              -0.000010659               0.000130395               0.000119736               0.000000000               0.000000000               0.000000000               0.000000000               0.000123841               0.000447298              -0.000000582              -0.000009472               0.000152255               0.000142783               0.000000000               0.000000000               0.000000000               0.000000000               0.000156095               0.000494208              -0.000009390              -0.000003240               0.000165814               0.000162574               0.000000000               0.000000000               0.000000000               0.000000000               0.000177663               0.000535446              -0.000018562              -0.000000307               0.000178582               0.000178275               0.000000000               0.000000000               0.000000000               0.000000000               0.000185261               0.000579556              -0.000024045              -0.000002972               0.000194174               0.000191202               0.000000000               0.000000000               0.000000000               0.000000000               0.000181257               0.000623161              -0.000034046              -0.000009923               0.000211026               0.000201102               0.000000000               0.000000000               0.000000000               0.000000000               0.000172242               0.000673474              -0.000042417              -0.000019593               0.000231020               0.000211427               0.000000000               0.000000000               0.000000000               0.000000000               0.000160429               0.000731270              -0.000045102              -0.000031248               0.000254170               0.000222922               0.000000000               0.000000000               0.000000000               0.000000000               0.000140784               0.000790648              -0.000045275              -0.000046037               0.000278892               0.000232855               0.000000000               0.000000000               0.000000000               0.000000000               0.000116334               0.000849541              -0.000042816              -0.000062567               0.000304033               0.000241466               0.000000000               0.000000000               0.000000000               0.000000000               0.000092724               0.000907520              -0.000037163              -0.000078668               0.000328726               0.000250058               0.000000000               0.000000000               0.000000000               0.000000000               0.000068686               0.000962730              -0.000029788              -0.000094584               0.000352435               0.000257851               0.000000000               0.000000000               0.000000000               0.000000000               0.000044414               0.001014087              -0.000021058              -0.000110105               0.000374727               0.000264622               0.000000000               0.000000000               0.000000000               0.000000000               0.000021772               0.001060858              -0.000011056              -0.000124442               0.000395097               0.000270654               0.000000000               0.000000000               0.000000000               0.000000000               0.000016195               0.001091700              -0.000009075              -0.000130389               0.000407359               0.000276971               0.000000000               0.000000000               0.000000000               0.000000000               0.000110650               0.000272016              -0.000109254               0.000007491               0.000088174               0.000095665               0.000000000               0.000000000               0.000000000               0.000000000               0.000095490               0.000320983              -0.000065896              -0.000004314               0.000108431               0.000104117               0.000000000               0.000000000               0.000000000               0.000000000               0.000106477               0.000425596              -0.000020074              -0.000013271               0.000146287               0.000133017               0.000000000               0.000000000               0.000000000               0.000000000               0.000136618               0.000499248              -0.000005949              -0.000011174               0.000170139               0.000158965               0.000000000               0.000000000               0.000000000               0.000000000               0.000172582               0.000550983              -0.000010348              -0.000004155               0.000185044               0.000180889               0.000000000               0.000000000               0.000000000               0.000000000               0.000194085               0.000603464              -0.000018507              -0.000002651               0.000202036               0.000199385               0.000000000               0.000000000               0.000000000               0.000000000               0.000195874               0.000658189              -0.000025715              -0.000008821               0.000222335               0.000213514               0.000000000               0.000000000               0.000000000               0.000000000               0.000189668               0.000715620              -0.000037032              -0.000018327               0.000244646               0.000226320               0.000000000               0.000000000               0.000000000               0.000000000               0.000180579               0.000781486              -0.000043130              -0.000029969               0.000270482               0.000240514               0.000000000               0.000000000               0.000000000               0.000000000               0.000166401               0.000853320              -0.000044830              -0.000044264               0.000299192               0.000254928               0.000000000               0.000000000               0.000000000               0.000000000               0.000144534               0.000923296              -0.000043864              -0.000061211               0.000328166               0.000266955               0.000000000               0.000000000               0.000000000               0.000000000               0.000120826               0.000992269              -0.000039320              -0.000078724               0.000356994               0.000278271               0.000000000               0.000000000               0.000000000               0.000000000               0.000096862               0.001059574              -0.000032462              -0.000096123               0.000385229               0.000289106               0.000000000               0.000000000               0.000000000               0.000000000               0.000072074               0.001123110              -0.000024216              -0.000113361               0.000412153               0.000298792               0.000000000               0.000000000               0.000000000               0.000000000               0.000047056               0.001182239              -0.000015678              -0.000130134               0.000437453               0.000307320               0.000000000               0.000000000               0.000000000               0.000000000               0.000023660               0.001235044              -0.000007765              -0.000145508               0.000460180               0.000314672               0.000000000               0.000000000               0.000000000               0.000000000               0.000015874               0.001268011              -0.000006852              -0.000152548               0.000473515               0.000320967               0.000000000               0.000000000               0.000000000               0.000000000               0.000124364               0.000264274              -0.000108437               0.000013602               0.000083557               0.000097159               0.000000000               0.000000000               0.000000000               0.000000000               0.000102392               0.000333303              -0.000070537              -0.000003266               0.000112189               0.000108923               0.000000000               0.000000000               0.000000000               0.000000000               0.000106423               0.000456436              -0.000026933              -0.000017146               0.000157859               0.000140713               0.000000000               0.000000000               0.000000000               0.000000000               0.000140049               0.000536487              -0.000009185              -0.000014542               0.000183675               0.000169132               0.000000000               0.000000000               0.000000000               0.000000000               0.000183989               0.000598881              -0.000008702              -0.000005864               0.000201580               0.000195716               0.000000000               0.000000000               0.000000000               0.000000000               0.000208534               0.000663589              -0.000016056              -0.000004748               0.000222777               0.000218028               0.000000000               0.000000000               0.000000000               0.000000000               0.000208805               0.000728011              -0.000026315              -0.000012699               0.000246901               0.000234202               0.000000000               0.000000000               0.000000000               0.000000000               0.000203809               0.000795874              -0.000036865              -0.000023056               0.000272974               0.000249918               0.000000000               0.000000000               0.000000000               0.000000000               0.000195441               0.000871900              -0.000040990              -0.000035697               0.000302529               0.000266832               0.000000000               0.000000000               0.000000000               0.000000000               0.000180209               0.000951534              -0.000042103              -0.000051363               0.000334296               0.000282933               0.000000000               0.000000000               0.000000000               0.000000000               0.000159858               0.001028832              -0.000040585              -0.000068657               0.000365826               0.000297169               0.000000000               0.000000000               0.000000000               0.000000000               0.000138361               0.001105014              -0.000034477              -0.000086241               0.000397081               0.000310840               0.000000000               0.000000000               0.000000000               0.000000000               0.000115730               0.001179328              -0.000026416              -0.000104017               0.000427778               0.000323761               0.000000000               0.000000000               0.000000000               0.000000000               0.000091740               0.001249899              -0.000017464              -0.000121834               0.000457240               0.000335406               0.000000000               0.000000000               0.000000000               0.000000000               0.000068168               0.001316423              -0.000008760              -0.000138990               0.000485133               0.000346143               0.000000000               0.000000000               0.000000000               0.000000000               0.000047587               0.001377664              -0.000002055              -0.000154362               0.000510671               0.000356308               0.000000000               0.000000000               0.000000000               0.000000000               0.000037001               0.001410719               0.000000139              -0.000162464               0.000524390               0.000361926               0.000000000               0.000000000               0.000000000               0.000000000               0.000126448               0.000241251              -0.000102777               0.000017261               0.000074662               0.000091924               0.000000000               0.000000000               0.000000000               0.000000000               0.000105960               0.000319671              -0.000073686              -0.000000224               0.000106630               0.000106407               0.000000000               0.000000000               0.000000000               0.000000000               0.000107858               0.000454944              -0.000038638              -0.000016421               0.000157120               0.000140699               0.000000000               0.000000000               0.000000000               0.000000000               0.000140520               0.000553433              -0.000019807              -0.000016484               0.000189971               0.000173487               0.000000000               0.000000000               0.000000000               0.000000000               0.000188407               0.000633847              -0.000011927              -0.000008578               0.000214139               0.000205561               0.000000000               0.000000000               0.000000000               0.000000000               0.000222571               0.000703704              -0.000014563              -0.000004499               0.000236065               0.000231566               0.000000000               0.000000000               0.000000000               0.000000000               0.000230831               0.000770799              -0.000024780              -0.000009788               0.000260193               0.000250405               0.000000000               0.000000000               0.000000000               0.000000000               0.000227921               0.000836772              -0.000034656              -0.000019126               0.000285297               0.000266171               0.000000000               0.000000000               0.000000000               0.000000000               0.000222272               0.000907474              -0.000039683              -0.000030082               0.000312516               0.000282433               0.000000000               0.000000000               0.000000000               0.000000000               0.000212139               0.000985097              -0.000041412              -0.000043585               0.000342891               0.000299306               0.000000000               0.000000000               0.000000000               0.000000000               0.000196085               0.001061773              -0.000040118              -0.000059189               0.000373651               0.000314461               0.000000000               0.000000000               0.000000000               0.000000000               0.000177125               0.001137252              -0.000035847              -0.000075735               0.000404325               0.000328591               0.000000000               0.000000000               0.000000000               0.000000000               0.000157774               0.001213164              -0.000028394              -0.000092480               0.000435211               0.000342730               0.000000000               0.000000000               0.000000000               0.000000000               0.000137917               0.001289046              -0.000019254              -0.000109411               0.000466148               0.000356737               0.000000000               0.000000000               0.000000000               0.000000000               0.000117891               0.001363286              -0.000010656              -0.000126201               0.000496491               0.000370290               0.000000000               0.000000000               0.000000000               0.000000000               0.000100665               0.001437992              -0.000003292              -0.000141999               0.000526659               0.000384660               0.000000000               0.000000000               0.000000000               0.000000000               0.000087017               0.001472969               0.000002162              -0.000151489               0.000541481               0.000389992               0.000000000               0.000000000               0.000000000               0.000000000               0.000121991               0.000206843              -0.000093455               0.000019891               0.000062317               0.000082208               0.000000000               0.000000000               0.000000000               0.000000000               0.000108791               0.000292783              -0.000077113               0.000004199               0.000096194               0.000100392               0.000000000               0.000000000               0.000000000               0.000000000               0.000115818               0.000441237              -0.000052664              -0.000011723               0.000150985               0.000139262               0.000000000               0.000000000               0.000000000               0.000000000               0.000144433               0.000559792              -0.000032730              -0.000015811               0.000191866               0.000176054               0.000000000               0.000000000               0.000000000               0.000000000               0.000187430               0.000651996              -0.000017791              -0.000011213               0.000221067               0.000209854               0.000000000               0.000000000               0.000000000               0.000000000               0.000227642               0.000725977              -0.000011880              -0.000005381               0.000243784               0.000238402               0.000000000               0.000000000               0.000000000               0.000000000               0.000245953               0.000793274              -0.000016521              -0.000006927               0.000266731               0.000259804               0.000000000               0.000000000               0.000000000               0.000000000               0.000247674               0.000857338              -0.000025179              -0.000014290               0.000290540               0.000276250               0.000000000               0.000000000               0.000000000               0.000000000               0.000246592               0.000921871              -0.000032100              -0.000022762               0.000314875               0.000292113               0.000000000               0.000000000               0.000000000               0.000000000               0.000243198               0.000993707              -0.000035863              -0.000033014               0.000342237               0.000309223               0.000000000               0.000000000               0.000000000               0.000000000               0.000236823               0.001070656              -0.000036191              -0.000045023               0.000371890               0.000326866               0.000000000               0.000000000               0.000000000               0.000000000               0.000226079               0.001145298              -0.000034854              -0.000058383               0.000401223               0.000342840               0.000000000               0.000000000               0.000000000               0.000000000               0.000212330               0.001217704              -0.000030966              -0.000072589               0.000430094               0.000357505               0.000000000               0.000000000               0.000000000               0.000000000               0.000199448               0.001294207              -0.000023734              -0.000086983               0.000460392               0.000373410               0.000000000               0.000000000               0.000000000               0.000000000               0.000184264               0.001367816              -0.000015331              -0.000101878               0.000489893               0.000388016               0.000000000               0.000000000               0.000000000               0.000000000               0.000168104               0.001441603              -0.000007034              -0.000117161               0.000519583               0.000402422               0.000000000               0.000000000               0.000000000               0.000000000               0.000152253               0.001474787               0.000000634              -0.000127253               0.000534008               0.000406755               0.000000000               0.000000000               0.000000000               0.000000000               0.000115749               0.000173013              -0.000079779               0.000021779               0.000050411               0.000072190               0.000000000               0.000000000               0.000000000               0.000000000               0.000112478               0.000264861              -0.000076628               0.000009071               0.000085262               0.000094334               0.000000000               0.000000000               0.000000000               0.000000000               0.000124254               0.000424425              -0.000063668              -0.000006458               0.000143626               0.000137168               0.000000000               0.000000000               0.000000000               0.000000000               0.000149871               0.000554090              -0.000044356              -0.000013060               0.000189048               0.000175988               0.000000000               0.000000000               0.000000000               0.000000000               0.000186019               0.000655348              -0.000025252              -0.000012161               0.000222501               0.000210340               0.000000000               0.000000000               0.000000000               0.000000000               0.000225721               0.000737211              -0.000011831              -0.000007506               0.000248236               0.000240731               0.000000000               0.000000000               0.000000000               0.000000000               0.000254428               0.000810002              -0.000009052              -0.000005840               0.000271945               0.000266105               0.000000000               0.000000000               0.000000000               0.000000000               0.000265445               0.000876948              -0.000015031              -0.000010077               0.000295672               0.000285595               0.000000000               0.000000000               0.000000000               0.000000000               0.000269973               0.000939328              -0.000022629              -0.000016176               0.000318498               0.000302322               0.000000000               0.000000000               0.000000000               0.000000000               0.000271965               0.001005087              -0.000027860              -0.000023649               0.000342909               0.000319260               0.000000000               0.000000000               0.000000000               0.000000000               0.000272820               0.001078154              -0.000030303              -0.000032462               0.000370202               0.000337740               0.000000000               0.000000000               0.000000000               0.000000000               0.000271857               0.001154205              -0.000030174              -0.000042329               0.000398841               0.000356512               0.000000000               0.000000000               0.000000000               0.000000000               0.000265990               0.001225223              -0.000028994              -0.000053407               0.000426206               0.000372799               0.000000000               0.000000000               0.000000000               0.000000000               0.000259007               0.001297805              -0.000025211              -0.000065098               0.000454297               0.000389199               0.000000000               0.000000000               0.000000000               0.000000000               0.000251053               0.001371087              -0.000018080              -0.000077241               0.000482771               0.000405530               0.000000000               0.000000000               0.000000000               0.000000000               0.000240174               0.001443685              -0.000009955              -0.000090395               0.000511355               0.000420960               0.000000000               0.000000000               0.000000000               0.000000000               0.000225405               0.001474342              -0.000002315              -0.000099766               0.000524698               0.000424932               0.000000000               0.000000000               0.000000000               0.000000000               0.000101465               0.000140896              -0.000065087               0.000020437               0.000040152               0.000060589               0.000000000               0.000000000               0.000000000               0.000000000               0.000115546               0.000235600              -0.000070645               0.000013880               0.000073906               0.000087786               0.000000000               0.000000000               0.000000000               0.000000000               0.000135842               0.000396687              -0.000066925               0.000001355               0.000131776               0.000133131               0.000000000               0.000000000               0.000000000               0.000000000               0.000159225               0.000530833              -0.000050766              -0.000006645               0.000179157               0.000172513               0.000000000               0.000000000               0.000000000               0.000000000               0.000188381               0.000643746              -0.000031761              -0.000009825               0.000217855               0.000208030               0.000000000               0.000000000               0.000000000               0.000000000               0.000225478               0.000739448              -0.000015021              -0.000007877               0.000249106               0.000241229               0.000000000               0.000000000               0.000000000               0.000000000               0.000259283               0.000822715              -0.000006014              -0.000005608               0.000276105               0.000270497               0.000000000               0.000000000               0.000000000               0.000000000               0.000280664               0.000896145              -0.000007160              -0.000006769               0.000300968               0.000294199               0.000000000               0.000000000               0.000000000               0.000000000               0.000291260               0.000959533              -0.000013117              -0.000010719               0.000323414               0.000312695               0.000000000               0.000000000               0.000000000               0.000000000               0.000298179               0.001020136              -0.000017968              -0.000015700               0.000345275               0.000329576               0.000000000               0.000000000               0.000000000               0.000000000               0.000303560               0.001086239              -0.000021306              -0.000021945               0.000369391               0.000347446               0.000000000               0.000000000               0.000000000               0.000000000               0.000309274               0.001159382              -0.000022157              -0.000028945               0.000396105               0.000367160               0.000000000               0.000000000               0.000000000               0.000000000               0.000312974               0.001232527              -0.000021514              -0.000036700               0.000423072               0.000386371               0.000000000               0.000000000               0.000000000               0.000000000               0.000313188               0.001301569              -0.000020387              -0.000045250               0.000448936               0.000403685               0.000000000               0.000000000               0.000000000               0.000000000               0.000313411               0.001372713              -0.000016254              -0.000054060               0.000475586               0.000421526               0.000000000               0.000000000               0.000000000               0.000000000               0.000313522               0.001446440              -0.000009395              -0.000063234               0.000503220               0.000439986               0.000000000               0.000000000               0.000000000               0.000000000               0.000306656               0.001477513              -0.000003414              -0.000069693               0.000515730               0.000446037               0.000000000               0.000000000               0.000000000               0.000000000               0.000082452               0.000108336              -0.000048113               0.000017377               0.000030319               0.000047697               0.000000000               0.000000000               0.000000000               0.000000000               0.000115552               0.000204195              -0.000059053               0.000017807               0.000062129               0.000079936               0.000000000               0.000000000               0.000000000               0.000000000               0.000148139               0.000363142              -0.000061824               0.000010159               0.000117660               0.000127819               0.000000000               0.000000000               0.000000000               0.000000000               0.000172436               0.000503132              -0.000049875               0.000001772               0.000167118               0.000168890               0.000000000               0.000000000               0.000000000               0.000000000               0.000197871               0.000627316              -0.000034541              -0.000004213               0.000210507               0.000206295               0.000000000               0.000000000               0.000000000               0.000000000               0.000229066               0.000734745              -0.000018532              -0.000005943               0.000246894               0.000240950               0.000000000               0.000000000               0.000000000               0.000000000               0.000262073               0.000827263              -0.000006283              -0.000005130               0.000277462               0.000272331               0.000000000               0.000000000               0.000000000               0.000000000               0.000289204               0.000907350              -0.000002465              -0.000004967               0.000304103               0.000299136               0.000000000               0.000000000               0.000000000               0.000000000               0.000307408               0.000975675              -0.000004916              -0.000006681               0.000327449               0.000320767               0.000000000               0.000000000               0.000000000               0.000000000               0.000319921               0.001034969              -0.000008465              -0.000009401               0.000348120               0.000338719               0.000000000               0.000000000               0.000000000               0.000000000               0.000330825               0.001096313              -0.000011460              -0.000012980               0.000369760               0.000356781               0.000000000               0.000000000               0.000000000               0.000000000               0.000341625               0.001164117              -0.000012933              -0.000017405               0.000393837               0.000376431               0.000000000               0.000000000               0.000000000               0.000000000               0.000353107               0.001237865              -0.000012469              -0.000022318               0.000420057               0.000397739               0.000000000               0.000000000               0.000000000               0.000000000               0.000362068               0.001308201              -0.000011764              -0.000027750               0.000445312               0.000417563               0.000000000               0.000000000               0.000000000               0.000000000               0.000369668               0.001375912              -0.000010384              -0.000033363               0.000469754               0.000436391               0.000000000               0.000000000               0.000000000               0.000000000               0.000378985               0.001446849              -0.000006102              -0.000038737               0.000495191               0.000456454               0.000000000               0.000000000               0.000000000               0.000000000               0.000380962               0.001479613              -0.000002317              -0.000042091               0.000507229               0.000465139               0.000000000               0.000000000               0.000000000               0.000000000               0.000065428               0.000085514              -0.000030181               0.000013846               0.000023889               0.000037735               0.000000000               0.000000000               0.000000000               0.000000000               0.000113214               0.000179420              -0.000042204               0.000020028               0.000053130               0.000073158               0.000000000               0.000000000               0.000000000               0.000000000               0.000157860               0.000333607              -0.000048164               0.000017496               0.000105369               0.000122865               0.000000000               0.000000000               0.000000000               0.000000000               0.000185234               0.000475693              -0.000041274               0.000010001               0.000155229               0.000165230               0.000000000               0.000000000               0.000000000               0.000000000               0.000210399               0.000606762              -0.000030541               0.000003054               0.000201234               0.000204288               0.000000000               0.000000000               0.000000000               0.000000000               0.000236651               0.000722963              -0.000017633              -0.000001626               0.000241527               0.000239901               0.000000000               0.000000000               0.000000000               0.000000000               0.000266817               0.000824537              -0.000006139              -0.000003011               0.000275847               0.000272836               0.000000000               0.000000000               0.000000000               0.000000000               0.000296014               0.000912160              -0.000000865              -0.000003015               0.000305055               0.000302040               0.000000000               0.000000000               0.000000000               0.000000000               0.000320098               0.000987523              -0.000000921              -0.000003404               0.000330306               0.000326902               0.000000000               0.000000000               0.000000000               0.000000000               0.000337897               0.001049799              -0.000002595              -0.000004513               0.000351434               0.000346920               0.000000000               0.000000000               0.000000000               0.000000000               0.000352881               0.001108365              -0.000004536              -0.000006215               0.000371523               0.000365308               0.000000000               0.000000000               0.000000000               0.000000000               0.000367683               0.001170698              -0.000005543              -0.000008456               0.000393047               0.000384591               0.000000000               0.000000000               0.000000000               0.000000000               0.000384095               0.001240679              -0.000005149              -0.000011049               0.000417238               0.000406189               0.000000000               0.000000000               0.000000000               0.000000000               0.000401038               0.001313603              -0.000004260              -0.000013811               0.000442467               0.000428656               0.000000000               0.000000000               0.000000000               0.000000000               0.000415646               0.001380231              -0.000003916              -0.000016662               0.000465626               0.000448965               0.000000000               0.000000000               0.000000000               0.000000000               0.000430419               0.001445096              -0.000002403              -0.000019230               0.000488104               0.000468874               0.000000000               0.000000000               0.000000000               0.000000000               0.000437427               0.001477248              -0.000000738              -0.000020621               0.000499284               0.000478664               0.000000000               0.000000000               0.000000000               0.000000000               0.000052712               0.000074048              -0.000014815               0.000010511               0.000021179               0.000031690               0.000000000               0.000000000               0.000000000               0.000000000               0.000110750               0.000164018              -0.000022345               0.000021029               0.000047662               0.000068691               0.000000000               0.000000000               0.000000000               0.000000000               0.000163989               0.000312405              -0.000026438               0.000022445               0.000096652               0.000119097               0.000000000               0.000000000               0.000000000               0.000000000               0.000195762               0.000455485              -0.000023505               0.000016475               0.000146335               0.000162810               0.000000000               0.000000000               0.000000000               0.000000000               0.000220561               0.000589920              -0.000018260               0.000008970               0.000193648               0.000202618               0.000000000               0.000000000               0.000000000               0.000000000               0.000244582               0.000710563              -0.000011529               0.000002898               0.000235886               0.000238784               0.000000000               0.000000000               0.000000000               0.000000000               0.000272281               0.000819451              -0.000004926              -0.000000326               0.000273256               0.000272930               0.000000000               0.000000000               0.000000000               0.000000000               0.000301454               0.000913851              -0.000001168              -0.000001186               0.000305009               0.000303823               0.000000000               0.000000000               0.000000000               0.000000000               0.000327328               0.000994025              -0.000000193              -0.000001505               0.000331840               0.000330335               0.000000000               0.000000000               0.000000000               0.000000000               0.000348583               0.001060537              -0.000000362              -0.000001849               0.000354125               0.000352276               0.000000000               0.000000000               0.000000000               0.000000000               0.000366705               0.001118380              -0.000001131              -0.000002283               0.000373551               0.000371268               0.000000000               0.000000000               0.000000000               0.000000000               0.000384684               0.001176887              -0.000001581              -0.000002854               0.000393243               0.000390389               0.000000000               0.000000000               0.000000000               0.000000000               0.000404694               0.001242380              -0.000001396              -0.000003537               0.000415302               0.000411764               0.000000000               0.000000000               0.000000000               0.000000000               0.000426839               0.001315104              -0.000000751              -0.000004324               0.000439805               0.000435481               0.000000000               0.000000000               0.000000000               0.000000000               0.000446689               0.001382493              -0.000000522              -0.000005303               0.000462594               0.000457291               0.000000000               0.000000000               0.000000000               0.000000000               0.000464274               0.001444320              -0.000000400              -0.000006437               0.000483581               0.000477144               0.000000000               0.000000000               0.000000000               0.000000000               0.000472561               0.001475364              -0.000000025              -0.000007210               0.000494186               0.000486976               0.000000000               0.000000000               0.000000000               0.000000000               0.000048010               0.000069756              -0.000000000               0.000009284               0.000020157               0.000029441               0.000000000               0.000000000               0.000000000               0.000000000               0.000110292               0.000158343              -0.000000000               0.000021566               0.000045592               0.000067158               0.000000000               0.000000000               0.000000000               0.000000000               0.000166174               0.000304535              -0.000000000               0.000024248               0.000093428               0.000117676               0.000000000               0.000000000               0.000000000               0.000000000               0.000200070               0.000447645               0.000000000               0.000019071               0.000142857               0.000161927               0.000000000               0.000000000               0.000000000               0.000000000               0.000225089               0.000583587               0.000000000               0.000011460               0.000190707               0.000202167               0.000000000               0.000000000               0.000000000               0.000000000               0.000248461               0.000706623               0.000000000               0.000004845               0.000233924               0.000238769               0.000000000               0.000000000               0.000000000               0.000000000               0.000274634               0.000817566               0.000000000               0.000000792               0.000272255               0.000273047               0.000000000               0.000000000               0.000000000               0.000000000               0.000302660               0.000913312              -0.000000000              -0.000000666               0.000304656               0.000303990               0.000000000               0.000000000               0.000000000               0.000000000               0.000328929               0.000995370               0.000000000              -0.000001073               0.000332144               0.000331071               0.000000000               0.000000000               0.000000000               0.000000000               0.000351715               0.001064169              -0.000000000              -0.000001128               0.000355095               0.000353967               0.000000000               0.000000000               0.000000000               0.000000000               0.000371371               0.001121746              -0.000000000              -0.000000954               0.000374230               0.000373275               0.000000000               0.000000000               0.000000000               0.000000000               0.000390793               0.001178950              -0.000000000              -0.000000821               0.000393253               0.000392432               0.000000000               0.000000000               0.000000000               0.000000000               0.000412248               0.001242919               0.000000000              -0.000000772               0.000414560               0.000413788               0.000000000               0.000000000               0.000000000               0.000000000               0.000436098               0.001314906              -0.000000000              -0.000000827               0.000438573               0.000437747               0.000000000               0.000000000               0.000000000               0.000000000               0.000457854               0.001382709               0.000000000              -0.000001143               0.000461279               0.000460136               0.000000000               0.000000000               0.000000000               0.000000000               0.000476305               0.001444158               0.000000000              -0.000001905               0.000482016               0.000480111               0.000000000               0.000000000               0.000000000               0.000000000               0.000484567               0.001474914               0.000000000              -0.000002651               0.000492517               0.000489865               0.000000000               0.000000000               0.000000000               0.000000000               0.000000000               0.000000000               0.000000000               0.000000000               0.000000000               0.000000000               0.000000000               0.000000000               0.000000000               0.000000000               0.000000000               0.000000000               0.000000000               0.000000000               0.000000000               0.000000000               0.000000000               0.000000000               0.000000000               0.000000000               0.000000000               0.000000000               0.000000000               0.000000000               0.000000000               0.000000000               0.000000000               0.000000000               0.000000000               0.000000000               0.000000000               0.000000000               0.000000000               0.000000000               0.000000000               0.000000000               0.000000000               0.000000000               0.000000000               0.000000000               0.000000000               0.000000000               0.000000000               0.000000000               0.000000000               0.000000000               0.000000000               0.000000000               0.000000000               0.000000000               0.000000000               0.000000000               0.000000000               0.000000000               0.000000000               0.000000000               0.000000000               0.000000000               0.000000000               0.000000000               0.000000000               0.000000000               0.000000000               0.000000000               0.000000000               0.000000000               0.000000000               0.000000000               0.000000000               0.000000000               0.000000000               0.000000000               0.000000000               0.000000000               0.000000000               0.000000000               0.000000000               0.000000000               0.000000000               0.000000000               0.000000000               0.000000000               0.000000000               0.000000000               0.000000000               0.000000000               0.000000000               0.000000000               0.000000000               0.000000000               0.000000000               0.000000000               0.000000000               0.000000000               0.000000000               0.000000000               0.000000000               0.000000000               0.000000000               0.000000000               0.000000000               0.000000000               0.000000000               0.000000000               0.000000000               0.000000000               0.000000000               0.000000000               0.000000000               0.000000000               0.000000000               0.000000000               0.000000000               0.000000000               0.000000000               0.000000000               0.000000000               0.000000000               0.000000000               0.000000000               0.000000000               0.000000000               0.000000000               0.000000000               0.000000000               0.000000000               0.000000000               0.000000000               0.000000000               0.000000000               0.000000000               0.000000000               0.000000000               0.000000000               0.000000000               0.000000000               0.000000000               0.000000000               0.000000000               0.000000000               0.000000000               0.000000000               0.000000000               0.000000000               0.000000000               0.000000000               0.000000000               0.000000000               0.000000000               0.000000000               0.000000000               0.000000000               0.000000000               0.000000000               0.000000000               0.000000000               0.000000000               0.000000000               0.000000000               0.000000000               0.000000000               0.000000000               0.000000000               0.000000000               0.000000000               0.000000000               0.000000000               0.000000000               0.000000000               0.000000000               0.000036063               0.000204095               0.000017716              -0.000011988               0.000072027               0.000060039               0.000000000               0.000000000               0.000000000               0.000000000               0.000045346               0.000174009               0.000008998              -0.000004746               0.000059585               0.000054838               0.000000000               0.000000000               0.000000000               0.000000000               0.000063157               0.000167462              -0.000000726               0.000002751               0.000054903               0.000057654               0.000000000               0.000000000               0.000000000               0.000000000               0.000062603               0.000176518              -0.000004207               0.000001411               0.000058368               0.000059779               0.000000000               0.000000000               0.000000000               0.000000000               0.000057413               0.000185017              -0.000001450              -0.000001597               0.000062204               0.000060607               0.000000000               0.000000000               0.000000000               0.000000000               0.000057174               0.000186937              -0.000001544              -0.000001927               0.000062954               0.000061027               0.000000000               0.000000000               0.000000000               0.000000000               0.000060138               0.000193848              -0.000004524              -0.000001679               0.000065175               0.000063496               0.000000000               0.000000000               0.000000000               0.000000000               0.000060019               0.000197500              -0.000004414              -0.000002180               0.000066559               0.000064379               0.000000000               0.000000000               0.000000000               0.000000000               0.000061456               0.000197607              -0.000003583              -0.000001655               0.000066420               0.000064765               0.000000000               0.000000000               0.000000000               0.000000000               0.000065468               0.000195964              -0.000002327               0.000000055               0.000065302               0.000065358               0.000000000               0.000000000               0.000000000               0.000000000               0.000068471               0.000192446              -0.000000823               0.000001621               0.000063608               0.000065229               0.000000000               0.000000000               0.000000000               0.000000000               0.000069687               0.000189685              -0.000000008               0.000002422               0.000062420               0.000064842               0.000000000               0.000000000               0.000000000               0.000000000               0.000067837               0.000189871               0.000000069               0.000001705               0.000062721               0.000064426               0.000000000               0.000000000               0.000000000               0.000000000               0.000060337               0.000194590              -0.000000801              -0.000001697               0.000065428               0.000063731               0.000000000               0.000000000               0.000000000               0.000000000               0.000046228               0.000205154              -0.000001987              -0.000008309               0.000071153               0.000062845               0.000000000               0.000000000               0.000000000               0.000000000               0.000025325               0.000222283              -0.000002176              -0.000018288               0.000080190               0.000061901               0.000000000               0.000000000               0.000000000               0.000000000               0.000016401               0.000239758              -0.000000083              -0.000023819               0.000087858               0.000064039               0.000000000               0.000000000               0.000000000               0.000000000               0.000043040               0.000211906               0.000033948              -0.000010348               0.000074084               0.000063736               0.000000000               0.000000000               0.000000000               0.000000000               0.000048907               0.000183139               0.000016657              -0.000004552               0.000062563               0.000058011               0.000000000               0.000000000               0.000000000               0.000000000               0.000063925               0.000183078              -0.000003061               0.000001087               0.000060663               0.000061750               0.000000000               0.000000000               0.000000000               0.000000000               0.000067495               0.000198905              -0.000008939               0.000000448               0.000066152               0.000066600               0.000000000               0.000000000               0.000000000               0.000000000               0.000069390               0.000212708              -0.000003348              -0.000000567               0.000071091               0.000070524               0.000000000               0.000000000               0.000000000               0.000000000               0.000073669               0.000222591              -0.000002251              -0.000000198               0.000074262               0.000074064               0.000000000               0.000000000               0.000000000               0.000000000               0.000079045               0.000232893              -0.000004547               0.000000530               0.000077454               0.000077984               0.000000000               0.000000000               0.000000000               0.000000000               0.000082200               0.000238786              -0.000001510               0.000000977               0.000079269               0.000080246               0.000000000               0.000000000               0.000000000               0.000000000               0.000086067               0.000244864               0.000001820               0.000001667               0.000081065               0.000082732               0.000000000               0.000000000               0.000000000               0.000000000               0.000089993               0.000252830               0.000005818               0.000002144               0.000083561               0.000085705               0.000000000               0.000000000               0.000000000               0.000000000               0.000089367               0.000263893               0.000009746               0.000000526               0.000087788               0.000088314               0.000000000               0.000000000               0.000000000               0.000000000               0.000083060               0.000278686               0.000012349              -0.000003688               0.000094124               0.000090436               0.000000000               0.000000000               0.000000000               0.000000000               0.000073172               0.000298185               0.000013484              -0.000009834               0.000102672               0.000092838               0.000000000               0.000000000               0.000000000               0.000000000               0.000059751               0.000322143               0.000012612              -0.000017861               0.000113334               0.000095473               0.000000000               0.000000000               0.000000000               0.000000000               0.000042646               0.000350283               0.000009940              -0.000027793               0.000126024               0.000098231               0.000000000               0.000000000               0.000000000               0.000000000               0.000022219               0.000383614               0.000005605              -0.000039619               0.000141077               0.000101457               0.000000000               0.000000000               0.000000000               0.000000000               0.000016359               0.000411929               0.000006023              -0.000045356               0.000152427               0.000107071               0.000000000               0.000000000               0.000000000               0.000000000               0.000053666               0.000230182               0.000051573              -0.000008648               0.000079609               0.000070961               0.000000000               0.000000000               0.000000000               0.000000000               0.000057652               0.000206701               0.000025167              -0.000004218               0.000070306               0.000066088               0.000000000               0.000000000               0.000000000               0.000000000               0.000069609               0.000215331              -0.000004045              -0.000000813               0.000072047               0.000071234               0.000000000               0.000000000               0.000000000               0.000000000               0.000076026               0.000240800              -0.000010621              -0.000001590               0.000080796               0.000079206               0.000000000               0.000000000               0.000000000               0.000000000               0.000085094               0.000264564              -0.000002800              -0.000001160               0.000088574               0.000087414               0.000000000               0.000000000               0.000000000               0.000000000               0.000094539               0.000288030               0.000001859              -0.000000552               0.000096193               0.000095641               0.000000000               0.000000000               0.000000000               0.000000000               0.000104303               0.000305884               0.000002245               0.000000878               0.000101668               0.000102546               0.000000000               0.000000000               0.000000000               0.000000000               0.000112765               0.000322125               0.000007661               0.000002021               0.000106700               0.000108721               0.000000000               0.000000000               0.000000000               0.000000000               0.000116917               0.000338228               0.000013832               0.000001565               0.000112220               0.000113785               0.000000000               0.000000000               0.000000000               0.000000000               0.000120018               0.000359029               0.000019783               0.000000128               0.000119633               0.000119761               0.000000000               0.000000000               0.000000000               0.000000000               0.000116639               0.000385377               0.000024690              -0.000004433               0.000129935               0.000125503               0.000000000               0.000000000               0.000000000               0.000000000               0.000104235               0.000416631               0.000027594              -0.000012991               0.000143206               0.000130215               0.000000000               0.000000000               0.000000000               0.000000000               0.000087551               0.000453163               0.000028075              -0.000023814               0.000158991               0.000135177               0.000000000               0.000000000               0.000000000               0.000000000               0.000067746               0.000492929               0.000025920              -0.000036211               0.000176378               0.000140167               0.000000000               0.000000000               0.000000000               0.000000000               0.000045346               0.000534011               0.000020708              -0.000049747               0.000194584               0.000144837               0.000000000               0.000000000               0.000000000               0.000000000               0.000022383               0.000575371               0.000011908              -0.000063528               0.000212964               0.000149437               0.000000000               0.000000000               0.000000000               0.000000000               0.000016445               0.000605431               0.000009799              -0.000069512               0.000224979               0.000155467               0.000000000               0.000000000               0.000000000               0.000000000               0.000068479               0.000249816               0.000069091              -0.000005548               0.000085120               0.000079573               0.000000000               0.000000000               0.000000000               0.000000000               0.000066507               0.000235685               0.000035797              -0.000004520               0.000080068               0.000075547               0.000000000               0.000000000               0.000000000               0.000000000               0.000076288               0.000263190               0.000000244              -0.000004291               0.000089159               0.000084869               0.000000000               0.000000000               0.000000000               0.000000000               0.000089287               0.000305880              -0.000009363              -0.000004752               0.000103543               0.000098791               0.000000000               0.000000000               0.000000000               0.000000000               0.000109658               0.000346304              -0.000001300              -0.000002166               0.000116156               0.000113989               0.000000000               0.000000000               0.000000000               0.000000000               0.000124601               0.000378431               0.000006368              -0.000000578               0.000126335               0.000125757               0.000000000               0.000000000               0.000000000               0.000000000               0.000135572               0.000405677               0.000009224               0.000000130               0.000135181               0.000135311               0.000000000               0.000000000               0.000000000               0.000000000               0.000141994               0.000432121               0.000017314              -0.000000767               0.000144294               0.000143527               0.000000000               0.000000000               0.000000000               0.000000000               0.000142501               0.000458996               0.000026261              -0.000003937               0.000154309               0.000150373               0.000000000               0.000000000               0.000000000               0.000000000               0.000141376               0.000492511               0.000032907              -0.000008548               0.000167018               0.000158470               0.000000000               0.000000000               0.000000000               0.000000000               0.000132949               0.000530966               0.000037438              -0.000016515               0.000182492               0.000165977               0.000000000               0.000000000               0.000000000               0.000000000               0.000116197               0.000572894               0.000038762              -0.000028038               0.000200309               0.000172271               0.000000000               0.000000000               0.000000000               0.000000000               0.000095983               0.000617252               0.000037052              -0.000041163               0.000219470               0.000178307               0.000000000               0.000000000               0.000000000               0.000000000               0.000073564               0.000662104               0.000032199              -0.000055176               0.000239091               0.000183915               0.000000000               0.000000000               0.000000000               0.000000000               0.000049030               0.000705342               0.000024210              -0.000069781               0.000258372               0.000188591               0.000000000               0.000000000               0.000000000               0.000000000               0.000024057               0.000745284               0.000013210              -0.000084139               0.000276472               0.000192333               0.000000000               0.000000000               0.000000000               0.000000000               0.000016967               0.000772654               0.000010015              -0.000090219               0.000287622               0.000197403               0.000000000               0.000000000               0.000000000               0.000000000               0.000082354               0.000263633               0.000085696              -0.000002071               0.000088567               0.000086496               0.000000000               0.000000000               0.000000000               0.000000000               0.000074772               0.000265328               0.000046526              -0.000005127               0.000090151               0.000085024               0.000000000               0.000000000               0.000000000               0.000000000               0.000086728               0.000323585               0.000005001              -0.000007925               0.000110502               0.000102577               0.000000000               0.000000000               0.000000000               0.000000000               0.000107641               0.000382182              -0.000007290              -0.000007407               0.000129862               0.000122454               0.000000000               0.000000000               0.000000000               0.000000000               0.000135070               0.000428807               0.000003475              -0.000002950               0.000143917               0.000140968               0.000000000               0.000000000               0.000000000               0.000000000               0.000153925               0.000464361               0.000014038              -0.000000323               0.000154893               0.000154570               0.000000000               0.000000000               0.000000000               0.000000000               0.000165398               0.000500299               0.000018964              -0.000000513               0.000166936               0.000166422               0.000000000               0.000000000               0.000000000               0.000000000               0.000166574               0.000534182               0.000028275              -0.000004308               0.000179495               0.000175187               0.000000000               0.000000000               0.000000000               0.000000000               0.000161356               0.000572114               0.000037527              -0.000011006               0.000194371               0.000183365               0.000000000               0.000000000               0.000000000               0.000000000               0.000153619               0.000616920               0.000042444              -0.000019508               0.000212140               0.000192633               0.000000000               0.000000000               0.000000000               0.000000000               0.000139119               0.000666165               0.000044609              -0.000031101               0.000232420               0.000201319               0.000000000               0.000000000               0.000000000               0.000000000               0.000117312               0.000715604               0.000043558              -0.000045458               0.000253685               0.000208227               0.000000000               0.000000000               0.000000000               0.000000000               0.000094322               0.000764984               0.000039380              -0.000060252               0.000275076               0.000214824               0.000000000               0.000000000               0.000000000               0.000000000               0.000070916               0.000812571               0.000032411              -0.000074978               0.000295847               0.000220869               0.000000000               0.000000000               0.000000000               0.000000000               0.000046402               0.000856581               0.000023288              -0.000089672               0.000315415               0.000225743               0.000000000               0.000000000               0.000000000               0.000000000               0.000022590               0.000897050               0.000012277              -0.000103660               0.000333567               0.000229907               0.000000000               0.000000000               0.000000000               0.000000000               0.000016498               0.000925011               0.000009485              -0.000109440               0.000344814               0.000235374               0.000000000               0.000000000               0.000000000               0.000000000               0.000094897               0.000272096               0.000100557               0.000001574               0.000090173               0.000091747               0.000000000               0.000000000               0.000000000               0.000000000               0.000085208               0.000296173               0.000056632              -0.000005069               0.000100413               0.000095344               0.000000000               0.000000000               0.000000000               0.000000000               0.000098420               0.000380529               0.000011986              -0.000010659               0.000130395               0.000119736               0.000000000               0.000000000               0.000000000               0.000000000               0.000123841               0.000447298               0.000000582              -0.000009472               0.000152255               0.000142783               0.000000000               0.000000000               0.000000000               0.000000000               0.000156095               0.000494208               0.000009390              -0.000003240               0.000165814               0.000162574               0.000000000               0.000000000               0.000000000               0.000000000               0.000177663               0.000535446               0.000018562              -0.000000307               0.000178582               0.000178275               0.000000000               0.000000000               0.000000000               0.000000000               0.000185261               0.000579556               0.000024045              -0.000002972               0.000194174               0.000191202               0.000000000               0.000000000               0.000000000               0.000000000               0.000181257               0.000623161               0.000034046              -0.000009923               0.000211026               0.000201102               0.000000000               0.000000000               0.000000000               0.000000000               0.000172242               0.000673474               0.000042417              -0.000019593               0.000231020               0.000211427               0.000000000               0.000000000               0.000000000               0.000000000               0.000160429               0.000731270               0.000045102              -0.000031248               0.000254170               0.000222922               0.000000000               0.000000000               0.000000000               0.000000000               0.000140784               0.000790648               0.000045275              -0.000046037               0.000278892               0.000232855               0.000000000               0.000000000               0.000000000               0.000000000               0.000116334               0.000849541               0.000042816              -0.000062567               0.000304033               0.000241466               0.000000000               0.000000000               0.000000000               0.000000000               0.000092724               0.000907520               0.000037163              -0.000078668               0.000328726               0.000250058               0.000000000               0.000000000               0.000000000               0.000000000               0.000068686               0.000962730               0.000029788              -0.000094584               0.000352435               0.000257851               0.000000000               0.000000000               0.000000000               0.000000000               0.000044414               0.001014087               0.000021058              -0.000110105               0.000374727               0.000264622               0.000000000               0.000000000               0.000000000               0.000000000               0.000021772               0.001060858               0.000011056              -0.000124442               0.000395097               0.000270654               0.000000000               0.000000000               0.000000000               0.000000000               0.000016195               0.001091700               0.000009075              -0.000130389               0.000407359               0.000276971               0.000000000               0.000000000               0.000000000               0.000000000               0.000110650               0.000272016               0.000109254               0.000007491               0.000088174               0.000095665               0.000000000               0.000000000               0.000000000               0.000000000               0.000095490               0.000320983               0.000065896              -0.000004314               0.000108431               0.000104117               0.000000000               0.000000000               0.000000000               0.000000000               0.000106477               0.000425596               0.000020074              -0.000013271               0.000146287               0.000133017               0.000000000               0.000000000               0.000000000               0.000000000               0.000136618               0.000499248               0.000005949              -0.000011174               0.000170139               0.000158965               0.000000000               0.000000000               0.000000000               0.000000000               0.000172582               0.000550983               0.000010348              -0.000004155               0.000185044               0.000180889               0.000000000               0.000000000               0.000000000               0.000000000               0.000194085               0.000603464               0.000018507              -0.000002651               0.000202036               0.000199385               0.000000000               0.000000000               0.000000000               0.000000000               0.000195874               0.000658189               0.000025715              -0.000008821               0.000222335               0.000213514               0.000000000               0.000000000               0.000000000               0.000000000               0.000189668               0.000715620               0.000037032              -0.000018327               0.000244646               0.000226320               0.000000000               0.000000000               0.000000000               0.000000000               0.000180579               0.000781486               0.000043130              -0.000029969               0.000270482               0.000240514               0.000000000               0.000000000               0.000000000               0.000000000               0.000166401               0.000853320               0.000044830              -0.000044264               0.000299192               0.000254928               0.000000000               0.000000000               0.000000000               0.000000000               0.000144534               0.000923296               0.000043864              -0.000061211               0.000328166               0.000266955               0.000000000               0.000000000               0.000000000               0.000000000               0.000120826               0.000992269               0.000039320              -0.000078724               0.000356994               0.000278271               0.000000000               0.000000000               0.000000000               0.000000000               0.000096862               0.001059574               0.000032462              -0.000096123               0.000385229               0.000289106               0.000000000               0.000000000               0.000000000               0.000000000               0.000072074               0.001123110               0.000024216              -0.000113361               0.000412153               0.000298792               0.000000000               0.000000000               0.000000000               0.000000000               0.000047056               0.001182239               0.000015678              -0.000130134               0.000437453               0.000307320               0.000000000               0.000000000               0.000000000               0.000000000               0.000023660               0.001235044               0.000007765              -0.000145508               0.000460180               0.000314672               0.000000000               0.000000000               0.000000000               0.000000000               0.000015874               0.001268011               0.000006852              -0.000152548               0.000473515               0.000320967               0.000000000               0.000000000               0.000000000               0.000000000               0.000124364               0.000264274               0.000108437               0.000013602               0.000083557               0.000097159               0.000000000               0.000000000               0.000000000               0.000000000               0.000102392               0.000333303               0.000070537              -0.000003266               0.000112189               0.000108923               0.000000000               0.000000000               0.000000000               0.000000000               0.000106423               0.000456436               0.000026933              -0.000017146               0.000157859               0.000140713               0.000000000               0.000000000               0.000000000               0.000000000               0.000140049               0.000536487               0.000009185              -0.000014542               0.000183675               0.000169132               0.000000000               0.000000000               0.000000000               0.000000000               0.000183989               0.000598881               0.000008702              -0.000005864               0.000201580               0.000195716               0.000000000               0.000000000               0.000000000               0.000000000               0.000208534               0.000663589               0.000016056              -0.000004748               0.000222777               0.000218028               0.000000000               0.000000000               0.000000000               0.000000000               0.000208805               0.000728011               0.000026315              -0.000012699               0.000246901               0.000234202               0.000000000               0.000000000               0.000000000               0.000000000               0.000203809               0.000795874               0.000036865              -0.000023056               0.000272974               0.000249918               0.000000000               0.000000000               0.000000000               0.000000000               0.000195441               0.000871900               0.000040990              -0.000035697               0.000302529               0.000266832               0.000000000               0.000000000               0.000000000               0.000000000               0.000180209               0.000951534               0.000042103              -0.000051363               0.000334296               0.000282933               0.000000000               0.000000000               0.000000000               0.000000000               0.000159858               0.001028832               0.000040585              -0.000068657               0.000365826               0.000297169               0.000000000               0.000000000               0.000000000               0.000000000               0.000138361               0.001105014               0.000034477              -0.000086241               0.000397081               0.000310840               0.000000000               0.000000000               0.000000000               0.000000000               0.000115730               0.001179328               0.000026416              -0.000104017               0.000427778               0.000323761               0.000000000               0.000000000               0.000000000               0.000000000               0.000091740               0.001249899               0.000017464              -0.000121834               0.000457240               0.000335406               0.000000000               0.000000000               0.000000000               0.000000000               0.000068168               0.001316423               0.000008760              -0.000138990               0.000485133               0.000346143               0.000000000               0.000000000               0.000000000               0.000000000               0.000047587               0.001377664               0.000002055              -0.000154362               0.000510671               0.000356308               0.000000000               0.000000000               0.000000000               0.000000000               0.000037001               0.001410719              -0.000000139              -0.000162464               0.000524390               0.000361926               0.000000000               0.000000000               0.000000000               0.000000000               0.000126448               0.000241251               0.000102777               0.000017261               0.000074662               0.000091924               0.000000000               0.000000000               0.000000000               0.000000000               0.000105960               0.000319671               0.000073686              -0.000000224               0.000106630               0.000106407               0.000000000               0.000000000               0.000000000               0.000000000               0.000107858               0.000454944               0.000038638              -0.000016421               0.000157120               0.000140699               0.000000000               0.000000000               0.000000000               0.000000000               0.000140520               0.000553433               0.000019807              -0.000016484               0.000189971               0.000173487               0.000000000               0.000000000               0.000000000               0.000000000               0.000188407               0.000633847               0.000011927              -0.000008578               0.000214139               0.000205561               0.000000000               0.000000000               0.000000000               0.000000000               0.000222571               0.000703704               0.000014563              -0.000004499               0.000236065               0.000231566               0.000000000               0.000000000               0.000000000               0.000000000               0.000230831               0.000770799               0.000024780              -0.000009788               0.000260193               0.000250405               0.000000000               0.000000000               0.000000000               0.000000000               0.000227921               0.000836772               0.000034656              -0.000019126               0.000285297               0.000266171               0.000000000               0.000000000               0.000000000               0.000000000               0.000222272               0.000907474               0.000039683              -0.000030082               0.000312516               0.000282433               0.000000000               0.000000000               0.000000000               0.000000000               0.000212139               0.000985097               0.000041412              -0.000043585               0.000342891               0.000299306               0.000000000               0.000000000               0.000000000               0.000000000               0.000196085               0.001061773               0.000040118              -0.000059189               0.000373651               0.000314461               0.000000000               0.000000000               0.000000000               0.000000000               0.000177125               0.001137252               0.000035847              -0.000075735               0.000404325               0.000328591               0.000000000               0.000000000               0.000000000               0.000000000               0.000157774               0.001213164               0.000028394              -0.000092480               0.000435211               0.000342730               0.000000000               0.000000000               0.000000000               0.000000000               0.000137917               0.001289046               0.000019254              -0.000109411               0.000466148               0.000356737               0.000000000               0.000000000               0.000000000               0.000000000               0.000117891               0.001363286               0.000010656              -0.000126201               0.000496491               0.000370290               0.000000000               0.000000000               0.000000000               0.000000000               0.000100665               0.001437992               0.000003292              -0.000141999               0.000526659               0.000384660               0.000000000               0.000000000               0.000000000               0.000000000               0.000087017               0.001472969              -0.000002162              -0.000151489               0.000541481               0.000389992               0.000000000               0.000000000               0.000000000               0.000000000               0.000121991               0.000206843               0.000093455               0.000019891               0.000062317               0.000082208               0.000000000               0.000000000               0.000000000               0.000000000               0.000108791               0.000292783               0.000077113               0.000004199               0.000096194               0.000100392               0.000000000               0.000000000               0.000000000               0.000000000               0.000115818               0.000441237               0.000052664              -0.000011723               0.000150985               0.000139262               0.000000000               0.000000000               0.000000000               0.000000000               0.000144433               0.000559792               0.000032730              -0.000015811               0.000191866               0.000176054               0.000000000               0.000000000               0.000000000               0.000000000               0.000187430               0.000651996               0.000017791              -0.000011213               0.000221067               0.000209854               0.000000000               0.000000000               0.000000000               0.000000000               0.000227642               0.000725977               0.000011880              -0.000005381               0.000243784               0.000238402               0.000000000               0.000000000               0.000000000               0.000000000               0.000245953               0.000793274               0.000016521              -0.000006927               0.000266731               0.000259804               0.000000000               0.000000000               0.000000000               0.000000000               0.000247674               0.000857338               0.000025179              -0.000014290               0.000290540               0.000276250               0.000000000               0.000000000               0.000000000               0.000000000               0.000246592               0.000921871               0.000032100              -0.000022762               0.000314875               0.000292113               0.000000000               0.000000000               0.000000000               0.000000000               0.000243198               0.000993707               0.000035863              -0.000033014               0.000342237               0.000309223               0.000000000               0.000000000               0.000000000               0.000000000               0.000236823               0.001070656               0.000036191              -0.000045023               0.000371890               0.000326866               0.000000000               0.000000000               0.000000000               0.000000000               0.000226079               0.001145298               0.000034854              -0.000058383               0.000401223               0.000342840               0.000000000               0.000000000               0.000000000               0.000000000               0.000212330               0.001217704               0.000030966              -0.000072589               0.000430094               0.000357505               0.000000000               0.000000000               0.000000000               0.000000000               0.000199448               0.001294207               0.000023734              -0.000086983               0.000460392               0.000373410               0.000000000               0.000000000               0.000000000               0.000000000               0.000184264               0.001367816               0.000015331              -0.000101878               0.000489893               0.000388016               0.000000000               0.000000000               0.000000000               0.000000000               0.000168104               0.001441603               0.000007034              -0.000117161               0.000519583               0.000402422               0.000000000               0.000000000               0.000000000               0.000000000               0.000152253               0.001474787              -0.000000634              -0.000127253               0.000534008               0.000406755               0.000000000               0.000000000               0.000000000               0.000000000               0.000115749               0.000173013               0.000079779               0.000021779               0.000050411               0.000072190               0.000000000               0.000000000               0.000000000               0.000000000               0.000112478               0.000264861               0.000076628               0.000009071               0.000085262               0.000094334               0.000000000               0.000000000               0.000000000               0.000000000               0.000124254               0.000424425               0.000063668              -0.000006458               0.000143626               0.000137168               0.000000000               0.000000000               0.000000000               0.000000000               0.000149871               0.000554090               0.000044356              -0.000013060               0.000189048               0.000175988               0.000000000               0.000000000               0.000000000               0.000000000               0.000186019               0.000655348               0.000025252              -0.000012161               0.000222501               0.000210340               0.000000000               0.000000000               0.000000000               0.000000000               0.000225721               0.000737211               0.000011831              -0.000007506               0.000248236               0.000240731               0.000000000               0.000000000               0.000000000               0.000000000               0.000254428               0.000810002               0.000009052              -0.000005840               0.000271945               0.000266105               0.000000000               0.000000000               0.000000000               0.000000000               0.000265445               0.000876948               0.000015031              -0.000010077               0.000295672               0.000285595               0.000000000               0.000000000               0.000000000               0.000000000               0.000269973               0.000939328               0.000022629              -0.000016176               0.000318498               0.000302322               0.000000000               0.000000000               0.000000000               0.000000000               0.000271965               0.001005087               0.000027860              -0.000023649               0.000342909               0.000319260               0.000000000               0.000000000               0.000000000               0.000000000               0.000272820               0.001078154               0.000030303              -0.000032462               0.000370202               0.000337740               0.000000000               0.000000000               0.000000000               0.000000000               0.000271857               0.001154205               0.000030174              -0.000042329               0.000398841               0.000356512               0.000000000               0.000000000               0.000000000               0.000000000               0.000265990               0.001225223               0.000028994              -0.000053407               0.000426206               0.000372799               0.000000000               0.000000000               0.000000000               0.000000000               0.000259007               0.001297805               0.000025211              -0.000065098               0.000454297               0.000389199               0.000000000               0.000000000               0.000000000               0.000000000               0.000251053               0.001371087               0.000018080              -0.000077241               0.000482771               0.000405530               0.000000000               0.000000000               0.000000000               0.000000000               0.000240174               0.001443685               0.000009955              -0.000090395               0.000511355               0.000420960               0.000000000               0.000000000               0.000000000               0.000000000               0.000225405               0.001474342               0.000002315              -0.000099766               0.000524698               0.000424932               0.000000000               0.000000000               0.000000000               0.000000000               0.000101465               0.000140896               0.000065087               0.000020437               0.000040152               0.000060589               0.000000000               0.000000000               0.000000000               0.000000000               0.000115546               0.000235600               0.000070645               0.000013880               0.000073906               0.000087786               0.000000000               0.000000000               0.000000000               0.000000000               0.000135842               0.000396687               0.000066925               0.000001355               0.000131776               0.000133131               0.000000000               0.000000000               0.000000000               0.000000000               0.000159225               0.000530833               0.000050766              -0.000006645               0.000179157               0.000172513               0.000000000               0.000000000               0.000000000               0.000000000               0.000188381               0.000643746               0.000031761              -0.000009825               0.000217855               0.000208030               0.000000000               0.000000000               0.000000000               0.000000000               0.000225478               0.000739448               0.000015021              -0.000007877               0.000249106               0.000241229               0.000000000               0.000000000               0.000000000               0.000000000               0.000259283               0.000822715               0.000006014              -0.000005608               0.000276105               0.000270497               0.000000000               0.000000000               0.000000000               0.000000000               0.000280664               0.000896145               0.000007160              -0.000006769               0.000300968               0.000294199               0.000000000               0.000000000               0.000000000               0.000000000               0.000291260               0.000959533               0.000013117              -0.000010719               0.000323414               0.000312695               0.000000000               0.000000000               0.000000000               0.000000000               0.000298179               0.001020136               0.000017968              -0.000015700               0.000345275               0.000329576               0.000000000               0.000000000               0.000000000               0.000000000               0.000303560               0.001086239               0.000021306              -0.000021945               0.000369391               0.000347446               0.000000000               0.000000000               0.000000000               0.000000000               0.000309274               0.001159382               0.000022157              -0.000028945               0.000396105               0.000367160               0.000000000               0.000000000               0.000000000               0.000000000               0.000312974               0.001232527               0.000021514              -0.000036700               0.000423072               0.000386371               0.000000000               0.000000000               0.000000000               0.000000000               0.000313188               0.001301569               0.000020387              -0.000045250               0.000448936               0.000403685               0.000000000               0.000000000               0.000000000               0.000000000               0.000313411               0.001372713               0.000016254              -0.000054060               0.000475586               0.000421526               0.000000000               0.000000000               0.000000000               0.000000000               0.000313522               0.001446440               0.000009395              -0.000063234               0.000503220               0.000439986               0.000000000               0.000000000               0.000000000               0.000000000               0.000306656               0.001477513               0.000003414              -0.000069693               0.000515730               0.000446037               0.000000000               0.000000000               0.000000000               0.000000000               0.000082452               0.000108336               0.000048113               0.000017377               0.000030319               0.000047697               0.000000000               0.000000000               0.000000000               0.000000000               0.000115552               0.000204195               0.000059053               0.000017807               0.000062129               0.000079936               0.000000000               0.000000000               0.000000000               0.000000000               0.000148139               0.000363142               0.000061824               0.000010159               0.000117660               0.000127819               0.000000000               0.000000000               0.000000000               0.000000000               0.000172436               0.000503132               0.000049875               0.000001772               0.000167118               0.000168890               0.000000000               0.000000000               0.000000000               0.000000000               0.000197871               0.000627316               0.000034541              -0.000004213               0.000210507               0.000206295               0.000000000               0.000000000               0.000000000               0.000000000               0.000229066               0.000734745               0.000018532              -0.000005943               0.000246894               0.000240950               0.000000000               0.000000000               0.000000000               0.000000000               0.000262073               0.000827263               0.000006283              -0.000005130               0.000277462               0.000272331               0.000000000               0.000000000               0.000000000               0.000000000               0.000289204               0.000907350               0.000002465              -0.000004967               0.000304103               0.000299136               0.000000000               0.000000000               0.000000000               0.000000000               0.000307408               0.000975675               0.000004916              -0.000006681               0.000327449               0.000320767               0.000000000               0.000000000               0.000000000               0.000000000               0.000319921               0.001034969               0.000008465              -0.000009401               0.000348120               0.000338719               0.000000000               0.000000000               0.000000000               0.000000000               0.000330825               0.001096313               0.000011460              -0.000012980               0.000369760               0.000356781               0.000000000               0.000000000               0.000000000               0.000000000               0.000341625               0.001164117               0.000012933              -0.000017405               0.000393837               0.000376431               0.000000000               0.000000000               0.000000000               0.000000000               0.000353107               0.001237865               0.000012469              -0.000022318               0.000420057               0.000397739               0.000000000               0.000000000               0.000000000               0.000000000               0.000362068               0.001308201               0.000011764              -0.000027750               0.000445312               0.000417563               0.000000000               0.000000000               0.000000000               0.000000000               0.000369668               0.001375912               0.000010384              -0.000033363               0.000469754               0.000436391               0.000000000               0.000000000               0.000000000               0.000000000               0.000378985               0.001446849               0.000006102              -0.000038737               0.000495191               0.000456454               0.000000000               0.000000000               0.000000000               0.000000000               0.000380962               0.001479613               0.000002317              -0.000042091               0.000507229               0.000465139               0.000000000               0.000000000               0.000000000               0.000000000               0.000065428               0.000085514               0.000030181               0.000013846               0.000023889               0.000037735               0.000000000               0.000000000               0.000000000               0.000000000               0.000113214               0.000179420               0.000042204               0.000020028               0.000053130               0.000073158               0.000000000               0.000000000               0.000000000               0.000000000               0.000157860               0.000333607               0.000048164               0.000017496               0.000105369               0.000122865               0.000000000               0.000000000               0.000000000               0.000000000               0.000185234               0.000475693               0.000041274               0.000010001               0.000155229               0.000165230               0.000000000               0.000000000               0.000000000               0.000000000               0.000210399               0.000606762               0.000030541               0.000003054               0.000201234               0.000204288               0.000000000               0.000000000               0.000000000               0.000000000               0.000236651               0.000722963               0.000017633              -0.000001626               0.000241527               0.000239901               0.000000000               0.000000000               0.000000000               0.000000000               0.000266817               0.000824537               0.000006139              -0.000003011               0.000275847               0.000272836               0.000000000               0.000000000               0.000000000               0.000000000               0.000296014               0.000912160               0.000000865              -0.000003015               0.000305055               0.000302040               0.000000000               0.000000000               0.000000000               0.000000000               0.000320098               0.000987523               0.000000921              -0.000003404               0.000330306               0.000326902               0.000000000               0.000000000               0.000000000               0.000000000               0.000337897               0.001049799               0.000002595              -0.000004513               0.000351434               0.000346920               0.000000000               0.000000000               0.000000000               0.000000000               0.000352881               0.001108365               0.000004536              -0.000006215               0.000371523               0.000365308               0.000000000               0.000000000               0.000000000               0.000000000               0.000367683               0.001170698               0.000005543              -0.000008456               0.000393047               0.000384591               0.000000000               0.000000000               0.000000000               0.000000000               0.000384095               0.001240679               0.000005149              -0.000011049               0.000417238               0.000406189               0.000000000               0.000000000               0.000000000               0.000000000               0.000401038               0.001313603               0.000004260              -0.000013811               0.000442467               0.000428656               0.000000000               0.000000000               0.000000000               0.000000000               0.000415646               0.001380231               0.000003916              -0.000016662               0.000465626               0.000448965               0.000000000               0.000000000               0.000000000               0.000000000               0.000430419               0.001445096               0.000002403              -0.000019230               0.000488104               0.000468874               0.000000000               0.000000000               0.000000000               0.000000000               0.000437427               0.001477248               0.000000738              -0.000020621               0.000499284               0.000478664               0.000000000               0.000000000               0.000000000               0.000000000               0.000052712               0.000074048               0.000014815               0.000010511               0.000021179               0.000031690               0.000000000               0.000000000               0.000000000               0.000000000               0.000110750               0.000164018               0.000022345               0.000021029               0.000047662               0.000068691               0.000000000               0.000000000               0.000000000               0.000000000               0.000163989               0.000312405               0.000026438               0.000022445               0.000096652               0.000119097               0.000000000               0.000000000               0.000000000               0.000000000               0.000195762               0.000455485               0.000023505               0.000016475               0.000146335               0.000162810               0.000000000               0.000000000               0.000000000               0.000000000               0.000220561               0.000589920               0.000018260               0.000008970               0.000193648               0.000202618               0.000000000               0.000000000               0.000000000               0.000000000               0.000244582               0.000710563               0.000011529               0.000002898               0.000235886               0.000238784               0.000000000               0.000000000               0.000000000               0.000000000               0.000272281               0.000819451               0.000004926              -0.000000326               0.000273256               0.000272930               0.000000000               0.000000000               0.000000000               0.000000000               0.000301454               0.000913851               0.000001168              -0.000001186               0.000305009               0.000303823               0.000000000               0.000000000               0.000000000               0.000000000               0.000327328               0.000994025               0.000000193              -0.000001505               0.000331840               0.000330335               0.000000000               0.000000000               0.000000000               0.000000000               0.000348583               0.001060537               0.000000362              -0.000001849               0.000354125               0.000352276               0.000000000               0.000000000               0.000000000               0.000000000               0.000366705               0.001118380               0.000001131              -0.000002283               0.000373551               0.000371268               0.000000000               0.000000000               0.000000000               0.000000000               0.000384684               0.001176887               0.000001581              -0.000002854               0.000393243               0.000390389               0.000000000               0.000000000               0.000000000               0.000000000               0.000404694               0.001242380               0.000001396              -0.000003537               0.000415302               0.000411764               0.000000000               0.000000000               0.000000000               0.000000000               0.000426839               0.001315104               0.000000751              -0.000004324               0.000439805               0.000435481               0.000000000               0.000000000               0.000000000               0.000000000               0.000446689               0.001382493               0.000000522              -0.000005303               0.000462594               0.000457291               0.000000000               0.000000000               0.000000000               0.000000000               0.000464274               0.001444320               0.000000400              -0.000006437               0.000483581               0.000477144               0.000000000               0.000000000               0.000000000               0.000000000               0.000472561               0.001475364               0.000000025              -0.000007210               0.000494186               0.000486976               0.000000000               0.000000000               0.000000000               0.000000000               0.000048010               0.000069756               0.000000000               0.000009284               0.000020157               0.000029441               0.000000000               0.000000000               0.000000000               0.000000000               0.000110292               0.000158343               0.000000000               0.000021566               0.000045592               0.000067158               0.000000000               0.000000000               0.000000000               0.000000000               0.000166174               0.000304535               0.000000000               0.000024248               0.000093428               0.000117676               0.000000000               0.000000000               0.000000000               0.000000000               0.000200070               0.000447645               0.000000000               0.000019071               0.000142857               0.000161927               0.000000000               0.000000000               0.000000000               0.000000000               0.000225089               0.000583587               0.000000000               0.000011460               0.000190707               0.000202167               0.000000000               0.000000000               0.000000000               0.000000000               0.000248461               0.000706623              -0.000000000               0.000004845               0.000233924               0.000238769               0.000000000               0.000000000               0.000000000               0.000000000               0.000274634               0.000817566              -0.000000000               0.000000792               0.000272255               0.000273047               0.000000000               0.000000000               0.000000000               0.000000000               0.000302660               0.000913312              -0.000000000              -0.000000666               0.000304656               0.000303990               0.000000000               0.000000000               0.000000000               0.000000000               0.000328929               0.000995370              -0.000000000              -0.000001073               0.000332144               0.000331071               0.000000000               0.000000000               0.000000000               0.000000000               0.000351715               0.001064169              -0.000000000              -0.000001128               0.000355095               0.000353967               0.000000000               0.000000000               0.000000000               0.000000000               0.000371371               0.001121746              -0.000000000              -0.000000954               0.000374230               0.000373275               0.000000000               0.000000000               0.000000000               0.000000000               0.000390793               0.001178950               0.000000000              -0.000000821               0.000393253               0.000392432               0.000000000               0.000000000               0.000000000               0.000000000               0.000412248               0.001242919               0.000000000              -0.000000772               0.000414560               0.000413788               0.000000000               0.000000000               0.000000000               0.000000000               0.000436098               0.001314906               0.000000000              -0.000000827               0.000438573               0.000437747               0.000000000               0.000000000               0.000000000               0.000000000               0.000457854               0.001382709               0.000000000              -0.000001143               0.000461279               0.000460136               0.000000000               0.000000000               0.000000000               0.000000000               0.000476305               0.001444158              -0.000000000              -0.000001905               0.000482016               0.000480111               0.000000000               0.000000000               0.000000000               0.000000000               0.000484567               0.001474914              -0.000000000              -0.000002651               0.000492517               0.000489865               0.000000000               0.000000000               0.000000000               0.000000000               0.000032894               0.000203207               0.000000000              -0.000013066               0.000072090               0.000059025               0.000000000               0.000000000               0.000000000               0.000000000               0.000043813               0.000173101              -0.000000000              -0.000005208               0.000059436               0.000054228               0.000000000               0.000000000               0.000000000               0.000000000               0.000061108               0.000163185              -0.000000000               0.000002517               0.000053555               0.000056073               0.000000000               0.000000000               0.000000000               0.000000000               0.000060440               0.000170227               0.000000000               0.000001386               0.000056280               0.000057666               0.000000000               0.000000000               0.000000000               0.000000000               0.000056869               0.000177220               0.000000000              -0.000000827               0.000059348               0.000058522               0.000000000               0.000000000               0.000000000               0.000000000               0.000054939               0.000177560               0.000000000              -0.000001593               0.000059717               0.000058124               0.000000000               0.000000000               0.000000000               0.000000000               0.000052940               0.000181553               0.000000000              -0.000002842               0.000061464               0.000058623               0.000000000               0.000000000               0.000000000               0.000000000               0.000050501               0.000184944              -0.000000000              -0.000004180               0.000063041               0.000058861               0.000000000               0.000000000               0.000000000               0.000000000               0.000050784               0.000183647              -0.000000000              -0.000003912               0.000062519               0.000058607               0.000000000               0.000000000               0.000000000               0.000000000               0.000054066               0.000178183              -0.000000000              -0.000001998               0.000060060               0.000058062               0.000000000               0.000000000               0.000000000               0.000000000               0.000059045               0.000168685              -0.000000000               0.000001056               0.000055876               0.000056932               0.000000000               0.000000000               0.000000000               0.000000000               0.000064237               0.000158477              -0.000000000               0.000004279               0.000051399               0.000055678               0.000000000               0.000000000               0.000000000               0.000000000               0.000065638               0.000150492              -0.000000000               0.000005803               0.000048229               0.000054032               0.000000000               0.000000000               0.000000000               0.000000000               0.000060160               0.000147093              -0.000000000               0.000004173               0.000047639               0.000051813               0.000000000               0.000000000               0.000000000               0.000000000               0.000046911               0.000149847              -0.000000000              -0.000001139               0.000050328               0.000049189               0.000000000               0.000000000               0.000000000               0.000000000               0.000025944               0.000158171              -0.000000000              -0.000010042               0.000056070               0.000046028               0.000000000               0.000000000               0.000000000               0.000000000               0.000015401               0.000167809              -0.000000000              -0.000015201               0.000061003               0.000045802               0.000000000               0.000000000               0.000000000               0.000000000               0.000036063               0.000204095              -0.000017716              -0.000011988               0.000072027               0.000060039               0.000000000               0.000000000               0.000000000               0.000000000               0.000045346               0.000174009              -0.000008998              -0.000004746               0.000059585               0.000054838               0.000000000               0.000000000               0.000000000               0.000000000               0.000063157               0.000167462               0.000000726               0.000002751               0.000054903               0.000057654               0.000000000               0.000000000               0.000000000               0.000000000               0.000062603               0.000176518               0.000004207               0.000001411               0.000058368               0.000059779               0.000000000               0.000000000               0.000000000               0.000000000               0.000057413               0.000185017               0.000001450              -0.000001597               0.000062204               0.000060607               0.000000000               0.000000000               0.000000000               0.000000000               0.000057174               0.000186937               0.000001544              -0.000001927               0.000062954               0.000061027               0.000000000               0.000000000               0.000000000               0.000000000               0.000060138               0.000193848               0.000004524              -0.000001679               0.000065175               0.000063496               0.000000000               0.000000000               0.000000000               0.000000000               0.000060019               0.000197500               0.000004414              -0.000002180               0.000066559               0.000064379               0.000000000               0.000000000               0.000000000               0.000000000               0.000061456               0.000197607               0.000003583              -0.000001655               0.000066420               0.000064765               0.000000000               0.000000000               0.000000000               0.000000000               0.000065468               0.000195964               0.000002327               0.000000055               0.000065302               0.000065358               0.000000000               0.000000000               0.000000000               0.000000000               0.000068471               0.000192446               0.000000823               0.000001621               0.000063608               0.000065229               0.000000000               0.000000000               0.000000000               0.000000000               0.000069687               0.000189685               0.000000008               0.000002422               0.000062420               0.000064842               0.000000000               0.000000000               0.000000000               0.000000000               0.000067837               0.000189871              -0.000000069               0.000001705               0.000062721               0.000064426               0.000000000               0.000000000               0.000000000               0.000000000               0.000060337               0.000194590               0.000000801              -0.000001697               0.000065428               0.000063731               0.000000000               0.000000000               0.000000000               0.000000000               0.000046228               0.000205154               0.000001987              -0.000008309               0.000071153               0.000062845               0.000000000               0.000000000               0.000000000               0.000000000               0.000025325               0.000222283               0.000002176              -0.000018288               0.000080190               0.000061901               0.000000000               0.000000000               0.000000000               0.000000000               0.000016401               0.000239758               0.000000083              -0.000023819               0.000087858               0.000064039               0.000000000               0.000000000               0.000000000               0.000000000               0.000043040               0.000211906              -0.000033948              -0.000010348               0.000074084               0.000063736               0.000000000               0.000000000               0.000000000               0.000000000               0.000048907               0.000183139              -0.000016657              -0.000004552               0.000062563               0.000058011               0.000000000               0.000000000               0.000000000               0.000000000               0.000063925               0.000183078               0.000003061               0.000001087               0.000060663               0.000061750               0.000000000               0.000000000               0.000000000               0.000000000               0.000067495               0.000198905               0.000008939               0.000000448               0.000066152               0.000066600               0.000000000               0.000000000               0.000000000               0.000000000               0.000069390               0.000212708               0.000003348              -0.000000567               0.000071091               0.000070524               0.000000000               0.000000000               0.000000000               0.000000000               0.000073669               0.000222591               0.000002251              -0.000000198               0.000074262               0.000074064               0.000000000               0.000000000               0.000000000               0.000000000               0.000079045               0.000232893               0.000004547               0.000000530               0.000077454               0.000077984               0.000000000               0.000000000               0.000000000               0.000000000               0.000082200               0.000238786               0.000001510               0.000000977               0.000079269               0.000080246               0.000000000               0.000000000               0.000000000               0.000000000               0.000086067               0.000244864              -0.000001820               0.000001667               0.000081065               0.000082732               0.000000000               0.000000000               0.000000000               0.000000000               0.000089993               0.000252830              -0.000005818               0.000002144               0.000083561               0.000085705               0.000000000               0.000000000               0.000000000               0.000000000               0.000089367               0.000263893              -0.000009746               0.000000526               0.000087788               0.000088314               0.000000000               0.000000000               0.000000000               0.000000000               0.000083060               0.000278686              -0.000012349              -0.000003688               0.000094124               0.000090436               0.000000000               0.000000000               0.000000000               0.000000000               0.000073172               0.000298185              -0.000013484              -0.000009834               0.000102672               0.000092838               0.000000000               0.000000000               0.000000000               0.000000000               0.000059751               0.000322143              -0.000012612              -0.000017861               0.000113334               0.000095473               0.000000000               0.000000000               0.000000000               0.000000000               0.000042646               0.000350283              -0.000009940              -0.000027793               0.000126024               0.000098231               0.000000000               0.000000000               0.000000000               0.000000000               0.000022219               0.000383614              -0.000005605              -0.000039619               0.000141077               0.000101457               0.000000000               0.000000000               0.000000000               0.000000000               0.000016359               0.000411929              -0.000006023              -0.000045356               0.000152427               0.000107071               0.000000000               0.000000000               0.000000000               0.000000000               0.000053666               0.000230182              -0.000051573              -0.000008648               0.000079609               0.000070961               0.000000000               0.000000000               0.000000000               0.000000000               0.000057652               0.000206701              -0.000025167              -0.000004218               0.000070306               0.000066088               0.000000000               0.000000000               0.000000000               0.000000000               0.000069609               0.000215331               0.000004045              -0.000000813               0.000072047               0.000071234               0.000000000               0.000000000               0.000000000               0.000000000               0.000076026               0.000240800               0.000010621              -0.000001590               0.000080796               0.000079206               0.000000000               0.000000000               0.000000000               0.000000000               0.000085094               0.000264564               0.000002800              -0.000001160               0.000088574               0.000087414               0.000000000               0.000000000               0.000000000               0.000000000               0.000094539               0.000288030              -0.000001859              -0.000000552               0.000096193               0.000095641               0.000000000               0.000000000               0.000000000               0.000000000               0.000104303               0.000305884              -0.000002245               0.000000878               0.000101668               0.000102546               0.000000000               0.000000000               0.000000000               0.000000000               0.000112765               0.000322125              -0.000007661               0.000002021               0.000106700               0.000108721               0.000000000               0.000000000               0.000000000               0.000000000               0.000116917               0.000338228              -0.000013832               0.000001565               0.000112220               0.000113785               0.000000000               0.000000000               0.000000000               0.000000000               0.000120018               0.000359029              -0.000019783               0.000000128               0.000119633               0.000119761               0.000000000               0.000000000               0.000000000               0.000000000               0.000116639               0.000385377              -0.000024690              -0.000004433               0.000129935               0.000125503               0.000000000               0.000000000               0.000000000               0.000000000               0.000104235               0.000416631              -0.000027594              -0.000012991               0.000143206               0.000130215               0.000000000               0.000000000               0.000000000               0.000000000               0.000087551               0.000453163              -0.000028075              -0.000023814               0.000158991               0.000135177               0.000000000               0.000000000               0.000000000               0.000000000               0.000067746               0.000492929              -0.000025920              -0.000036211               0.000176378               0.000140167               0.000000000               0.000000000               0.000000000               0.000000000               0.000045346               0.000534011              -0.000020708              -0.000049747               0.000194584               0.000144837               0.000000000               0.000000000               0.000000000               0.000000000               0.000022383               0.000575371              -0.000011908              -0.000063528               0.000212964               0.000149437               0.000000000               0.000000000               0.000000000               0.000000000               0.000016445               0.000605431              -0.000009799              -0.000069512               0.000224979               0.000155467               0.000000000               0.000000000               0.000000000               0.000000000               0.000068479               0.000249816              -0.000069091              -0.000005548               0.000085120               0.000079573               0.000000000               0.000000000               0.000000000               0.000000000               0.000066507               0.000235685              -0.000035797              -0.000004520               0.000080068               0.000075547               0.000000000               0.000000000               0.000000000               0.000000000               0.000076288               0.000263190              -0.000000244              -0.000004291               0.000089159               0.000084869               0.000000000               0.000000000               0.000000000               0.000000000               0.000089287               0.000305880               0.000009363              -0.000004752               0.000103543               0.000098791               0.000000000               0.000000000               0.000000000               0.000000000               0.000109658               0.000346304               0.000001300              -0.000002166               0.000116156               0.000113989               0.000000000               0.000000000               0.000000000               0.000000000               0.000124601               0.000378431              -0.000006368              -0.000000578               0.000126335               0.000125757               0.000000000               0.000000000               0.000000000               0.000000000               0.000135572               0.000405677              -0.000009224               0.000000130               0.000135181               0.000135311               0.000000000               0.000000000               0.000000000               0.000000000               0.000141994               0.000432121              -0.000017314              -0.000000767               0.000144294               0.000143527               0.000000000               0.000000000               0.000000000               0.000000000               0.000142501               0.000458996              -0.000026261              -0.000003937               0.000154309               0.000150373               0.000000000               0.000000000               0.000000000               0.000000000               0.000141376               0.000492511              -0.000032907              -0.000008548               0.000167018               0.000158470               0.000000000               0.000000000               0.000000000               0.000000000               0.000132949               0.000530966              -0.000037438              -0.000016515               0.000182492               0.000165977               0.000000000               0.000000000               0.000000000               0.000000000               0.000116197               0.000572894              -0.000038762              -0.000028038               0.000200309               0.000172271               0.000000000               0.000000000               0.000000000               0.000000000               0.000095983               0.000617252              -0.000037052              -0.000041163               0.000219470               0.000178307               0.000000000               0.000000000               0.000000000               0.000000000               0.000073564               0.000662104              -0.000032199              -0.000055176               0.000239091               0.000183915               0.000000000               0.000000000               0.000000000               0.000000000               0.000049030               0.000705342              -0.000024210              -0.000069781               0.000258372               0.000188591               0.000000000               0.000000000               0.000000000               0.000000000               0.000024057               0.000745284              -0.000013210              -0.000084139               0.000276472               0.000192333               0.000000000               0.000000000               0.000000000               0.000000000               0.000016967               0.000772654              -0.000010015              -0.000090219               0.000287622               0.000197403               0.000000000               0.000000000               0.000000000               0.000000000               0.000082354               0.000263633              -0.000085696              -0.000002071               0.000088567               0.000086496               0.000000000               0.000000000               0.000000000               0.000000000               0.000074772               0.000265328              -0.000046526              -0.000005127               0.000090151               0.000085024               0.000000000               0.000000000               0.000000000               0.000000000               0.000086728               0.000323585              -0.000005001              -0.000007925               0.000110502               0.000102577               0.000000000               0.000000000               0.000000000               0.000000000               0.000107641               0.000382182               0.000007290              -0.000007407               0.000129862               0.000122454               0.000000000               0.000000000               0.000000000               0.000000000               0.000135070               0.000428807              -0.000003475              -0.000002950               0.000143917               0.000140968               0.000000000               0.000000000               0.000000000               0.000000000               0.000153925               0.000464361              -0.000014038              -0.000000323               0.000154893               0.000154570               0.000000000               0.000000000               0.000000000               0.000000000               0.000165398               0.000500299              -0.000018964              -0.000000513               0.000166936               0.000166422               0.000000000               0.000000000               0.000000000               0.000000000               0.000166574               0.000534182              -0.000028275              -0.000004308               0.000179495               0.000175187               0.000000000               0.000000000               0.000000000               0.000000000               0.000161356               0.000572114              -0.000037527              -0.000011006               0.000194371               0.000183365               0.000000000               0.000000000               0.000000000               0.000000000               0.000153619               0.000616920              -0.000042444              -0.000019508               0.000212140               0.000192633               0.000000000               0.000000000               0.000000000               0.000000000               0.000139119               0.000666165              -0.000044609              -0.000031101               0.000232420               0.000201319               0.000000000               0.000000000               0.000000000               0.000000000               0.000117312               0.000715604              -0.000043558              -0.000045458               0.000253685               0.000208227               0.000000000               0.000000000               0.000000000               0.000000000               0.000094322               0.000764984              -0.000039380              -0.000060252               0.000275076               0.000214824               0.000000000               0.000000000               0.000000000               0.000000000               0.000070916               0.000812571              -0.000032411              -0.000074978               0.000295847               0.000220869               0.000000000               0.000000000               0.000000000               0.000000000               0.000046402               0.000856581              -0.000023288              -0.000089672               0.000315415               0.000225743               0.000000000               0.000000000               0.000000000               0.000000000               0.000022590               0.000897050              -0.000012277              -0.000103660               0.000333567               0.000229907               0.000000000               0.000000000               0.000000000               0.000000000               0.000016498               0.000925011              -0.000009485              -0.000109440               0.000344814               0.000235374               0.000000000               0.000000000               0.000000000               0.000000000               0.000094897               0.000272096              -0.000100557               0.000001574               0.000090173               0.000091747               0.000000000               0.000000000               0.000000000               0.000000000               0.000085208               0.000296173              -0.000056632              -0.000005069               0.000100413               0.000095344               0.000000000               0.000000000               0.000000000               0.000000000               0.000098420               0.000380529              -0.000011986              -0.000010659               0.000130395               0.000119736               0.000000000               0.000000000               0.000000000               0.000000000               0.000123841               0.000447298              -0.000000582              -0.000009472               0.000152255               0.000142783               0.000000000               0.000000000               0.000000000               0.000000000               0.000156095               0.000494208              -0.000009390              -0.000003240               0.000165814               0.000162574               0.000000000               0.000000000               0.000000000               0.000000000               0.000177663               0.000535446              -0.000018562              -0.000000307               0.000178582               0.000178275               0.000000000               0.000000000               0.000000000               0.000000000               0.000185261               0.000579556              -0.000024045              -0.000002972               0.000194174               0.000191202               0.000000000               0.000000000               0.000000000               0.000000000               0.000181257               0.000623161              -0.000034046              -0.000009923               0.000211026               0.000201102               0.000000000               0.000000000               0.000000000               0.000000000               0.000172242               0.000673474              -0.000042417              -0.000019593               0.000231020               0.000211427               0.000000000               0.000000000               0.000000000               0.000000000               0.000160429               0.000731270              -0.000045102              -0.000031248               0.000254170               0.000222922               0.000000000               0.000000000               0.000000000               0.000000000               0.000140784               0.000790648              -0.000045275              -0.000046037               0.000278892               0.000232855               0.000000000               0.000000000               0.000000000               0.000000000               0.000116334               0.000849541              -0.000042816              -0.000062567               0.000304033               0.000241466               0.000000000               0.000000000               0.000000000               0.000000000               0.000092724               0.000907520              -0.000037163              -0.000078668               0.000328726               0.000250058               0.000000000               0.000000000               0.000000000               0.000000000               0.000068686               0.000962730              -0.000029788              -0.000094584               0.000352435               0.000257851               0.000000000               0.000000000               0.000000000               0.000000000               0.000044414               0.001014087              -0.000021058              -0.000110105               0.000374727               0.000264622               0.000000000               0.000000000               0.000000000               0.000000000               0.000021772               0.001060858              -0.000011056              -0.000124442               0.000395097               0.000270654               0.000000000               0.000000000               0.000000000               0.000000000               0.000016195               0.001091700              -0.000009075              -0.000130389               0.000407359               0.000276971               0.000000000               0.000000000               0.000000000               0.000000000               0.000110650               0.000272016              -0.000109254               0.000007491               0.000088174               0.000095665               0.000000000               0.000000000               0.000000000               0.000000000               0.000095490               0.000320983              -0.000065896              -0.000004314               0.000108431               0.000104117               0.000000000               0.000000000               0.000000000               0.000000000               0.000106477               0.000425596              -0.000020074              -0.000013271               0.000146287               0.000133017               0.000000000               0.000000000               0.000000000               0.000000000               0.000136618               0.000499248              -0.000005949              -0.000011174               0.000170139               0.000158965               0.000000000               0.000000000               0.000000000               0.000000000               0.000172582               0.000550983              -0.000010348              -0.000004155               0.000185044               0.000180889               0.000000000               0.000000000               0.000000000               0.000000000               0.000194085               0.000603464              -0.000018507              -0.000002651               0.000202036               0.000199385               0.000000000               0.000000000               0.000000000               0.000000000               0.000195874               0.000658189              -0.000025715              -0.000008821               0.000222335               0.000213514               0.000000000               0.000000000               0.000000000               0.000000000               0.000189668               0.000715620              -0.000037032              -0.000018327               0.000244646               0.000226320               0.000000000               0.000000000               0.000000000               0.000000000               0.000180579               0.000781486              -0.000043130              -0.000029969               0.000270482               0.000240514               0.000000000               0.000000000               0.000000000               0.000000000               0.000166401               0.000853320              -0.000044830              -0.000044264               0.000299192               0.000254928               0.000000000               0.000000000               0.000000000               0.000000000               0.000144534               0.000923296              -0.000043864              -0.000061211               0.000328166               0.000266955               0.000000000               0.000000000               0.000000000               0.000000000               0.000120826               0.000992269              -0.000039320              -0.000078724               0.000356994               0.000278271               0.000000000               0.000000000               0.000000000               0.000000000               0.000096862               0.001059574              -0.000032462              -0.000096123               0.000385229               0.000289106               0.000000000               0.000000000               0.000000000               0.000000000               0.000072074               0.001123110              -0.000024216              -0.000113361               0.000412153               0.000298792               0.000000000               0.000000000               0.000000000               0.000000000               0.000047056               0.001182239              -0.000015678              -0.000130134               0.000437453               0.000307320               0.000000000               0.000000000               0.000000000               0.000000000               0.000023660               0.001235044              -0.000007765              -0.000145508               0.000460180               0.000314672               0.000000000               0.000000000               0.000000000               0.000000000               0.000015874               0.001268011              -0.000006852              -0.000152548               0.000473515               0.000320967               0.000000000               0.000000000               0.000000000               0.000000000               0.000124364               0.000264274              -0.000108437               0.000013602               0.000083557               0.000097159               0.000000000               0.000000000               0.000000000               0.000000000               0.000102392               0.000333303              -0.000070537              -0.000003266               0.000112189               0.000108923               0.000000000               0.000000000               0.000000000               0.000000000               0.000106423               0.000456436              -0.000026933              -0.000017146               0.000157859               0.000140713               0.000000000               0.000000000               0.000000000               0.000000000               0.000140049               0.000536487              -0.000009185              -0.000014542               0.000183675               0.000169132               0.000000000               0.000000000               0.000000000               0.000000000               0.000183989               0.000598881              -0.000008702              -0.000005864               0.000201580               0.000195716               0.000000000               0.000000000               0.000000000               0.000000000               0.000208534               0.000663589              -0.000016056              -0.000004748               0.000222777               0.000218028               0.000000000               0.000000000               0.000000000               0.000000000               0.000208805               0.000728011              -0.000026315              -0.000012699               0.000246901               0.000234202               0.000000000               0.000000000               0.000000000               0.000000000               0.000203809               0.000795874              -0.000036865              -0.000023056               0.000272974               0.000249918               0.000000000               0.000000000               0.000000000               0.000000000               0.000195441               0.000871900              -0.000040990              -0.000035697               0.000302529               0.000266832               0.000000000               0.000000000               0.000000000               0.000000000               0.000180209               0.000951534              -0.000042103              -0.000051363               0.000334296               0.000282933               0.000000000               0.000000000               0.000000000               0.000000000               0.000159858               0.001028832              -0.000040585              -0.000068657               0.000365826               0.000297169               0.000000000               0.000000000               0.000000000               0.000000000               0.000138361               0.001105014              -0.000034477              -0.000086241               0.000397081               0.000310840               0.000000000               0.000000000               0.000000000               0.000000000               0.000115730               0.001179328              -0.000026416              -0.000104017               0.000427778               0.000323761               0.000000000               0.000000000               0.000000000               0.000000000               0.000091740               0.001249899              -0.000017464              -0.000121834               0.000457240               0.000335406               0.000000000               0.000000000               0.000000000               0.000000000               0.000068168               0.001316423              -0.000008760              -0.000138990               0.000485133               0.000346143               0.000000000               0.000000000               0.000000000               0.000000000               0.000047587               0.001377664              -0.000002055              -0.000154362               0.000510671               0.000356308               0.000000000               0.000000000               0.000000000               0.000000000               0.000037001               0.001410719               0.000000139              -0.000162464               0.000524390               0.000361926               0.000000000               0.000000000               0.000000000               0.000000000               0.000126448               0.000241251              -0.000102777               0.000017261               0.000074662               0.000091924               0.000000000               0.000000000               0.000000000               0.000000000               0.000105960               0.000319671              -0.000073686              -0.000000224               0.000106630               0.000106407               0.000000000               0.000000000               0.000000000               0.000000000               0.000107858               0.000454944              -0.000038638              -0.000016421               0.000157120               0.000140699               0.000000000               0.000000000               0.000000000               0.000000000               0.000140520               0.000553433              -0.000019807              -0.000016484               0.000189971               0.000173487               0.000000000               0.000000000               0.000000000               0.000000000               0.000188407               0.000633847              -0.000011927              -0.000008578               0.000214139               0.000205561               0.000000000               0.000000000               0.000000000               0.000000000               0.000222571               0.000703704              -0.000014563              -0.000004499               0.000236065               0.000231566               0.000000000               0.000000000               0.000000000               0.000000000               0.000230831               0.000770799              -0.000024780              -0.000009788               0.000260193               0.000250405               0.000000000               0.000000000               0.000000000               0.000000000               0.000227921               0.000836772              -0.000034656              -0.000019126               0.000285297               0.000266171               0.000000000               0.000000000               0.000000000               0.000000000               0.000222272               0.000907474              -0.000039683              -0.000030082               0.000312516               0.000282433               0.000000000               0.000000000               0.000000000               0.000000000               0.000212139               0.000985097              -0.000041412              -0.000043585               0.000342891               0.000299306               0.000000000               0.000000000               0.000000000               0.000000000               0.000196085               0.001061773              -0.000040118              -0.000059189               0.000373651               0.000314461               0.000000000               0.000000000               0.000000000               0.000000000               0.000177125               0.001137252              -0.000035847              -0.000075735               0.000404325               0.000328591               0.000000000               0.000000000               0.000000000               0.000000000               0.000157774               0.001213164              -0.000028394              -0.000092480               0.000435211               0.000342730               0.000000000               0.000000000               0.000000000               0.000000000               0.000137917               0.001289046              -0.000019254              -0.000109411               0.000466148               0.000356737               0.000000000               0.000000000               0.000000000               0.000000000               0.000117891               0.001363286              -0.000010656              -0.000126201               0.000496491               0.000370290               0.000000000               0.000000000               0.000000000               0.000000000               0.000100665               0.001437992              -0.000003292              -0.000141999               0.000526659               0.000384660               0.000000000               0.000000000               0.000000000               0.000000000               0.000087017               0.001472969               0.000002162              -0.000151489               0.000541481               0.000389992               0.000000000               0.000000000               0.000000000               0.000000000               0.000121991               0.000206843              -0.000093455               0.000019891               0.000062317               0.000082208               0.000000000               0.000000000               0.000000000               0.000000000               0.000108791               0.000292783              -0.000077113               0.000004199               0.000096194               0.000100392               0.000000000               0.000000000               0.000000000               0.000000000               0.000115818               0.000441237              -0.000052664              -0.000011723               0.000150985               0.000139262               0.000000000               0.000000000               0.000000000               0.000000000               0.000144433               0.000559792              -0.000032730              -0.000015811               0.000191866               0.000176054               0.000000000               0.000000000               0.000000000               0.000000000               0.000187430               0.000651996              -0.000017791              -0.000011213               0.000221067               0.000209854               0.000000000               0.000000000               0.000000000               0.000000000               0.000227642               0.000725977              -0.000011880              -0.000005381               0.000243784               0.000238402               0.000000000               0.000000000               0.000000000               0.000000000               0.000245953               0.000793274              -0.000016521              -0.000006927               0.000266731               0.000259804               0.000000000               0.000000000               0.000000000               0.000000000               0.000247674               0.000857338              -0.000025179              -0.000014290               0.000290540               0.000276250               0.000000000               0.000000000               0.000000000               0.000000000               0.000246592               0.000921871              -0.000032100              -0.000022762               0.000314875               0.000292113               0.000000000               0.000000000               0.000000000               0.000000000               0.000243198               0.000993707              -0.000035863              -0.000033014               0.000342237               0.000309223               0.000000000               0.000000000               0.000000000               0.000000000               0.000236823               0.001070656              -0.000036191              -0.000045023               0.000371890               0.000326866               0.000000000               0.000000000               0.000000000               0.000000000               0.000226079               0.001145298              -0.000034854              -0.000058383               0.000401223               0.000342840               0.000000000               0.000000000               0.000000000               0.000000000               0.000212330               0.001217704              -0.000030966              -0.000072589               0.000430094               0.000357505               0.000000000               0.000000000               0.000000000               0.000000000               0.000199448               0.001294207              -0.000023734              -0.000086983               0.000460392               0.000373410               0.000000000               0.000000000               0.000000000               0.000000000               0.000184264               0.001367816              -0.000015331              -0.000101878               0.000489893               0.000388016               0.000000000               0.000000000               0.000000000               0.000000000               0.000168104               0.001441603              -0.000007034              -0.000117161               0.000519583               0.000402422               0.000000000               0.000000000               0.000000000               0.000000000               0.000152253               0.001474787               0.000000634              -0.000127253               0.000534008               0.000406755               0.000000000               0.000000000               0.000000000               0.000000000               0.000115749               0.000173013              -0.000079779               0.000021779               0.000050411               0.000072190               0.000000000               0.000000000               0.000000000               0.000000000               0.000112478               0.000264861              -0.000076628               0.000009071               0.000085262               0.000094334               0.000000000               0.000000000               0.000000000               0.000000000               0.000124254               0.000424425              -0.000063668              -0.000006458               0.000143626               0.000137168               0.000000000               0.000000000               0.000000000               0.000000000               0.000149871               0.000554090              -0.000044356              -0.000013060               0.000189048               0.000175988               0.000000000               0.000000000               0.000000000               0.000000000               0.000186019               0.000655348              -0.000025252              -0.000012161               0.000222501               0.000210340               0.000000000               0.000000000               0.000000000               0.000000000               0.000225721               0.000737211              -0.000011831              -0.000007506               0.000248236               0.000240731               0.000000000               0.000000000               0.000000000               0.000000000               0.000254428               0.000810002              -0.000009052              -0.000005840               0.000271945               0.000266105               0.000000000               0.000000000               0.000000000               0.000000000               0.000265445               0.000876948              -0.000015031              -0.000010077               0.000295672               0.000285595               0.000000000               0.000000000               0.000000000               0.000000000               0.000269973               0.000939328              -0.000022629              -0.000016176               0.000318498               0.000302322               0.000000000               0.000000000               0.000000000               0.000000000               0.000271965               0.001005087              -0.000027860              -0.000023649               0.000342909               0.000319260               0.000000000               0.000000000               0.000000000               0.000000000               0.000272820               0.001078154              -0.000030303              -0.000032462               0.000370202               0.000337740               0.000000000               0.000000000               0.000000000               0.000000000               0.000271857               0.001154205              -0.000030174              -0.000042329               0.000398841               0.000356512               0.000000000               0.000000000               0.000000000               0.000000000               0.000265990               0.001225223              -0.000028994              -0.000053407               0.000426206               0.000372799               0.000000000               0.000000000               0.000000000               0.000000000               0.000259007               0.001297805              -0.000025211              -0.000065098               0.000454297               0.000389199               0.000000000               0.000000000               0.000000000               0.000000000               0.000251053               0.001371087              -0.000018080              -0.000077241               0.000482771               0.000405530               0.000000000               0.000000000               0.000000000               0.000000000               0.000240174               0.001443685              -0.000009955              -0.000090395               0.000511355               0.000420960               0.000000000               0.000000000               0.000000000               0.000000000               0.000225405               0.001474342              -0.000002315              -0.000099766               0.000524698               0.000424932               0.000000000               0.000000000               0.000000000               0.000000000               0.000101465               0.000140896              -0.000065087               0.000020437               0.000040152               0.000060589               0.000000000               0.000000000               0.000000000               0.000000000               0.000115546               0.000235600              -0.000070645               0.000013880               0.000073906               0.000087786               0.000000000               0.000000000               0.000000000               0.000000000               0.000135842               0.000396687              -0.000066925               0.000001355               0.000131776               0.000133131               0.000000000               0.000000000               0.000000000               0.000000000               0.000159225               0.000530833              -0.000050766              -0.000006645               0.000179157               0.000172513               0.000000000               0.000000000               0.000000000               0.000000000               0.000188381               0.000643746              -0.000031761              -0.000009825               0.000217855               0.000208030               0.000000000               0.000000000               0.000000000               0.000000000               0.000225478               0.000739448              -0.000015021              -0.000007877               0.000249106               0.000241229               0.000000000               0.000000000               0.000000000               0.000000000               0.000259283               0.000822715              -0.000006014              -0.000005608               0.000276105               0.000270497               0.000000000               0.000000000               0.000000000               0.000000000               0.000280664               0.000896145              -0.000007160              -0.000006769               0.000300968               0.000294199               0.000000000               0.000000000               0.000000000               0.000000000               0.000291260               0.000959533              -0.000013117              -0.000010719               0.000323414               0.000312695               0.000000000               0.000000000               0.000000000               0.000000000               0.000298179               0.001020136              -0.000017968              -0.000015700               0.000345275               0.000329576               0.000000000               0.000000000               0.000000000               0.000000000               0.000303560               0.001086239              -0.000021306              -0.000021945               0.000369391               0.000347446               0.000000000               0.000000000               0.000000000               0.000000000               0.000309274               0.001159382              -0.000022157              -0.000028945               0.000396105               0.000367160               0.000000000               0.000000000               0.000000000               0.000000000               0.000312974               0.001232527              -0.000021514              -0.000036700               0.000423072               0.000386371               0.000000000               0.000000000               0.000000000               0.000000000               0.000313188               0.001301569              -0.000020387              -0.000045250               0.000448936               0.000403685               0.000000000               0.000000000               0.000000000               0.000000000               0.000313411               0.001372713              -0.000016254              -0.000054060               0.000475586               0.000421526               0.000000000               0.000000000               0.000000000               0.000000000               0.000313522               0.001446440              -0.000009395              -0.000063234               0.000503220               0.000439986               0.000000000               0.000000000               0.000000000               0.000000000               0.000306656               0.001477513              -0.000003414              -0.000069693               0.000515730               0.000446037               0.000000000               0.000000000               0.000000000               0.000000000               0.000082452               0.000108336              -0.000048113               0.000017377               0.000030319               0.000047697               0.000000000               0.000000000               0.000000000               0.000000000               0.000115552               0.000204195              -0.000059053               0.000017807               0.000062129               0.000079936               0.000000000               0.000000000               0.000000000               0.000000000               0.000148139               0.000363142              -0.000061824               0.000010159               0.000117660               0.000127819               0.000000000               0.000000000               0.000000000               0.000000000               0.000172436               0.000503132              -0.000049875               0.000001772               0.000167118               0.000168890               0.000000000               0.000000000               0.000000000               0.000000000               0.000197871               0.000627316              -0.000034541              -0.000004213               0.000210507               0.000206295               0.000000000               0.000000000               0.000000000               0.000000000               0.000229066               0.000734745              -0.000018532              -0.000005943               0.000246894               0.000240950               0.000000000               0.000000000               0.000000000               0.000000000               0.000262073               0.000827263              -0.000006283              -0.000005130               0.000277462               0.000272331               0.000000000               0.000000000               0.000000000               0.000000000               0.000289204               0.000907350              -0.000002465              -0.000004967               0.000304103               0.000299136               0.000000000               0.000000000               0.000000000               0.000000000               0.000307408               0.000975675              -0.000004916              -0.000006681               0.000327449               0.000320767               0.000000000               0.000000000               0.000000000               0.000000000               0.000319921               0.001034969              -0.000008465              -0.000009401               0.000348120               0.000338719               0.000000000               0.000000000               0.000000000               0.000000000               0.000330825               0.001096313              -0.000011460              -0.000012980               0.000369760               0.000356781               0.000000000               0.000000000               0.000000000               0.000000000               0.000341625               0.001164117              -0.000012933              -0.000017405               0.000393837               0.000376431               0.000000000               0.000000000               0.000000000               0.000000000               0.000353107               0.001237865              -0.000012469              -0.000022318               0.000420057               0.000397739               0.000000000               0.000000000               0.000000000               0.000000000               0.000362068               0.001308201              -0.000011764              -0.000027750               0.000445312               0.000417563               0.000000000               0.000000000               0.000000000               0.000000000               0.000369668               0.001375912              -0.000010384              -0.000033363               0.000469754               0.000436391               0.000000000               0.000000000               0.000000000               0.000000000               0.000378985               0.001446849              -0.000006102              -0.000038737               0.000495191               0.000456454               0.000000000               0.000000000               0.000000000               0.000000000               0.000380962               0.001479613              -0.000002317              -0.000042091               0.000507229               0.000465139               0.000000000               0.000000000               0.000000000               0.000000000               0.000065428               0.000085514              -0.000030181               0.000013846               0.000023889               0.000037735               0.000000000               0.000000000               0.000000000               0.000000000               0.000113214               0.000179420              -0.000042204               0.000020028               0.000053130               0.000073158               0.000000000               0.000000000               0.000000000               0.000000000               0.000157860               0.000333607              -0.000048164               0.000017496               0.000105369               0.000122865               0.000000000               0.000000000               0.000000000               0.000000000               0.000185234               0.000475693              -0.000041274               0.000010001               0.000155229               0.000165230               0.000000000               0.000000000               0.000000000               0.000000000               0.000210399               0.000606762              -0.000030541               0.000003054               0.000201234               0.000204288               0.000000000               0.000000000               0.000000000               0.000000000               0.000236651               0.000722963              -0.000017633              -0.000001626               0.000241527               0.000239901               0.000000000               0.000000000               0.000000000               0.000000000               0.000266817               0.000824537              -0.000006139              -0.000003011               0.000275847               0.000272836               0.000000000               0.000000000               0.000000000               0.000000000               0.000296014               0.000912160              -0.000000865              -0.000003015               0.000305055               0.000302040               0.000000000               0.000000000               0.000000000               0.000000000               0.000320098               0.000987523              -0.000000921              -0.000003404               0.000330306               0.000326902               0.000000000               0.000000000               0.000000000               0.000000000               0.000337897               0.001049799              -0.000002595              -0.000004513               0.000351434               0.000346920               0.000000000               0.000000000               0.000000000               0.000000000               0.000352881               0.001108365              -0.000004536              -0.000006215               0.000371523               0.000365308               0.000000000               0.000000000               0.000000000               0.000000000               0.000367683               0.001170698              -0.000005543              -0.000008456               0.000393047               0.000384591               0.000000000               0.000000000               0.000000000               0.000000000               0.000384095               0.001240679              -0.000005149              -0.000011049               0.000417238               0.000406189               0.000000000               0.000000000               0.000000000               0.000000000               0.000401038               0.001313603              -0.000004260              -0.000013811               0.000442467               0.000428656               0.000000000               0.000000000               0.000000000               0.000000000               0.000415646               0.001380231              -0.000003916              -0.000016662               0.000465626               0.000448965               0.000000000               0.000000000               0.000000000               0.000000000               0.000430419               0.001445096              -0.000002403              -0.000019230               0.000488104               0.000468874               0.000000000               0.000000000               0.000000000               0.000000000               0.000437427               0.001477248              -0.000000738              -0.000020621               0.000499284               0.000478664               0.000000000               0.000000000               0.000000000               0.000000000               0.000052712               0.000074048              -0.000014815               0.000010511               0.000021179               0.000031690               0.000000000               0.000000000               0.000000000               0.000000000               0.000110750               0.000164018              -0.000022345               0.000021029               0.000047662               0.000068691               0.000000000               0.000000000               0.000000000               0.000000000               0.000163989               0.000312405              -0.000026438               0.000022445               0.000096652               0.000119097               0.000000000               0.000000000               0.000000000               0.000000000               0.000195762               0.000455485              -0.000023505               0.000016475               0.000146335               0.000162810               0.000000000               0.000000000               0.000000000               0.000000000               0.000220561               0.000589920              -0.000018260               0.000008970               0.000193648               0.000202618               0.000000000               0.000000000               0.000000000               0.000000000               0.000244582               0.000710563              -0.000011529               0.000002898               0.000235886               0.000238784               0.000000000               0.000000000               0.000000000               0.000000000               0.000272281               0.000819451              -0.000004926              -0.000000326               0.000273256               0.000272930               0.000000000               0.000000000               0.000000000               0.000000000               0.000301454               0.000913851              -0.000001168              -0.000001186               0.000305009               0.000303823               0.000000000               0.000000000               0.000000000               0.000000000               0.000327328               0.000994025              -0.000000193              -0.000001505               0.000331840               0.000330335               0.000000000               0.000000000               0.000000000               0.000000000               0.000348583               0.001060537              -0.000000362              -0.000001849               0.000354125               0.000352276               0.000000000               0.000000000               0.000000000               0.000000000               0.000366705               0.001118380              -0.000001131              -0.000002283               0.000373551               0.000371268               0.000000000               0.000000000               0.000000000               0.000000000               0.000384684               0.001176887              -0.000001581              -0.000002854               0.000393243               0.000390389               0.000000000               0.000000000               0.000000000               0.000000000               0.000404694               0.001242380              -0.000001396              -0.000003537               0.000415302               0.000411764               0.000000000               0.000000000               0.000000000               0.000000000               0.000426839               0.001315104              -0.000000751              -0.000004324               0.000439805               0.000435481               0.000000000               0.000000000               0.000000000               0.000000000               0.000446689               0.001382493              -0.000000522              -0.000005303               0.000462594               0.000457291               0.000000000               0.000000000               0.000000000               0.000000000               0.000464274               0.001444320              -0.000000400              -0.000006437               0.000483581               0.000477144               0.000000000               0.000000000               0.000000000               0.000000000               0.000472561               0.001475364              -0.000000025              -0.000007210               0.000494186               0.000486976               0.000000000               0.000000000               0.000000000               0.000000000               0.000000000               0.000000000               0.000000000               0.000000000               0.000000000               0.000000000               0.000000000               0.000000000               0.000000000               0.000000000               0.000000000               0.000000000               0.000000000               0.000000000               0.000000000               0.000000000               0.000000000               0.000000000               0.000000000               0.000000000               0.000000000               0.000000000               0.000000000               0.000000000               0.000000000               0.000000000               0.000000000               0.000000000               0.000000000               0.000000000               0.000000000               0.000000000               0.000000000               0.000000000               0.000000000               0.000000000               0.000000000               0.000000000               0.000000000               0.000000000               0.000000000               0.000000000               0.000000000               0.000000000               0.000000000               0.000000000               0.000000000               0.000000000               0.000000000               0.000000000               0.000000000               0.000000000               0.000000000               0.000000000               0.000000000               0.000000000               0.000000000               0.000000000               0.000000000               0.000000000               0.000000000               0.000000000               0.000000000               0.000000000               0.000000000               0.000000000               0.000000000               0.000000000               0.000000000               0.000000000               0.000000000               0.000000000               0.000000000               0.000000000               0.000000000               0.000000000               0.000000000               0.000000000               0.000000000               0.000000000               0.000000000               0.000000000               0.000000000               0.000000000               0.000000000               0.000000000               0.000000000               0.000000000               0.000000000               0.000000000               0.000000000               0.000000000               0.000000000               0.000000000               0.000000000               0.000000000               0.000000000               0.000000000               0.000000000               0.000000000               0.000000000               0.000000000               0.000000000               0.000000000               0.000000000               0.000000000               0.000000000               0.000000000               0.000000000               0.000000000               0.000000000               0.000000000               0.000000000               0.000000000               0.000000000               0.000000000               0.000000000               0.000000000               0.000000000               0.000000000               0.000000000               0.000000000               0.000000000               0.000000000               0.000000000               0.000000000               0.000000000               0.000000000               0.000000000               0.000000000               0.000000000               0.000000000               0.000000000               0.000000000               0.000000000               0.000000000               0.000000000               0.000000000               0.000000000               0.000000000               0.000000000               0.000000000               0.000000000               0.000000000               0.000000000               0.000000000               0.000000000               0.000000000               0.000000000               0.000000000               0.000000000               0.000000000               0.000000000               0.000000000               0.000000000               0.000000000               0.000000000               0.000000000               0.000000000               0.000000000               0.000000000               0.000000000               0.000000000               0.000000000               0.000000000               0.000000000               0.000000000               0.000000000               0.000000000               0.000000000               0.000000000               0.000000000               0.000000000               0.000000000               0.000000000               0.000000000               0.000000000               0.000000000               0.000000000               0.000000000               0.000000000               0.000000000               0.000000000               0.000000000               0.000000000               0.000000000               0.000000000               0.000000000               0.000000000               0.000000000               0.000000000               0.000000000               0.000000000               0.000000000               0.000000000               0.000000000               0.000000000               0.000000000               0.000000000               0.000000000               0.000000000               0.000000000               0.000000000               0.000000000               0.000000000               0.000000000               0.000000000               0.000000000               0.000000000               0.000000000               0.000000000               0.000000000               0.000000000               0.000000000               0.000000000               0.000000000               0.000000000               0.000000000               0.000000000               0.000000000               0.000000000               0.000000000               0.000000000               0.000000000               0.000000000               0.000000000               0.000000000               0.000000000               0.000000000               0.000000000               0.000000000               0.000000000               0.000000000               0.000000000               0.000000000               0.000000000               0.000000000               0.000000000               0.000000000               0.000000000               0.000000000               0.000000000               0.000000000               0.000000000               0.000000000               0.000000000               0.000000000               0.000000000               0.000000000               0.000000000               0.000000000               0.000000000               0.000000000               0.000000000               0.000000000               0.000000000               0.000000000               0.000000000               0.000000000               0.000000000               0.000000000               0.000000000               0.000000000               0.000000000               0.000000000               0.000000000               0.000000000               0.000000000               0.000000000               0.000000000               0.000000000               0.000000000               0.000000000               0.000000000               0.000000000               0.000000000               0.000000000               0.000000000               0.000000000               0.000000000               0.000000000               0.000000000               0.000000000               0.000000000               0.000000000               0.000000000               0.000000000               0.000000000               0.000000000               0.000000000               0.000000000               0.000000000               0.000000000               0.000000000               0.000000000               0.000000000               0.000000000               0.000000000               0.000000000               0.000000000               0.000000000               0.000000000               0.000000000               0.000000000               0.000000000               0.000000000               0.000000000               0.000000000               0.000000000               0.000000000               0.000000000               0.000000000               0.000000000               0.000000000               0.000000000               0.000000000               0.000000000               0.000000000               0.000000000               0.000000000               0.000000000               0.000000000               0.000000000               0.000000000               0.000000000               0.000000000               0.000000000               0.000000000               0.000000000               0.000000000               0.000000000               0.000000000               0.000000000               0.000000000               0.000000000               0.000000000               0.000000000               0.000000000               0.000000000               0.000000000               0.000036063               0.000204095               0.000017716              -0.000011988               0.000072027               0.000060039               0.000000000               0.000000000               0.000000000               0.000000000               0.000045346               0.000174009               0.000008998              -0.000004746               0.000059585               0.000054838               0.000000000               0.000000000               0.000000000               0.000000000               0.000063157               0.000167462              -0.000000726               0.000002751               0.000054903               0.000057654               0.000000000               0.000000000               0.000000000               0.000000000               0.000062603               0.000176518              -0.000004207               0.000001411               0.000058368               0.000059779               0.000000000               0.000000000               0.000000000               0.000000000               0.000057413               0.000185017              -0.000001450              -0.000001597               0.000062204               0.000060607               0.000000000               0.000000000               0.000000000               0.000000000               0.000057174               0.000186937              -0.000001544              -0.000001927               0.000062954               0.000061027               0.000000000               0.000000000               0.000000000               0.000000000               0.000060138               0.000193848              -0.000004524              -0.000001679               0.000065175               0.000063496               0.000000000               0.000000000               0.000000000               0.000000000               0.000060019               0.000197500              -0.000004414              -0.000002180               0.000066559               0.000064379               0.000000000               0.000000000               0.000000000               0.000000000               0.000061456               0.000197607              -0.000003583              -0.000001655               0.000066420               0.000064765               0.000000000               0.000000000               0.000000000               0.000000000               0.000065468               0.000195964              -0.000002327               0.000000055               0.000065302               0.000065358               0.000000000               0.000000000               0.000000000               0.000000000               0.000068471               0.000192446              -0.000000823               0.000001621               0.000063608               0.000065229               0.000000000               0.000000000               0.000000000               0.000000000               0.000069687               0.000189685              -0.000000008               0.000002422               0.000062420               0.000064842               0.000000000               0.000000000               0.000000000               0.000000000               0.000067837               0.000189871               0.000000069               0.000001705               0.000062721               0.000064426               0.000000000               0.000000000               0.000000000               0.000000000               0.000060337               0.000194590              -0.000000801              -0.000001697               0.000065428               0.000063731               0.000000000               0.000000000               0.000000000               0.000000000               0.000046228               0.000205154              -0.000001987              -0.000008309               0.000071153               0.000062845               0.000000000               0.000000000               0.000000000               0.000000000               0.000025325               0.000222283              -0.000002176              -0.000018288               0.000080190               0.000061901               0.000000000               0.000000000               0.000000000               0.000000000               0.000016401               0.000239758              -0.000000083              -0.000023819               0.000087858               0.000064039               0.000000000               0.000000000               0.000000000               0.000000000               0.000043040               0.000211906               0.000033948              -0.000010348               0.000074084               0.000063736               0.000000000               0.000000000               0.000000000               0.000000000               0.000048907               0.000183139               0.000016657              -0.000004552               0.000062563               0.000058011               0.000000000               0.000000000               0.000000000               0.000000000               0.000063925               0.000183078              -0.000003061               0.000001087               0.000060663               0.000061750               0.000000000               0.000000000               0.000000000               0.000000000               0.000067495               0.000198905              -0.000008939               0.000000448               0.000066152               0.000066600               0.000000000               0.000000000               0.000000000               0.000000000               0.000069390               0.000212708              -0.000003348              -0.000000567               0.000071091               0.000070524               0.000000000               0.000000000               0.000000000               0.000000000               0.000073669               0.000222591              -0.000002251              -0.000000198               0.000074262               0.000074064               0.000000000               0.000000000               0.000000000               0.000000000               0.000079045               0.000232893              -0.000004547               0.000000530               0.000077454               0.000077984               0.000000000               0.000000000               0.000000000               0.000000000               0.000082200               0.000238786              -0.000001510               0.000000977               0.000079269               0.000080246               0.000000000               0.000000000               0.000000000               0.000000000               0.000086067               0.000244864               0.000001820               0.000001667               0.000081065               0.000082732               0.000000000               0.000000000               0.000000000               0.000000000               0.000089993               0.000252830               0.000005818               0.000002144               0.000083561               0.000085705               0.000000000               0.000000000               0.000000000               0.000000000               0.000089367               0.000263893               0.000009746               0.000000526               0.000087788               0.000088314               0.000000000               0.000000000               0.000000000               0.000000000               0.000083060               0.000278686               0.000012349              -0.000003688               0.000094124               0.000090436               0.000000000               0.000000000               0.000000000               0.000000000               0.000073172               0.000298185               0.000013484              -0.000009834               0.000102672               0.000092838               0.000000000               0.000000000               0.000000000               0.000000000               0.000059751               0.000322143               0.000012612              -0.000017861               0.000113334               0.000095473               0.000000000               0.000000000               0.000000000               0.000000000               0.000042646               0.000350283               0.000009940              -0.000027793               0.000126024               0.000098231               0.000000000               0.000000000               0.000000000               0.000000000               0.000022219               0.000383614               0.000005605              -0.000039619               0.000141077               0.000101457               0.000000000               0.000000000               0.000000000               0.000000000               0.000016359               0.000411929               0.000006023              -0.000045356               0.000152427               0.000107071               0.000000000               0.000000000               0.000000000               0.000000000               0.000053666               0.000230182               0.000051573              -0.000008648               0.000079609               0.000070961               0.000000000               0.000000000               0.000000000               0.000000000               0.000057652               0.000206701               0.000025167              -0.000004218               0.000070306               0.000066088               0.000000000               0.000000000               0.000000000               0.000000000               0.000069609               0.000215331              -0.000004045              -0.000000813               0.000072047               0.000071234               0.000000000               0.000000000               0.000000000               0.000000000               0.000076026               0.000240800              -0.000010621              -0.000001590               0.000080796               0.000079206               0.000000000               0.000000000               0.000000000               0.000000000               0.000085094               0.000264564              -0.000002800              -0.000001160               0.000088574               0.000087414               0.000000000               0.000000000               0.000000000               0.000000000               0.000094539               0.000288030               0.000001859              -0.000000552               0.000096193               0.000095641               0.000000000               0.000000000               0.000000000               0.000000000               0.000104303               0.000305884               0.000002245               0.000000878               0.000101668               0.000102546               0.000000000               0.000000000               0.000000000               0.000000000               0.000112765               0.000322125               0.000007661               0.000002021               0.000106700               0.000108721               0.000000000               0.000000000               0.000000000               0.000000000               0.000116917               0.000338228               0.000013832               0.000001565               0.000112220               0.000113785               0.000000000               0.000000000               0.000000000               0.000000000               0.000120018               0.000359029               0.000019783               0.000000128               0.000119633               0.000119761               0.000000000               0.000000000               0.000000000               0.000000000               0.000116639               0.000385377               0.000024690              -0.000004433               0.000129935               0.000125503               0.000000000               0.000000000               0.000000000               0.000000000               0.000104235               0.000416631               0.000027594              -0.000012991               0.000143206               0.000130215               0.000000000               0.000000000               0.000000000               0.000000000               0.000087551               0.000453163               0.000028075              -0.000023814               0.000158991               0.000135177               0.000000000               0.000000000               0.000000000               0.000000000               0.000067746               0.000492929               0.000025920              -0.000036211               0.000176378               0.000140167               0.000000000               0.000000000               0.000000000               0.000000000               0.000045346               0.000534011               0.000020708              -0.000049747               0.000194584               0.000144837               0.000000000               0.000000000               0.000000000               0.000000000               0.000022383               0.000575371               0.000011908              -0.000063528               0.000212964               0.000149437               0.000000000               0.000000000               0.000000000               0.000000000               0.000016445               0.000605431               0.000009799              -0.000069512               0.000224979               0.000155467               0.000000000               0.000000000               0.000000000               0.000000000               0.000068479               0.000249816               0.000069091              -0.000005548               0.000085120               0.000079573               0.000000000               0.000000000               0.000000000               0.000000000               0.000066507               0.000235685               0.000035797              -0.000004520               0.000080068               0.000075547               0.000000000               0.000000000               0.000000000               0.000000000               0.000076288               0.000263190               0.000000244              -0.000004291               0.000089159               0.000084869               0.000000000               0.000000000               0.000000000               0.000000000               0.000089287               0.000305880              -0.000009363              -0.000004752               0.000103543               0.000098791               0.000000000               0.000000000               0.000000000               0.000000000               0.000109658               0.000346304              -0.000001300              -0.000002166               0.000116156               0.000113989               0.000000000               0.000000000               0.000000000               0.000000000               0.000124601               0.000378431               0.000006368              -0.000000578               0.000126335               0.000125757               0.000000000               0.000000000               0.000000000               0.000000000               0.000135572               0.000405677               0.000009224               0.000000130               0.000135181               0.000135311               0.000000000               0.000000000               0.000000000               0.000000000               0.000141994               0.000432121               0.000017314              -0.000000767               0.000144294               0.000143527               0.000000000               0.000000000               0.000000000               0.000000000               0.000142501               0.000458996               0.000026261              -0.000003937               0.000154309               0.000150373               0.000000000               0.000000000               0.000000000               0.000000000               0.000141376               0.000492511               0.000032907              -0.000008548               0.000167018               0.000158470               0.000000000               0.000000000               0.000000000               0.000000000               0.000132949               0.000530966               0.000037438              -0.000016515               0.000182492               0.000165977               0.000000000               0.000000000               0.000000000               0.000000000               0.000116197               0.000572894               0.000038762              -0.000028038               0.000200309               0.000172271               0.000000000               0.000000000               0.000000000               0.000000000               0.000095983               0.000617252               0.000037052              -0.000041163               0.000219470               0.000178307               0.000000000               0.000000000               0.000000000               0.000000000               0.000073564               0.000662104               0.000032199              -0.000055176               0.000239091               0.000183915               0.000000000               0.000000000               0.000000000               0.000000000               0.000049030               0.000705342               0.000024210              -0.000069781               0.000258372               0.000188591               0.000000000               0.000000000               0.000000000               0.000000000               0.000024057               0.000745284               0.000013210              -0.000084139               0.000276472               0.000192333               0.000000000               0.000000000               0.000000000               0.000000000               0.000016967               0.000772654               0.000010015              -0.000090219               0.000287622               0.000197403               0.000000000               0.000000000               0.000000000               0.000000000               0.000082354               0.000263633               0.000085696              -0.000002071               0.000088567               0.000086496               0.000000000               0.000000000               0.000000000               0.000000000               0.000074772               0.000265328               0.000046526              -0.000005127               0.000090151               0.000085024               0.000000000               0.000000000               0.000000000               0.000000000               0.000086728               0.000323585               0.000005001              -0.000007925               0.000110502               0.000102577               0.000000000               0.000000000               0.000000000               0.000000000               0.000107641               0.000382182              -0.000007290              -0.000007407               0.000129862               0.000122454               0.000000000               0.000000000               0.000000000               0.000000000               0.000135070               0.000428807               0.000003475              -0.000002950               0.000143917               0.000140968               0.000000000               0.000000000               0.000000000               0.000000000               0.000153925               0.000464361               0.000014038              -0.000000323               0.000154893               0.000154570               0.000000000               0.000000000               0.000000000               0.000000000               0.000165398               0.000500299               0.000018964              -0.000000513               0.000166936               0.000166422               0.000000000               0.000000000               0.000000000               0.000000000               0.000166574               0.000534182               0.000028275              -0.000004308               0.000179495               0.000175187               0.000000000               0.000000000               0.000000000               0.000000000               0.000161356               0.000572114               0.000037527              -0.000011006               0.000194371               0.000183365               0.000000000               0.000000000               0.000000000               0.000000000               0.000153619               0.000616920               0.000042444              -0.000019508               0.000212140               0.000192633               0.000000000               0.000000000               0.000000000               0.000000000               0.000139119               0.000666165               0.000044609              -0.000031101               0.000232420               0.000201319               0.000000000               0.000000000               0.000000000               0.000000000               0.000117312               0.000715604               0.000043558              -0.000045458               0.000253685               0.000208227               0.000000000               0.000000000               0.000000000               0.000000000               0.000094322               0.000764984               0.000039380              -0.000060252               0.000275076               0.000214824               0.000000000               0.000000000               0.000000000               0.000000000               0.000070916               0.000812571               0.000032411              -0.000074978               0.000295847               0.000220869               0.000000000               0.000000000               0.000000000               0.000000000               0.000046402               0.000856581               0.000023288              -0.000089672               0.000315415               0.000225743               0.000000000               0.000000000               0.000000000               0.000000000               0.000022590               0.000897050               0.000012277              -0.000103660               0.000333567               0.000229907               0.000000000               0.000000000               0.000000000               0.000000000               0.000016498               0.000925011               0.000009485              -0.000109440               0.000344814               0.000235374               0.000000000               0.000000000               0.000000000               0.000000000               0.000094897               0.000272096               0.000100557               0.000001574               0.000090173               0.000091747               0.000000000               0.000000000               0.000000000               0.000000000               0.000085208               0.000296173               0.000056632              -0.000005069               0.000100413               0.000095344               0.000000000               0.000000000               0.000000000               0.000000000               0.000098420               0.000380529               0.000011986              -0.000010659               0.000130395               0.000119736               0.000000000               0.000000000               0.000000000               0.000000000               0.000123841               0.000447298               0.000000582              -0.000009472               0.000152255               0.000142783               0.000000000               0.000000000               0.000000000               0.000000000               0.000156095               0.000494208               0.000009390              -0.000003240               0.000165814               0.000162574               0.000000000               0.000000000               0.000000000               0.000000000               0.000177663               0.000535446               0.000018562              -0.000000307               0.000178582               0.000178275               0.000000000               0.000000000               0.000000000               0.000000000               0.000185261               0.000579556               0.000024045              -0.000002972               0.000194174               0.000191202               0.000000000               0.000000000               0.000000000               0.000000000               0.000181257               0.000623161               0.000034046              -0.000009923               0.000211026               0.000201102               0.000000000               0.000000000               0.000000000               0.000000000               0.000172242               0.000673474               0.000042417              -0.000019593               0.000231020               0.000211427               0.000000000               0.000000000               0.000000000               0.000000000               0.000160429               0.000731270               0.000045102              -0.000031248               0.000254170               0.000222922               0.000000000               0.000000000               0.000000000               0.000000000               0.000140784               0.000790648               0.000045275              -0.000046037               0.000278892               0.000232855               0.000000000               0.000000000               0.000000000               0.000000000               0.000116334               0.000849541               0.000042816              -0.000062567               0.000304033               0.000241466               0.000000000               0.000000000               0.000000000               0.000000000               0.000092724               0.000907520               0.000037163              -0.000078668               0.000328726               0.000250058               0.000000000               0.000000000               0.000000000               0.000000000               0.000068686               0.000962730               0.000029788              -0.000094584               0.000352435               0.000257851               0.000000000               0.000000000               0.000000000               0.000000000               0.000044414               0.001014087               0.000021058              -0.000110105               0.000374727               0.000264622               0.000000000               0.000000000               0.000000000               0.000000000               0.000021772               0.001060858               0.000011056              -0.000124442               0.000395097               0.000270654               0.000000000               0.000000000               0.000000000               0.000000000               0.000016195               0.001091700               0.000009075              -0.000130389               0.000407359               0.000276971               0.000000000               0.000000000               0.000000000               0.000000000               0.000110650               0.000272016               0.000109254               0.000007491               0.000088174               0.000095665               0.000000000               0.000000000               0.000000000               0.000000000               0.000095490               0.000320983               0.000065896              -0.000004314               0.000108431               0.000104117               0.000000000               0.000000000               0.000000000               0.000000000               0.000106477               0.000425596               0.000020074              -0.000013271               0.000146287               0.000133017               0.000000000               0.000000000               0.000000000               0.000000000               0.000136618               0.000499248               0.000005949              -0.000011174               0.000170139               0.000158965               0.000000000               0.000000000               0.000000000               0.000000000               0.000172582               0.000550983               0.000010348              -0.000004155               0.000185044               0.000180889               0.000000000               0.000000000               0.000000000               0.000000000               0.000194085               0.000603464               0.000018507              -0.000002651               0.000202036               0.000199385               0.000000000               0.000000000               0.000000000               0.000000000               0.000195874               0.000658189               0.000025715              -0.000008821               0.000222335               0.000213514               0.000000000               0.000000000               0.000000000               0.000000000               0.000189668               0.000715620               0.000037032              -0.000018327               0.000244646               0.000226320               0.000000000               0.000000000               0.000000000               0.000000000               0.000180579               0.000781486               0.000043130              -0.000029969               0.000270482               0.000240514               0.000000000               0.000000000               0.000000000               0.000000000               0.000166401               0.000853320               0.000044830              -0.000044264               0.000299192               0.000254928               0.000000000               0.000000000               0.000000000               0.000000000               0.000144534               0.000923296               0.000043864              -0.000061211               0.000328166               0.000266955               0.000000000               0.000000000               0.000000000               0.000000000               0.000120826               0.000992269               0.000039320              -0.000078724               0.000356994               0.000278271               0.000000000               0.000000000               0.000000000               0.000000000               0.000096862               0.001059574               0.000032462              -0.000096123               0.000385229               0.000289106               0.000000000               0.000000000               0.000000000               0.000000000               0.000072074               0.001123110               0.000024216              -0.000113361               0.000412153               0.000298792               0.000000000               0.000000000               0.000000000               0.000000000               0.000047056               0.001182239               0.000015678              -0.000130134               0.000437453               0.000307320               0.000000000               0.000000000               0.000000000               0.000000000               0.000023660               0.001235044               0.000007765              -0.000145508               0.000460180               0.000314672               0.000000000               0.000000000               0.000000000               0.000000000               0.000015874               0.001268011               0.000006852              -0.000152548               0.000473515               0.000320967               0.000000000               0.000000000               0.000000000               0.000000000               0.000124364               0.000264274               0.000108437               0.000013602               0.000083557               0.000097159               0.000000000               0.000000000               0.000000000               0.000000000               0.000102392               0.000333303               0.000070537              -0.000003266               0.000112189               0.000108923               0.000000000               0.000000000               0.000000000               0.000000000               0.000106423               0.000456436               0.000026933              -0.000017146               0.000157859               0.000140713               0.000000000               0.000000000               0.000000000               0.000000000               0.000140049               0.000536487               0.000009185              -0.000014542               0.000183675               0.000169132               0.000000000               0.000000000               0.000000000               0.000000000               0.000183989               0.000598881               0.000008702              -0.000005864               0.000201580               0.000195716               0.000000000               0.000000000               0.000000000               0.000000000               0.000208534               0.000663589               0.000016056              -0.000004748               0.000222777               0.000218028               0.000000000               0.000000000               0.000000000               0.000000000               0.000208805               0.000728011               0.000026315              -0.000012699               0.000246901               0.000234202               0.000000000               0.000000000               0.000000000               0.000000000               0.000203809               0.000795874               0.000036865              -0.000023056               0.000272974               0.000249918               0.000000000               0.000000000               0.000000000               0.000000000               0.000195441               0.000871900               0.000040990              -0.000035697               0.000302529               0.000266832               0.000000000               0.000000000               0.000000000               0.000000000               0.000180209               0.000951534               0.000042103              -0.000051363               0.000334296               0.000282933               0.000000000               0.000000000               0.000000000               0.000000000               0.000159858               0.001028832               0.000040585              -0.000068657               0.000365826               0.000297169               0.000000000               0.000000000               0.000000000               0.000000000               0.000138361               0.001105014               0.000034477              -0.000086241               0.000397081               0.000310840               0.000000000               0.000000000               0.000000000               0.000000000               0.000115730               0.001179328               0.000026416              -0.000104017               0.000427778               0.000323761               0.000000000               0.000000000               0.000000000               0.000000000               0.000091740               0.001249899               0.000017464              -0.000121834               0.000457240               0.000335406               0.000000000               0.000000000               0.000000000               0.000000000               0.000068168               0.001316423               0.000008760              -0.000138990               0.000485133               0.000346143               0.000000000               0.000000000               0.000000000               0.000000000               0.000047587               0.001377664               0.000002055              -0.000154362               0.000510671               0.000356308               0.000000000               0.000000000               0.000000000               0.000000000               0.000037001               0.001410719              -0.000000139              -0.000162464               0.000524390               0.000361926               0.000000000               0.000000000               0.000000000               0.000000000               0.000126448               0.000241251               0.000102777               0.000017261               0.000074662               0.000091924               0.000000000               0.000000000               0.000000000               0.000000000               0.000105960               0.000319671               0.000073686              -0.000000224               0.000106630               0.000106407               0.000000000               0.000000000               0.000000000               0.000000000               0.000107858               0.000454944               0.000038638              -0.000016421               0.000157120               0.000140699               0.000000000               0.000000000               0.000000000               0.000000000               0.000140520               0.000553433               0.000019807              -0.000016484               0.000189971               0.000173487               0.000000000               0.000000000               0.000000000               0.000000000               0.000188407               0.000633847               0.000011927              -0.000008578               0.000214139               0.000205561               0.000000000               0.000000000               0.000000000               0.000000000               0.000222571               0.000703704               0.000014563              -0.000004499               0.000236065               0.000231566               0.000000000               0.000000000               0.000000000               0.000000000               0.000230831               0.000770799               0.000024780              -0.000009788               0.000260193               0.000250405               0.000000000               0.000000000               0.000000000               0.000000000               0.000227921               0.000836772               0.000034656              -0.000019126               0.000285297               0.000266171               0.000000000               0.000000000               0.000000000               0.000000000               0.000222272               0.000907474               0.000039683              -0.000030082               0.000312516               0.000282433               0.000000000               0.000000000               0.000000000               0.000000000               0.000212139               0.000985097               0.000041412              -0.000043585               0.000342891               0.000299306               0.000000000               0.000000000               0.000000000               0.000000000               0.000196085               0.001061773               0.000040118              -0.000059189               0.000373651               0.000314461               0.000000000               0.000000000               0.000000000               0.000000000               0.000177125               0.001137252               0.000035847              -0.000075735               0.000404325               0.000328591               0.000000000               0.000000000               0.000000000               0.000000000               0.000157774               0.001213164               0.000028394              -0.000092480               0.000435211               0.000342730               0.000000000               0.000000000               0.000000000               0.000000000               0.000137917               0.001289046               0.000019254              -0.000109411               0.000466148               0.000356737               0.000000000               0.000000000               0.000000000               0.000000000               0.000117891               0.001363286               0.000010656              -0.000126201               0.000496491               0.000370290               0.000000000               0.000000000               0.000000000               0.000000000               0.000100665               0.001437992               0.000003292              -0.000141999               0.000526659               0.000384660               0.000000000               0.000000000               0.000000000               0.000000000               0.000087017               0.001472969              -0.000002162              -0.000151489               0.000541481               0.000389992               0.000000000               0.000000000               0.000000000               0.000000000               0.000121991               0.000206843               0.000093455               0.000019891               0.000062317               0.000082208               0.000000000               0.000000000               0.000000000               0.000000000               0.000108791               0.000292783               0.000077113               0.000004199               0.000096194               0.000100392               0.000000000               0.000000000               0.000000000               0.000000000               0.000115818               0.000441237               0.000052664              -0.000011723               0.000150985               0.000139262               0.000000000               0.000000000               0.000000000               0.000000000               0.000144433               0.000559792               0.000032730              -0.000015811               0.000191866               0.000176054               0.000000000               0.000000000               0.000000000               0.000000000               0.000187430               0.000651996               0.000017791              -0.000011213               0.000221067               0.000209854               0.000000000               0.000000000               0.000000000               0.000000000               0.000227642               0.000725977               0.000011880              -0.000005381               0.000243784               0.000238402               0.000000000               0.000000000               0.000000000               0.000000000               0.000245953               0.000793274               0.000016521              -0.000006927               0.000266731               0.000259804               0.000000000               0.000000000               0.000000000               0.000000000               0.000247674               0.000857338               0.000025179              -0.000014290               0.000290540               0.000276250               0.000000000               0.000000000               0.000000000               0.000000000               0.000246592               0.000921871               0.000032100              -0.000022762               0.000314875               0.000292113               0.000000000               0.000000000               0.000000000               0.000000000               0.000243198               0.000993707               0.000035863              -0.000033014               0.000342237               0.000309223               0.000000000               0.000000000               0.000000000               0.000000000               0.000236823               0.001070656               0.000036191              -0.000045023               0.000371890               0.000326866               0.000000000               0.000000000               0.000000000               0.000000000               0.000226079               0.001145298               0.000034854              -0.000058383               0.000401223               0.000342840               0.000000000               0.000000000               0.000000000               0.000000000               0.000212330               0.001217704               0.000030966              -0.000072589               0.000430094               0.000357505               0.000000000               0.000000000               0.000000000               0.000000000               0.000199448               0.001294207               0.000023734              -0.000086983               0.000460392               0.000373410               0.000000000               0.000000000               0.000000000               0.000000000               0.000184264               0.001367816               0.000015331              -0.000101878               0.000489893               0.000388016               0.000000000               0.000000000               0.000000000               0.000000000               0.000168104               0.001441603               0.000007034              -0.000117161               0.000519583               0.000402422               0.000000000               0.000000000               0.000000000               0.000000000               0.000152253               0.001474787              -0.000000634              -0.000127253               0.000534008               0.000406755               0.000000000               0.000000000               0.000000000               0.000000000               0.000115749               0.000173013               0.000079779               0.000021779               0.000050411               0.000072190               0.000000000               0.000000000               0.000000000               0.000000000               0.000112478               0.000264861               0.000076628               0.000009071               0.000085262               0.000094334               0.000000000               0.000000000               0.000000000               0.000000000               0.000124254               0.000424425               0.000063668              -0.000006458               0.000143626               0.000137168               0.000000000               0.000000000               0.000000000               0.000000000               0.000149871               0.000554090               0.000044356              -0.000013060               0.000189048               0.000175988               0.000000000               0.000000000               0.000000000               0.000000000               0.000186019               0.000655348               0.000025252              -0.000012161               0.000222501               0.000210340               0.000000000               0.000000000               0.000000000               0.000000000               0.000225721               0.000737211               0.000011831              -0.000007506               0.000248236               0.000240731               0.000000000               0.000000000               0.000000000               0.000000000               0.000254428               0.000810002               0.000009052              -0.000005840               0.000271945               0.000266105               0.000000000               0.000000000               0.000000000               0.000000000               0.000265445               0.000876948               0.000015031              -0.000010077               0.000295672               0.000285595               0.000000000               0.000000000               0.000000000               0.000000000               0.000269973               0.000939328               0.000022629              -0.000016176               0.000318498               0.000302322               0.000000000               0.000000000               0.000000000               0.000000000               0.000271965               0.001005087               0.000027860              -0.000023649               0.000342909               0.000319260               0.000000000               0.000000000               0.000000000               0.000000000               0.000272820               0.001078154               0.000030303              -0.000032462               0.000370202               0.000337740               0.000000000               0.000000000               0.000000000               0.000000000               0.000271857               0.001154205               0.000030174              -0.000042329               0.000398841               0.000356512               0.000000000               0.000000000               0.000000000               0.000000000               0.000265990               0.001225223               0.000028994              -0.000053407               0.000426206               0.000372799               0.000000000               0.000000000               0.000000000               0.000000000               0.000259007               0.001297805               0.000025211              -0.000065098               0.000454297               0.000389199               0.000000000               0.000000000               0.000000000               0.000000000               0.000251053               0.001371087               0.000018080              -0.000077241               0.000482771               0.000405530               0.000000000               0.000000000               0.000000000               0.000000000               0.000240174               0.001443685               0.000009955              -0.000090395               0.000511355               0.000420960               0.000000000               0.000000000               0.000000000               0.000000000               0.000225405               0.001474342               0.000002315              -0.000099766               0.000524698               0.000424932               0.000000000               0.000000000               0.000000000               0.000000000               0.000101465               0.000140896               0.000065087               0.000020437               0.000040152               0.000060589               0.000000000               0.000000000               0.000000000               0.000000000               0.000115546               0.000235600               0.000070645               0.000013880               0.000073906               0.000087786               0.000000000               0.000000000               0.000000000               0.000000000               0.000135842               0.000396687               0.000066925               0.000001355               0.000131776               0.000133131               0.000000000               0.000000000               0.000000000               0.000000000               0.000159225               0.000530833               0.000050766              -0.000006645               0.000179157               0.000172513               0.000000000               0.000000000               0.000000000               0.000000000               0.000188381               0.000643746               0.000031761              -0.000009825               0.000217855               0.000208030               0.000000000               0.000000000               0.000000000               0.000000000               0.000225478               0.000739448               0.000015021              -0.000007877               0.000249106               0.000241229               0.000000000               0.000000000               0.000000000               0.000000000               0.000259283               0.000822715               0.000006014              -0.000005608               0.000276105               0.000270497               0.000000000               0.000000000               0.000000000               0.000000000               0.000280664               0.000896145               0.000007160              -0.000006769               0.000300968               0.000294199               0.000000000               0.000000000               0.000000000               0.000000000               0.000291260               0.000959533               0.000013117              -0.000010719               0.000323414               0.000312695               0.000000000               0.000000000               0.000000000               0.000000000               0.000298179               0.001020136               0.000017968              -0.000015700               0.000345275               0.000329576               0.000000000               0.000000000               0.000000000               0.000000000               0.000303560               0.001086239               0.000021306              -0.000021945               0.000369391               0.000347446               0.000000000               0.000000000               0.000000000               0.000000000               0.000309274               0.001159382               0.000022157              -0.000028945               0.000396105               0.000367160               0.000000000               0.000000000               0.000000000               0.000000000               0.000312974               0.001232527               0.000021514              -0.000036700               0.000423072               0.000386371               0.000000000               0.000000000               0.000000000               0.000000000               0.000313188               0.001301569               0.000020387              -0.000045250               0.000448936               0.000403685               0.000000000               0.000000000               0.000000000               0.000000000               0.000313411               0.001372713               0.000016254              -0.000054060               0.000475586               0.000421526               0.000000000               0.000000000               0.000000000               0.000000000               0.000313522               0.001446440               0.000009395              -0.000063234               0.000503220               0.000439986               0.000000000               0.000000000               0.000000000               0.000000000               0.000306656               0.001477513               0.000003414              -0.000069693               0.000515730               0.000446037               0.000000000               0.000000000               0.000000000               0.000000000               0.000082452               0.000108336               0.000048113               0.000017377               0.000030319               0.000047697               0.000000000               0.000000000               0.000000000               0.000000000               0.000115552               0.000204195               0.000059053               0.000017807               0.000062129               0.000079936               0.000000000               0.000000000               0.000000000               0.000000000               0.000148139               0.000363142               0.000061824               0.000010159               0.000117660               0.000127819               0.000000000               0.000000000               0.000000000               0.000000000               0.000172436               0.000503132               0.000049875               0.000001772               0.000167118               0.000168890               0.000000000               0.000000000               0.000000000               0.000000000               0.000197871               0.000627316               0.000034541              -0.000004213               0.000210507               0.000206295               0.000000000               0.000000000               0.000000000               0.000000000               0.000229066               0.000734745               0.000018532              -0.000005943               0.000246894               0.000240950               0.000000000               0.000000000               0.000000000               0.000000000               0.000262073               0.000827263               0.000006283              -0.000005130               0.000277462               0.000272331               0.000000000               0.000000000               0.000000000               0.000000000               0.000289204               0.000907350               0.000002465              -0.000004967               0.000304103               0.000299136               0.000000000               0.000000000               0.000000000               0.000000000               0.000307408               0.000975675               0.000004916              -0.000006681               0.000327449               0.000320767               0.000000000               0.000000000               0.000000000               0.000000000               0.000319921               0.001034969               0.000008465              -0.000009401               0.000348120               0.000338719               0.000000000               0.000000000               0.000000000               0.000000000               0.000330825               0.001096313               0.000011460              -0.000012980               0.000369760               0.000356781               0.000000000               0.000000000               0.000000000               0.000000000               0.000341625               0.001164117               0.000012933              -0.000017405               0.000393837               0.000376431               0.000000000               0.000000000               0.000000000               0.000000000               0.000353107               0.001237865               0.000012469              -0.000022318               0.000420057               0.000397739               0.000000000               0.000000000               0.000000000               0.000000000               0.000362068               0.001308201               0.000011764              -0.000027750               0.000445312               0.000417563               0.000000000               0.000000000               0.000000000               0.000000000               0.000369668               0.001375912               0.000010384              -0.000033363               0.000469754               0.000436391               0.000000000               0.000000000               0.000000000               0.000000000               0.000378985               0.001446849               0.000006102              -0.000038737               0.000495191               0.000456454               0.000000000               0.000000000               0.000000000               0.000000000               0.000380962               0.001479613               0.000002317              -0.000042091               0.000507229               0.000465139               0.000000000               0.000000000               0.000000000               0.000000000               0.000065428               0.000085514               0.000030181               0.000013846               0.000023889               0.000037735               0.000000000               0.000000000               0.000000000               0.000000000               0.000113214               0.000179420               0.000042204               0.000020028               0.000053130               0.000073158               0.000000000               0.000000000               0.000000000               0.000000000               0.000157860               0.000333607               0.000048164               0.000017496               0.000105369               0.000122865               0.000000000               0.000000000               0.000000000               0.000000000               0.000185234               0.000475693               0.000041274               0.000010001               0.000155229               0.000165230               0.000000000               0.000000000               0.000000000               0.000000000               0.000210399               0.000606762               0.000030541               0.000003054               0.000201234               0.000204288               0.000000000               0.000000000               0.000000000               0.000000000               0.000236651               0.000722963               0.000017633              -0.000001626               0.000241527               0.000239901               0.000000000               0.000000000               0.000000000               0.000000000               0.000266817               0.000824537               0.000006139              -0.000003011               0.000275847               0.000272836               0.000000000               0.000000000               0.000000000               0.000000000               0.000296014               0.000912160               0.000000865              -0.000003015               0.000305055               0.000302040               0.000000000               0.000000000               0.000000000               0.000000000               0.000320098               0.000987523               0.000000921              -0.000003404               0.000330306               0.000326902               0.000000000               0.000000000               0.000000000               0.000000000               0.000337897               0.001049799               0.000002595              -0.000004513               0.000351434               0.000346920               0.000000000               0.000000000               0.000000000               0.000000000               0.000352881               0.001108365               0.000004536              -0.000006215               0.000371523               0.000365308               0.000000000               0.000000000               0.000000000               0.000000000               0.000367683               0.001170698               0.000005543              -0.000008456               0.000393047               0.000384591               0.000000000               0.000000000               0.000000000               0.000000000               0.000384095               0.001240679               0.000005149              -0.000011049               0.000417238               0.000406189               0.000000000               0.000000000               0.000000000               0.000000000               0.000401038               0.001313603               0.000004260              -0.000013811               0.000442467               0.000428656               0.000000000               0.000000000               0.000000000               0.000000000               0.000415646               0.001380231               0.000003916              -0.000016662               0.000465626               0.000448965               0.000000000               0.000000000               0.000000000               0.000000000               0.000430419               0.001445096               0.000002403              -0.000019230               0.000488104               0.000468874               0.000000000               0.000000000               0.000000000               0.000000000               0.000437427               0.001477248               0.000000738              -0.000020621               0.000499284               0.000478664               0.000000000               0.000000000               0.000000000               0.000000000               0.000052712               0.000074048               0.000014815               0.000010511               0.000021179               0.000031690               0.000000000               0.000000000               0.000000000               0.000000000               0.000110750               0.000164018               0.000022345               0.000021029               0.000047662               0.000068691               0.000000000               0.000000000               0.000000000               0.000000000               0.000163989               0.000312405               0.000026438               0.000022445               0.000096652               0.000119097               0.000000000               0.000000000               0.000000000               0.000000000               0.000195762               0.000455485               0.000023505               0.000016475               0.000146335               0.000162810               0.000000000               0.000000000               0.000000000               0.000000000               0.000220561               0.000589920               0.000018260               0.000008970               0.000193648               0.000202618               0.000000000               0.000000000               0.000000000               0.000000000               0.000244582               0.000710563               0.000011529               0.000002898               0.000235886               0.000238784               0.000000000               0.000000000               0.000000000               0.000000000               0.000272281               0.000819451               0.000004926              -0.000000326               0.000273256               0.000272930               0.000000000               0.000000000               0.000000000               0.000000000               0.000301454               0.000913851               0.000001168              -0.000001186               0.000305009               0.000303823               0.000000000               0.000000000               0.000000000               0.000000000               0.000327328               0.000994025               0.000000193              -0.000001505               0.000331840               0.000330335               0.000000000               0.000000000               0.000000000               0.000000000               0.000348583               0.001060537               0.000000362              -0.000001849               0.000354125               0.000352276               0.000000000               0.000000000               0.000000000               0.000000000               0.000366705               0.001118380               0.000001131              -0.000002283               0.000373551               0.000371268               0.000000000               0.000000000               0.000000000               0.000000000               0.000384684               0.001176887               0.000001581              -0.000002854               0.000393243               0.000390389               0.000000000               0.000000000               0.000000000               0.000000000               0.000404694               0.001242380               0.000001396              -0.000003537               0.000415302               0.000411764               0.000000000               0.000000000               0.000000000               0.000000000               0.000426839               0.001315104               0.000000751              -0.000004324               0.000439805               0.000435481               0.000000000               0.000000000               0.000000000               0.000000000               0.000446689               0.001382493               0.000000522              -0.000005303               0.000462594               0.000457291               0.000000000               0.000000000               0.000000000               0.000000000               0.000464274               0.001444320               0.000000400              -0.000006437               0.000483581               0.000477144               0.000000000               0.000000000               0.000000000               0.000000000               0.000472561               0.001475364               0.000000025              -0.000007210               0.000494186               0.000486976               0.000000000               0.000000000               0.000000000               0.000000000               0.000000000               0.000000000               0.000000000               0.000000000               0.000000000               0.000000000               0.000000000               0.000000000               0.000000000               0.000000000               0.000000000               0.000000000               0.000000000               0.000000000               0.000000000               0.000000000               0.000000000               0.000000000               0.000000000               0.000000000               0.000000000               0.000000000               0.000000000               0.000000000               0.000000000               0.000000000               0.000000000               0.000000000               0.000000000               0.000000000               0.000000000               0.000000000               0.000000000               0.000000000               0.000000000               0.000000000               0.000000000               0.000000000               0.000000000               0.000000000               0.000000000               0.000000000               0.000000000               0.000000000               0.000000000               0.000000000               0.000000000               0.000000000               0.000000000               0.000000000               0.000000000               0.000000000               0.000000000               0.000000000               0.000000000               0.000000000               0.000000000               0.000000000               0.000000000               0.000000000               0.000000000               0.000000000               0.000000000               0.000000000               0.000000000               0.000000000               0.000000000               0.000000000               0.000000000               0.000000000               0.000000000               0.000000000               0.000000000               0.000000000               0.000000000               0.000000000               0.000000000               0.000000000               0.000000000               0.000000000               0.000000000               0.000000000               0.000000000               0.000000000               0.000000000               0.000000000               0.000000000               0.000000000               0.000000000               0.000000000               0.000000000               0.000000000               0.000000000               0.000000000               0.000000000               0.000000000               0.000000000               0.000000000               0.000000000               0.000000000               0.000000000               0.000000000               0.000000000               0.000000000               0.000000000               0.000000000               0.000000000               0.000000000               0.000000000               0.000000000               0.000000000               0.000000000               0.000000000               0.000000000               0.000000000               0.000000000               0.000000000               0.000000000               0.000000000               0.000000000               0.000000000               0.000000000               0.000000000               0.000000000               0.000000000               0.000000000               0.000000000               0.000000000               0.000000000               0.000000000               0.000000000               0.000000000               0.000000000               0.000000000               0.000000000               0.000000000               0.000000000               0.000000000               0.000000000               0.000000000               0.000000000               0.000000000               0.000000000               0.000000000               0.000000000               0.000000000               0.000000000               0.000000000               0.000000000               0.000000000               0.000000000               0.000000000               0.000000000               0.000000000               0.000000000               0.000000000               0.000000000               0.000000000               0.000000000               0.000000000               0.000000000               0.000000000               0.000000000               0.000000000               0.000000000               0.000000000               0.000000000               0.000000000               0.000000000               0.000000000 </DataArray>
</PointData>
</Piece>
</UnstructuredGrid> </VTKFile>
