<?xml version="1.0"?>
<VTKFile type="UnstructuredGrid" version="0.1">
<UnstructuredGrid>
<Piece NumberOfPoints="      1156" NumberOfCells="      1024">
<Points>
<DataArray type="Float64"                                    Name="coordinates"                                                      NumberOfComponents=" 3" format="ascii">
              0.133000000               0.000000000               0.000000000               0.155937500               0.000000000               0.000000000               0.178875000               0.000000000               0.000000000               0.201812500               0.000000000               0.000000000               0.224750000               0.000000000               0.000000000               0.247687500               0.000000000               0.000000000               0.270625000               0.000000000               0.000000000               0.293562500               0.000000000               0.000000000               0.316500000               0.000000000               0.000000000               0.339437500               0.000000000               0.000000000               0.362375000               0.000000000               0.000000000               0.385312500               0.000000000               0.000000000               0.408250000               0.000000000               0.000000000               0.431187500               0.000000000               0.000000000               0.454125000               0.000000000               0.000000000               0.477062500               0.000000000               0.000000000               0.500000000               0.000000000               0.000000000               0.132359569               0.013036280               0.000000000               0.155337096               0.016127762               0.000000000               0.178314623               0.019219245               0.000000000               0.201292150               0.022310727               0.000000000               0.224269676               0.025402210               0.000000000               0.247247203               0.028493692               0.000000000               0.270224730               0.031585175               0.000000000               0.293202257               0.034676657               0.000000000               0.316179784               0.037768140               0.000000000               0.339157311               0.040859622               0.000000000               0.362134838               0.043951105               0.000000000               0.385112365               0.047042587               0.000000000               0.408089892               0.050134070               0.000000000               0.431067419               0.053225552               0.000000000               0.454044946               0.056317035               0.000000000               0.477022473               0.059408517               0.000000000               0.500000000               0.062500000               0.000000000               0.130444442               0.025947013               0.000000000               0.153541665               0.032137825               0.000000000               0.176638887               0.038328636               0.000000000               0.199736109               0.044519448               0.000000000               0.222833332               0.050710260               0.000000000               0.245930554               0.056901071               0.000000000               0.269027776               0.063091883               0.000000000               0.292124999               0.069282695               0.000000000               0.315222221               0.075473506               0.000000000               0.338319444               0.081664318               0.000000000               0.361416666               0.087855130               0.000000000               0.384513888               0.094045942               0.000000000               0.407611111               0.100236753               0.000000000               0.430708333               0.106427565               0.000000000               0.453805555               0.112618377               0.000000000               0.476902778               0.118809188               0.000000000               0.500000000               0.125000000               0.000000000               0.127273065               0.038607862               0.000000000               0.150568498               0.047913621               0.000000000               0.173863932               0.057219379               0.000000000               0.197159365               0.066525138               0.000000000               0.220454798               0.075830897               0.000000000               0.243750232               0.085136655               0.000000000               0.267045665               0.094442414               0.000000000               0.290341099               0.103748172               0.000000000               0.313636532               0.113053931               0.000000000               0.336931966               0.122359690               0.000000000               0.360227399               0.131665448               0.000000000               0.383522833               0.140971207               0.000000000               0.406818266               0.150276966               0.000000000               0.430113700               0.159582724               0.000000000               0.453409133               0.168888483               0.000000000               0.476704567               0.178194241               0.000000000               0.500000000               0.187500000               0.000000000               0.122875978               0.050896897               0.000000000               0.146446229               0.063340840               0.000000000               0.170016481               0.075784784               0.000000000               0.193586732               0.088228728               0.000000000               0.217156983               0.100672672               0.000000000               0.240727235               0.113116616               0.000000000               0.264297486               0.125560560               0.000000000               0.287867738               0.138004504               0.000000000               0.311437989               0.150448448               0.000000000               0.335008240               0.162892392               0.000000000               0.358578492               0.175336336               0.000000000               0.382148743               0.187780280               0.000000000               0.405718994               0.200224224               0.000000000               0.429289246               0.212668168               0.000000000               0.452859497               0.225112112               0.000000000               0.476429749               0.237556056               0.000000000               0.500000000               0.250000000               0.000000000               0.117295528               0.062695766               0.000000000               0.141214558               0.078308531               0.000000000               0.165133587               0.093921295               0.000000000               0.189052617               0.109534060               0.000000000               0.212971646               0.125146824               0.000000000               0.236890676               0.140759589               0.000000000               0.260809705               0.156372354               0.000000000               0.284728735               0.171985118               0.000000000               0.308647764               0.187597883               0.000000000               0.332566794               0.203210648               0.000000000               0.356485823               0.218823412               0.000000000               0.380404853               0.234436177               0.000000000               0.404323882               0.250048941               0.000000000               0.428242912               0.265661706               0.000000000               0.452161941               0.281274471               0.000000000               0.476080971               0.296887235               0.000000000               0.500000000               0.312500000               0.000000000               0.110585458               0.073890841               0.000000000               0.134923867               0.092710163               0.000000000               0.159262276               0.111529486               0.000000000               0.183600685               0.130348808               0.000000000               0.207939094               0.149168131               0.000000000               0.232277503               0.167987453               0.000000000               0.256615912               0.186806776               0.000000000               0.280954320               0.205626098               0.000000000               0.305292729               0.224445420               0.000000000               0.329631138               0.243264743               0.000000000               0.353969547               0.262084065               0.000000000               0.378307956               0.280903388               0.000000000               0.402646365               0.299722710               0.000000000               0.426984773               0.318542033               0.000000000               0.451323182               0.337361355               0.000000000               0.475661591               0.356180678               0.000000000               0.500000000               0.375000000               0.000000000               0.102810390               0.084374307               0.000000000               0.127634741               0.106444663               0.000000000               0.152459092               0.128515018               0.000000000               0.177283442               0.150585374               0.000000000               0.202107793               0.172655730               0.000000000               0.226932143               0.194726086               0.000000000               0.251756494               0.216796442               0.000000000               0.276580845               0.238866798               0.000000000               0.301405195               0.260937153               0.000000000               0.326229546               0.283007509               0.000000000               0.351053896               0.305077865               0.000000000               0.375878247               0.327148221               0.000000000               0.400702598               0.349218577               0.000000000               0.425526948               0.371288933               0.000000000               0.450351299               0.393359288               0.000000000               0.475175649               0.415429644               0.000000000               0.500000000               0.437500000               0.000000000               0.094045202               0.094045202               0.000000000               0.119417377               0.119417377               0.000000000               0.144789552               0.144789552               0.000000000               0.170161727               0.170161727               0.000000000               0.195533901               0.195533901               0.000000000               0.220906076               0.220906076               0.000000000               0.246278251               0.246278251               0.000000000               0.271650426               0.271650426               0.000000000               0.297022601               0.297022601               0.000000000               0.322394776               0.322394776               0.000000000               0.347766951               0.347766951               0.000000000               0.373139126               0.373139126               0.000000000               0.398511300               0.398511300               0.000000000               0.423883475               0.423883475               0.000000000               0.449255650               0.449255650               0.000000000               0.474627825               0.474627825               0.000000000               0.500000000               0.500000000               0.000000000               0.084374307               0.102810390               0.000000000               0.106444663               0.127634741               0.000000000               0.128515018               0.152459092               0.000000000               0.150585374               0.177283442               0.000000000               0.172655730               0.202107793               0.000000000               0.194726086               0.226932143               0.000000000               0.216796442               0.251756494               0.000000000               0.238866798               0.276580845               0.000000000               0.260937153               0.301405195               0.000000000               0.283007509               0.326229546               0.000000000               0.305077865               0.351053896               0.000000000               0.327148221               0.375878247               0.000000000               0.349218577               0.400702598               0.000000000               0.371288933               0.425526948               0.000000000               0.393359288               0.450351299               0.000000000               0.415429644               0.475175649               0.000000000               0.437500000               0.500000000               0.000000000               0.073890841               0.110585458               0.000000000               0.092710163               0.134923867               0.000000000               0.111529486               0.159262276               0.000000000               0.130348808               0.183600685               0.000000000               0.149168131               0.207939094               0.000000000               0.167987453               0.232277503               0.000000000               0.186806776               0.256615912               0.000000000               0.205626098               0.280954320               0.000000000               0.224445420               0.305292729               0.000000000               0.243264743               0.329631138               0.000000000               0.262084065               0.353969547               0.000000000               0.280903388               0.378307956               0.000000000               0.299722710               0.402646365               0.000000000               0.318542033               0.426984773               0.000000000               0.337361355               0.451323182               0.000000000               0.356180678               0.475661591               0.000000000               0.375000000               0.500000000               0.000000000               0.062695766               0.117295528               0.000000000               0.078308531               0.141214558               0.000000000               0.093921295               0.165133587               0.000000000               0.109534060               0.189052617               0.000000000               0.125146824               0.212971646               0.000000000               0.140759589               0.236890676               0.000000000               0.156372354               0.260809705               0.000000000               0.171985118               0.284728735               0.000000000               0.187597883               0.308647764               0.000000000               0.203210648               0.332566794               0.000000000               0.218823412               0.356485823               0.000000000               0.234436177               0.380404853               0.000000000               0.250048941               0.404323882               0.000000000               0.265661706               0.428242912               0.000000000               0.281274471               0.452161941               0.000000000               0.296887235               0.476080971               0.000000000               0.312500000               0.500000000               0.000000000               0.050896897               0.122875978               0.000000000               0.063340840               0.146446229               0.000000000               0.075784784               0.170016481               0.000000000               0.088228728               0.193586732               0.000000000               0.100672672               0.217156983               0.000000000               0.113116616               0.240727235               0.000000000               0.125560560               0.264297486               0.000000000               0.138004504               0.287867738               0.000000000               0.150448448               0.311437989               0.000000000               0.162892392               0.335008240               0.000000000               0.175336336               0.358578492               0.000000000               0.187780280               0.382148743               0.000000000               0.200224224               0.405718994               0.000000000               0.212668168               0.429289246               0.000000000               0.225112112               0.452859497               0.000000000               0.237556056               0.476429749               0.000000000               0.250000000               0.500000000               0.000000000               0.038607862               0.127273065               0.000000000               0.047913621               0.150568498               0.000000000               0.057219379               0.173863932               0.000000000               0.066525138               0.197159365               0.000000000               0.075830897               0.220454798               0.000000000               0.085136655               0.243750232               0.000000000               0.094442414               0.267045665               0.000000000               0.103748172               0.290341099               0.000000000               0.113053931               0.313636532               0.000000000               0.122359690               0.336931966               0.000000000               0.131665448               0.360227399               0.000000000               0.140971207               0.383522833               0.000000000               0.150276966               0.406818266               0.000000000               0.159582724               0.430113700               0.000000000               0.168888483               0.453409133               0.000000000               0.178194241               0.476704567               0.000000000               0.187500000               0.500000000               0.000000000               0.025947013               0.130444442               0.000000000               0.032137825               0.153541665               0.000000000               0.038328636               0.176638887               0.000000000               0.044519448               0.199736109               0.000000000               0.050710260               0.222833332               0.000000000               0.056901071               0.245930554               0.000000000               0.063091883               0.269027776               0.000000000               0.069282695               0.292124999               0.000000000               0.075473506               0.315222221               0.000000000               0.081664318               0.338319444               0.000000000               0.087855130               0.361416666               0.000000000               0.094045942               0.384513888               0.000000000               0.100236753               0.407611111               0.000000000               0.106427565               0.430708333               0.000000000               0.112618377               0.453805555               0.000000000               0.118809188               0.476902778               0.000000000               0.125000000               0.500000000               0.000000000               0.013036280               0.132359569               0.000000000               0.016127762               0.155337096               0.000000000               0.019219245               0.178314623               0.000000000               0.022310727               0.201292150               0.000000000               0.025402210               0.224269676               0.000000000               0.028493692               0.247247203               0.000000000               0.031585175               0.270224730               0.000000000               0.034676657               0.293202257               0.000000000               0.037768140               0.316179784               0.000000000               0.040859622               0.339157311               0.000000000               0.043951105               0.362134838               0.000000000               0.047042587               0.385112365               0.000000000               0.050134070               0.408089892               0.000000000               0.053225552               0.431067419               0.000000000               0.056317035               0.454044946               0.000000000               0.059408517               0.477022473               0.000000000               0.062500000               0.500000000               0.000000000               0.000000000               0.133000000               0.000000000               0.000000000               0.155937500               0.000000000               0.000000000               0.178875000               0.000000000               0.000000000               0.201812500               0.000000000               0.000000000               0.224750000               0.000000000               0.000000000               0.247687500               0.000000000               0.000000000               0.270625000               0.000000000               0.000000000               0.293562500               0.000000000               0.000000000               0.316500000               0.000000000               0.000000000               0.339437500               0.000000000               0.000000000               0.362375000               0.000000000               0.000000000               0.385312500               0.000000000               0.000000000               0.408250000               0.000000000               0.000000000               0.431187500               0.000000000               0.000000000               0.454125000               0.000000000               0.000000000               0.477062500               0.000000000               0.000000000               0.500000000               0.000000000               0.133000000               0.000000000               0.000000000               0.155937500               0.000000000               0.000000000               0.178875000               0.000000000               0.000000000               0.201812500               0.000000000               0.000000000               0.224750000               0.000000000               0.000000000               0.247687500               0.000000000               0.000000000               0.270625000               0.000000000               0.000000000               0.293562500               0.000000000               0.000000000               0.316500000               0.000000000               0.000000000               0.339437500               0.000000000               0.000000000               0.362375000               0.000000000               0.000000000               0.385312500               0.000000000               0.000000000               0.408250000               0.000000000               0.000000000               0.431187500               0.000000000               0.000000000               0.454125000               0.000000000               0.000000000               0.477062500               0.000000000               0.000000000               0.500000000               0.000000000               0.000000000               0.132359569              -0.013036280               0.000000000               0.155337096              -0.016127762               0.000000000               0.178314623              -0.019219245               0.000000000               0.201292150              -0.022310727               0.000000000               0.224269676              -0.025402210               0.000000000               0.247247203              -0.028493692               0.000000000               0.270224730              -0.031585175               0.000000000               0.293202257              -0.034676657               0.000000000               0.316179784              -0.037768140               0.000000000               0.339157311              -0.040859622               0.000000000               0.362134838              -0.043951105               0.000000000               0.385112365              -0.047042587               0.000000000               0.408089892              -0.050134070               0.000000000               0.431067419              -0.053225552               0.000000000               0.454044946              -0.056317035               0.000000000               0.477022473              -0.059408517               0.000000000               0.500000000              -0.062500000               0.000000000               0.130444442              -0.025947013               0.000000000               0.153541665              -0.032137825               0.000000000               0.176638887              -0.038328636               0.000000000               0.199736109              -0.044519448               0.000000000               0.222833332              -0.050710260               0.000000000               0.245930554              -0.056901071               0.000000000               0.269027776              -0.063091883               0.000000000               0.292124999              -0.069282695               0.000000000               0.315222221              -0.075473506               0.000000000               0.338319444              -0.081664318               0.000000000               0.361416666              -0.087855130               0.000000000               0.384513888              -0.094045942               0.000000000               0.407611111              -0.100236753               0.000000000               0.430708333              -0.106427565               0.000000000               0.453805555              -0.112618377               0.000000000               0.476902778              -0.118809188               0.000000000               0.500000000              -0.125000000               0.000000000               0.127273065              -0.038607862               0.000000000               0.150568498              -0.047913621               0.000000000               0.173863932              -0.057219379               0.000000000               0.197159365              -0.066525138               0.000000000               0.220454798              -0.075830897               0.000000000               0.243750232              -0.085136655               0.000000000               0.267045665              -0.094442414               0.000000000               0.290341099              -0.103748172               0.000000000               0.313636532              -0.113053931               0.000000000               0.336931966              -0.122359690               0.000000000               0.360227399              -0.131665448               0.000000000               0.383522833              -0.140971207               0.000000000               0.406818266              -0.150276966               0.000000000               0.430113700              -0.159582724               0.000000000               0.453409133              -0.168888483               0.000000000               0.476704567              -0.178194241               0.000000000               0.500000000              -0.187500000               0.000000000               0.122875978              -0.050896897               0.000000000               0.146446229              -0.063340840               0.000000000               0.170016481              -0.075784784               0.000000000               0.193586732              -0.088228728               0.000000000               0.217156983              -0.100672672               0.000000000               0.240727235              -0.113116616               0.000000000               0.264297486              -0.125560560               0.000000000               0.287867738              -0.138004504               0.000000000               0.311437989              -0.150448448               0.000000000               0.335008240              -0.162892392               0.000000000               0.358578492              -0.175336336               0.000000000               0.382148743              -0.187780280               0.000000000               0.405718994              -0.200224224               0.000000000               0.429289246              -0.212668168               0.000000000               0.452859497              -0.225112112               0.000000000               0.476429749              -0.237556056               0.000000000               0.500000000              -0.250000000               0.000000000               0.117295528              -0.062695766               0.000000000               0.141214558              -0.078308531               0.000000000               0.165133587              -0.093921295               0.000000000               0.189052617              -0.109534060               0.000000000               0.212971646              -0.125146824               0.000000000               0.236890676              -0.140759589               0.000000000               0.260809705              -0.156372354               0.000000000               0.284728735              -0.171985118               0.000000000               0.308647764              -0.187597883               0.000000000               0.332566794              -0.203210648               0.000000000               0.356485823              -0.218823412               0.000000000               0.380404853              -0.234436177               0.000000000               0.404323882              -0.250048941               0.000000000               0.428242912              -0.265661706               0.000000000               0.452161941              -0.281274471               0.000000000               0.476080971              -0.296887235               0.000000000               0.500000000              -0.312500000               0.000000000               0.110585458              -0.073890841               0.000000000               0.134923867              -0.092710163               0.000000000               0.159262276              -0.111529486               0.000000000               0.183600685              -0.130348808               0.000000000               0.207939094              -0.149168131               0.000000000               0.232277503              -0.167987453               0.000000000               0.256615912              -0.186806776               0.000000000               0.280954320              -0.205626098               0.000000000               0.305292729              -0.224445420               0.000000000               0.329631138              -0.243264743               0.000000000               0.353969547              -0.262084065               0.000000000               0.378307956              -0.280903388               0.000000000               0.402646365              -0.299722710               0.000000000               0.426984773              -0.318542033               0.000000000               0.451323182              -0.337361355               0.000000000               0.475661591              -0.356180678               0.000000000               0.500000000              -0.375000000               0.000000000               0.102810390              -0.084374307               0.000000000               0.127634741              -0.106444663               0.000000000               0.152459092              -0.128515018               0.000000000               0.177283442              -0.150585374               0.000000000               0.202107793              -0.172655730               0.000000000               0.226932143              -0.194726086               0.000000000               0.251756494              -0.216796442               0.000000000               0.276580845              -0.238866798               0.000000000               0.301405195              -0.260937153               0.000000000               0.326229546              -0.283007509               0.000000000               0.351053896              -0.305077865               0.000000000               0.375878247              -0.327148221               0.000000000               0.400702598              -0.349218577               0.000000000               0.425526948              -0.371288933               0.000000000               0.450351299              -0.393359288               0.000000000               0.475175649              -0.415429644               0.000000000               0.500000000              -0.437500000               0.000000000               0.094045202              -0.094045202               0.000000000               0.119417377              -0.119417377               0.000000000               0.144789552              -0.144789552               0.000000000               0.170161727              -0.170161727               0.000000000               0.195533901              -0.195533901               0.000000000               0.220906076              -0.220906076               0.000000000               0.246278251              -0.246278251               0.000000000               0.271650426              -0.271650426               0.000000000               0.297022601              -0.297022601               0.000000000               0.322394776              -0.322394776               0.000000000               0.347766951              -0.347766951               0.000000000               0.373139126              -0.373139126               0.000000000               0.398511300              -0.398511300               0.000000000               0.423883475              -0.423883475               0.000000000               0.449255650              -0.449255650               0.000000000               0.474627825              -0.474627825               0.000000000               0.500000000              -0.500000000               0.000000000               0.084374307              -0.102810390               0.000000000               0.106444663              -0.127634741               0.000000000               0.128515018              -0.152459092               0.000000000               0.150585374              -0.177283442               0.000000000               0.172655730              -0.202107793               0.000000000               0.194726086              -0.226932143               0.000000000               0.216796442              -0.251756494               0.000000000               0.238866798              -0.276580845               0.000000000               0.260937153              -0.301405195               0.000000000               0.283007509              -0.326229546               0.000000000               0.305077865              -0.351053896               0.000000000               0.327148221              -0.375878247               0.000000000               0.349218577              -0.400702598               0.000000000               0.371288933              -0.425526948               0.000000000               0.393359288              -0.450351299               0.000000000               0.415429644              -0.475175649               0.000000000               0.437500000              -0.500000000               0.000000000               0.073890841              -0.110585458               0.000000000               0.092710163              -0.134923867               0.000000000               0.111529486              -0.159262276               0.000000000               0.130348808              -0.183600685               0.000000000               0.149168131              -0.207939094               0.000000000               0.167987453              -0.232277503               0.000000000               0.186806776              -0.256615912               0.000000000               0.205626098              -0.280954320               0.000000000               0.224445420              -0.305292729               0.000000000               0.243264743              -0.329631138               0.000000000               0.262084065              -0.353969547               0.000000000               0.280903388              -0.378307956               0.000000000               0.299722710              -0.402646365               0.000000000               0.318542033              -0.426984773               0.000000000               0.337361355              -0.451323182               0.000000000               0.356180678              -0.475661591               0.000000000               0.375000000              -0.500000000               0.000000000               0.062695766              -0.117295528               0.000000000               0.078308531              -0.141214558               0.000000000               0.093921295              -0.165133587               0.000000000               0.109534060              -0.189052617               0.000000000               0.125146824              -0.212971646               0.000000000               0.140759589              -0.236890676               0.000000000               0.156372354              -0.260809705               0.000000000               0.171985118              -0.284728735               0.000000000               0.187597883              -0.308647764               0.000000000               0.203210648              -0.332566794               0.000000000               0.218823412              -0.356485823               0.000000000               0.234436177              -0.380404853               0.000000000               0.250048941              -0.404323882               0.000000000               0.265661706              -0.428242912               0.000000000               0.281274471              -0.452161941               0.000000000               0.296887235              -0.476080971               0.000000000               0.312500000              -0.500000000               0.000000000               0.050896897              -0.122875978               0.000000000               0.063340840              -0.146446229               0.000000000               0.075784784              -0.170016481               0.000000000               0.088228728              -0.193586732               0.000000000               0.100672672              -0.217156983               0.000000000               0.113116616              -0.240727235               0.000000000               0.125560560              -0.264297486               0.000000000               0.138004504              -0.287867738               0.000000000               0.150448448              -0.311437989               0.000000000               0.162892392              -0.335008240               0.000000000               0.175336336              -0.358578492               0.000000000               0.187780280              -0.382148743               0.000000000               0.200224224              -0.405718994               0.000000000               0.212668168              -0.429289246               0.000000000               0.225112112              -0.452859497               0.000000000               0.237556056              -0.476429749               0.000000000               0.250000000              -0.500000000               0.000000000               0.038607862              -0.127273065               0.000000000               0.047913621              -0.150568498               0.000000000               0.057219379              -0.173863932               0.000000000               0.066525138              -0.197159365               0.000000000               0.075830897              -0.220454798               0.000000000               0.085136655              -0.243750232               0.000000000               0.094442414              -0.267045665               0.000000000               0.103748172              -0.290341099               0.000000000               0.113053931              -0.313636532               0.000000000               0.122359690              -0.336931966               0.000000000               0.131665448              -0.360227399               0.000000000               0.140971207              -0.383522833               0.000000000               0.150276966              -0.406818266               0.000000000               0.159582724              -0.430113700               0.000000000               0.168888483              -0.453409133               0.000000000               0.178194241              -0.476704567               0.000000000               0.187500000              -0.500000000               0.000000000               0.025947013              -0.130444442               0.000000000               0.032137825              -0.153541665               0.000000000               0.038328636              -0.176638887               0.000000000               0.044519448              -0.199736109               0.000000000               0.050710260              -0.222833332               0.000000000               0.056901071              -0.245930554               0.000000000               0.063091883              -0.269027776               0.000000000               0.069282695              -0.292124999               0.000000000               0.075473506              -0.315222221               0.000000000               0.081664318              -0.338319444               0.000000000               0.087855130              -0.361416666               0.000000000               0.094045942              -0.384513888               0.000000000               0.100236753              -0.407611111               0.000000000               0.106427565              -0.430708333               0.000000000               0.112618377              -0.453805555               0.000000000               0.118809188              -0.476902778               0.000000000               0.125000000              -0.500000000               0.000000000               0.013036280              -0.132359569               0.000000000               0.016127762              -0.155337096               0.000000000               0.019219245              -0.178314623               0.000000000               0.022310727              -0.201292150               0.000000000               0.025402210              -0.224269676               0.000000000               0.028493692              -0.247247203               0.000000000               0.031585175              -0.270224730               0.000000000               0.034676657              -0.293202257               0.000000000               0.037768140              -0.316179784               0.000000000               0.040859622              -0.339157311               0.000000000               0.043951105              -0.362134838               0.000000000               0.047042587              -0.385112365               0.000000000               0.050134070              -0.408089892               0.000000000               0.053225552              -0.431067419               0.000000000               0.056317035              -0.454044946               0.000000000               0.059408517              -0.477022473               0.000000000               0.062500000              -0.500000000               0.000000000               0.000000000              -0.133000000               0.000000000               0.000000000              -0.155937500               0.000000000               0.000000000              -0.178875000               0.000000000               0.000000000              -0.201812500               0.000000000               0.000000000              -0.224750000               0.000000000               0.000000000              -0.247687500               0.000000000               0.000000000              -0.270625000               0.000000000               0.000000000              -0.293562500               0.000000000               0.000000000              -0.316500000               0.000000000               0.000000000              -0.339437500               0.000000000               0.000000000              -0.362375000               0.000000000               0.000000000              -0.385312500               0.000000000               0.000000000              -0.408250000               0.000000000               0.000000000              -0.431187500               0.000000000               0.000000000              -0.454125000               0.000000000               0.000000000              -0.477062500               0.000000000               0.000000000              -0.500000000               0.000000000              -0.133000000               0.000000000               0.000000000              -0.155937500               0.000000000               0.000000000              -0.178875000               0.000000000               0.000000000              -0.201812500               0.000000000               0.000000000              -0.224750000               0.000000000               0.000000000              -0.247687500               0.000000000               0.000000000              -0.270625000               0.000000000               0.000000000              -0.293562500               0.000000000               0.000000000              -0.316500000               0.000000000               0.000000000              -0.339437500               0.000000000               0.000000000              -0.362375000               0.000000000               0.000000000              -0.385312500               0.000000000               0.000000000              -0.408250000               0.000000000               0.000000000              -0.431187500               0.000000000               0.000000000              -0.454125000               0.000000000               0.000000000              -0.477062500               0.000000000               0.000000000              -0.500000000               0.000000000               0.000000000              -0.132359569              -0.013036280               0.000000000              -0.155337096              -0.016127762               0.000000000              -0.178314623              -0.019219245               0.000000000              -0.201292150              -0.022310727               0.000000000              -0.224269676              -0.025402210               0.000000000              -0.247247203              -0.028493692               0.000000000              -0.270224730              -0.031585175               0.000000000              -0.293202257              -0.034676657               0.000000000              -0.316179784              -0.037768140               0.000000000              -0.339157311              -0.040859622               0.000000000              -0.362134838              -0.043951105               0.000000000              -0.385112365              -0.047042587               0.000000000              -0.408089892              -0.050134070               0.000000000              -0.431067419              -0.053225552               0.000000000              -0.454044946              -0.056317035               0.000000000              -0.477022473              -0.059408517               0.000000000              -0.500000000              -0.062500000               0.000000000              -0.130444442              -0.025947013               0.000000000              -0.153541665              -0.032137825               0.000000000              -0.176638887              -0.038328636               0.000000000              -0.199736109              -0.044519448               0.000000000              -0.222833332              -0.050710260               0.000000000              -0.245930554              -0.056901071               0.000000000              -0.269027776              -0.063091883               0.000000000              -0.292124999              -0.069282695               0.000000000              -0.315222221              -0.075473506               0.000000000              -0.338319444              -0.081664318               0.000000000              -0.361416666              -0.087855130               0.000000000              -0.384513888              -0.094045942               0.000000000              -0.407611111              -0.100236753               0.000000000              -0.430708333              -0.106427565               0.000000000              -0.453805555              -0.112618377               0.000000000              -0.476902778              -0.118809188               0.000000000              -0.500000000              -0.125000000               0.000000000              -0.127273065              -0.038607862               0.000000000              -0.150568498              -0.047913621               0.000000000              -0.173863932              -0.057219379               0.000000000              -0.197159365              -0.066525138               0.000000000              -0.220454798              -0.075830897               0.000000000              -0.243750232              -0.085136655               0.000000000              -0.267045665              -0.094442414               0.000000000              -0.290341099              -0.103748172               0.000000000              -0.313636532              -0.113053931               0.000000000              -0.336931966              -0.122359690               0.000000000              -0.360227399              -0.131665448               0.000000000              -0.383522833              -0.140971207               0.000000000              -0.406818266              -0.150276966               0.000000000              -0.430113700              -0.159582724               0.000000000              -0.453409133              -0.168888483               0.000000000              -0.476704567              -0.178194241               0.000000000              -0.500000000              -0.187500000               0.000000000              -0.122875978              -0.050896897               0.000000000              -0.146446229              -0.063340840               0.000000000              -0.170016481              -0.075784784               0.000000000              -0.193586732              -0.088228728               0.000000000              -0.217156983              -0.100672672               0.000000000              -0.240727235              -0.113116616               0.000000000              -0.264297486              -0.125560560               0.000000000              -0.287867738              -0.138004504               0.000000000              -0.311437989              -0.150448448               0.000000000              -0.335008240              -0.162892392               0.000000000              -0.358578492              -0.175336336               0.000000000              -0.382148743              -0.187780280               0.000000000              -0.405718994              -0.200224224               0.000000000              -0.429289246              -0.212668168               0.000000000              -0.452859497              -0.225112112               0.000000000              -0.476429749              -0.237556056               0.000000000              -0.500000000              -0.250000000               0.000000000              -0.117295528              -0.062695766               0.000000000              -0.141214558              -0.078308531               0.000000000              -0.165133587              -0.093921295               0.000000000              -0.189052617              -0.109534060               0.000000000              -0.212971646              -0.125146824               0.000000000              -0.236890676              -0.140759589               0.000000000              -0.260809705              -0.156372354               0.000000000              -0.284728735              -0.171985118               0.000000000              -0.308647764              -0.187597883               0.000000000              -0.332566794              -0.203210648               0.000000000              -0.356485823              -0.218823412               0.000000000              -0.380404853              -0.234436177               0.000000000              -0.404323882              -0.250048941               0.000000000              -0.428242912              -0.265661706               0.000000000              -0.452161941              -0.281274471               0.000000000              -0.476080971              -0.296887235               0.000000000              -0.500000000              -0.312500000               0.000000000              -0.110585458              -0.073890841               0.000000000              -0.134923867              -0.092710163               0.000000000              -0.159262276              -0.111529486               0.000000000              -0.183600685              -0.130348808               0.000000000              -0.207939094              -0.149168131               0.000000000              -0.232277503              -0.167987453               0.000000000              -0.256615912              -0.186806776               0.000000000              -0.280954320              -0.205626098               0.000000000              -0.305292729              -0.224445420               0.000000000              -0.329631138              -0.243264743               0.000000000              -0.353969547              -0.262084065               0.000000000              -0.378307956              -0.280903388               0.000000000              -0.402646365              -0.299722710               0.000000000              -0.426984773              -0.318542033               0.000000000              -0.451323182              -0.337361355               0.000000000              -0.475661591              -0.356180678               0.000000000              -0.500000000              -0.375000000               0.000000000              -0.102810390              -0.084374307               0.000000000              -0.127634741              -0.106444663               0.000000000              -0.152459092              -0.128515018               0.000000000              -0.177283442              -0.150585374               0.000000000              -0.202107793              -0.172655730               0.000000000              -0.226932143              -0.194726086               0.000000000              -0.251756494              -0.216796442               0.000000000              -0.276580845              -0.238866798               0.000000000              -0.301405195              -0.260937153               0.000000000              -0.326229546              -0.283007509               0.000000000              -0.351053896              -0.305077865               0.000000000              -0.375878247              -0.327148221               0.000000000              -0.400702598              -0.349218577               0.000000000              -0.425526948              -0.371288933               0.000000000              -0.450351299              -0.393359288               0.000000000              -0.475175649              -0.415429644               0.000000000              -0.500000000              -0.437500000               0.000000000              -0.094045202              -0.094045202               0.000000000              -0.119417377              -0.119417377               0.000000000              -0.144789552              -0.144789552               0.000000000              -0.170161727              -0.170161727               0.000000000              -0.195533901              -0.195533901               0.000000000              -0.220906076              -0.220906076               0.000000000              -0.246278251              -0.246278251               0.000000000              -0.271650426              -0.271650426               0.000000000              -0.297022601              -0.297022601               0.000000000              -0.322394776              -0.322394776               0.000000000              -0.347766951              -0.347766951               0.000000000              -0.373139126              -0.373139126               0.000000000              -0.398511300              -0.398511300               0.000000000              -0.423883475              -0.423883475               0.000000000              -0.449255650              -0.449255650               0.000000000              -0.474627825              -0.474627825               0.000000000              -0.500000000              -0.500000000               0.000000000              -0.084374307              -0.102810390               0.000000000              -0.106444663              -0.127634741               0.000000000              -0.128515018              -0.152459092               0.000000000              -0.150585374              -0.177283442               0.000000000              -0.172655730              -0.202107793               0.000000000              -0.194726086              -0.226932143               0.000000000              -0.216796442              -0.251756494               0.000000000              -0.238866798              -0.276580845               0.000000000              -0.260937153              -0.301405195               0.000000000              -0.283007509              -0.326229546               0.000000000              -0.305077865              -0.351053896               0.000000000              -0.327148221              -0.375878247               0.000000000              -0.349218577              -0.400702598               0.000000000              -0.371288933              -0.425526948               0.000000000              -0.393359288              -0.450351299               0.000000000              -0.415429644              -0.475175649               0.000000000              -0.437500000              -0.500000000               0.000000000              -0.073890841              -0.110585458               0.000000000              -0.092710163              -0.134923867               0.000000000              -0.111529486              -0.159262276               0.000000000              -0.130348808              -0.183600685               0.000000000              -0.149168131              -0.207939094               0.000000000              -0.167987453              -0.232277503               0.000000000              -0.186806776              -0.256615912               0.000000000              -0.205626098              -0.280954320               0.000000000              -0.224445420              -0.305292729               0.000000000              -0.243264743              -0.329631138               0.000000000              -0.262084065              -0.353969547               0.000000000              -0.280903388              -0.378307956               0.000000000              -0.299722710              -0.402646365               0.000000000              -0.318542033              -0.426984773               0.000000000              -0.337361355              -0.451323182               0.000000000              -0.356180678              -0.475661591               0.000000000              -0.375000000              -0.500000000               0.000000000              -0.062695766              -0.117295528               0.000000000              -0.078308531              -0.141214558               0.000000000              -0.093921295              -0.165133587               0.000000000              -0.109534060              -0.189052617               0.000000000              -0.125146824              -0.212971646               0.000000000              -0.140759589              -0.236890676               0.000000000              -0.156372354              -0.260809705               0.000000000              -0.171985118              -0.284728735               0.000000000              -0.187597883              -0.308647764               0.000000000              -0.203210648              -0.332566794               0.000000000              -0.218823412              -0.356485823               0.000000000              -0.234436177              -0.380404853               0.000000000              -0.250048941              -0.404323882               0.000000000              -0.265661706              -0.428242912               0.000000000              -0.281274471              -0.452161941               0.000000000              -0.296887235              -0.476080971               0.000000000              -0.312500000              -0.500000000               0.000000000              -0.050896897              -0.122875978               0.000000000              -0.063340840              -0.146446229               0.000000000              -0.075784784              -0.170016481               0.000000000              -0.088228728              -0.193586732               0.000000000              -0.100672672              -0.217156983               0.000000000              -0.113116616              -0.240727235               0.000000000              -0.125560560              -0.264297486               0.000000000              -0.138004504              -0.287867738               0.000000000              -0.150448448              -0.311437989               0.000000000              -0.162892392              -0.335008240               0.000000000              -0.175336336              -0.358578492               0.000000000              -0.187780280              -0.382148743               0.000000000              -0.200224224              -0.405718994               0.000000000              -0.212668168              -0.429289246               0.000000000              -0.225112112              -0.452859497               0.000000000              -0.237556056              -0.476429749               0.000000000              -0.250000000              -0.500000000               0.000000000              -0.038607862              -0.127273065               0.000000000              -0.047913621              -0.150568498               0.000000000              -0.057219379              -0.173863932               0.000000000              -0.066525138              -0.197159365               0.000000000              -0.075830897              -0.220454798               0.000000000              -0.085136655              -0.243750232               0.000000000              -0.094442414              -0.267045665               0.000000000              -0.103748172              -0.290341099               0.000000000              -0.113053931              -0.313636532               0.000000000              -0.122359690              -0.336931966               0.000000000              -0.131665448              -0.360227399               0.000000000              -0.140971207              -0.383522833               0.000000000              -0.150276966              -0.406818266               0.000000000              -0.159582724              -0.430113700               0.000000000              -0.168888483              -0.453409133               0.000000000              -0.178194241              -0.476704567               0.000000000              -0.187500000              -0.500000000               0.000000000              -0.025947013              -0.130444442               0.000000000              -0.032137825              -0.153541665               0.000000000              -0.038328636              -0.176638887               0.000000000              -0.044519448              -0.199736109               0.000000000              -0.050710260              -0.222833332               0.000000000              -0.056901071              -0.245930554               0.000000000              -0.063091883              -0.269027776               0.000000000              -0.069282695              -0.292124999               0.000000000              -0.075473506              -0.315222221               0.000000000              -0.081664318              -0.338319444               0.000000000              -0.087855130              -0.361416666               0.000000000              -0.094045942              -0.384513888               0.000000000              -0.100236753              -0.407611111               0.000000000              -0.106427565              -0.430708333               0.000000000              -0.112618377              -0.453805555               0.000000000              -0.118809188              -0.476902778               0.000000000              -0.125000000              -0.500000000               0.000000000              -0.013036280              -0.132359569               0.000000000              -0.016127762              -0.155337096               0.000000000              -0.019219245              -0.178314623               0.000000000              -0.022310727              -0.201292150               0.000000000              -0.025402210              -0.224269676               0.000000000              -0.028493692              -0.247247203               0.000000000              -0.031585175              -0.270224730               0.000000000              -0.034676657              -0.293202257               0.000000000              -0.037768140              -0.316179784               0.000000000              -0.040859622              -0.339157311               0.000000000              -0.043951105              -0.362134838               0.000000000              -0.047042587              -0.385112365               0.000000000              -0.050134070              -0.408089892               0.000000000              -0.053225552              -0.431067419               0.000000000              -0.056317035              -0.454044946               0.000000000              -0.059408517              -0.477022473               0.000000000              -0.062500000              -0.500000000               0.000000000               0.000000000              -0.133000000               0.000000000               0.000000000              -0.155937500               0.000000000               0.000000000              -0.178875000               0.000000000               0.000000000              -0.201812500               0.000000000               0.000000000              -0.224750000               0.000000000               0.000000000              -0.247687500               0.000000000               0.000000000              -0.270625000               0.000000000               0.000000000              -0.293562500               0.000000000               0.000000000              -0.316500000               0.000000000               0.000000000              -0.339437500               0.000000000               0.000000000              -0.362375000               0.000000000               0.000000000              -0.385312500               0.000000000               0.000000000              -0.408250000               0.000000000               0.000000000              -0.431187500               0.000000000               0.000000000              -0.454125000               0.000000000               0.000000000              -0.477062500               0.000000000               0.000000000              -0.500000000               0.000000000              -0.133000000               0.000000000               0.000000000              -0.155937500               0.000000000               0.000000000              -0.178875000               0.000000000               0.000000000              -0.201812500               0.000000000               0.000000000              -0.224750000               0.000000000               0.000000000              -0.247687500               0.000000000               0.000000000              -0.270625000               0.000000000               0.000000000              -0.293562500               0.000000000               0.000000000              -0.316500000               0.000000000               0.000000000              -0.339437500               0.000000000               0.000000000              -0.362375000               0.000000000               0.000000000              -0.385312500               0.000000000               0.000000000              -0.408250000               0.000000000               0.000000000              -0.431187500               0.000000000               0.000000000              -0.454125000               0.000000000               0.000000000              -0.477062500               0.000000000               0.000000000              -0.500000000               0.000000000               0.000000000              -0.132359569               0.013036280               0.000000000              -0.155337096               0.016127762               0.000000000              -0.178314623               0.019219245               0.000000000              -0.201292150               0.022310727               0.000000000              -0.224269676               0.025402210               0.000000000              -0.247247203               0.028493692               0.000000000              -0.270224730               0.031585175               0.000000000              -0.293202257               0.034676657               0.000000000              -0.316179784               0.037768140               0.000000000              -0.339157311               0.040859622               0.000000000              -0.362134838               0.043951105               0.000000000              -0.385112365               0.047042587               0.000000000              -0.408089892               0.050134070               0.000000000              -0.431067419               0.053225552               0.000000000              -0.454044946               0.056317035               0.000000000              -0.477022473               0.059408517               0.000000000              -0.500000000               0.062500000               0.000000000              -0.130444442               0.025947013               0.000000000              -0.153541665               0.032137825               0.000000000              -0.176638887               0.038328636               0.000000000              -0.199736109               0.044519448               0.000000000              -0.222833332               0.050710260               0.000000000              -0.245930554               0.056901071               0.000000000              -0.269027776               0.063091883               0.000000000              -0.292124999               0.069282695               0.000000000              -0.315222221               0.075473506               0.000000000              -0.338319444               0.081664318               0.000000000              -0.361416666               0.087855130               0.000000000              -0.384513888               0.094045942               0.000000000              -0.407611111               0.100236753               0.000000000              -0.430708333               0.106427565               0.000000000              -0.453805555               0.112618377               0.000000000              -0.476902778               0.118809188               0.000000000              -0.500000000               0.125000000               0.000000000              -0.127273065               0.038607862               0.000000000              -0.150568498               0.047913621               0.000000000              -0.173863932               0.057219379               0.000000000              -0.197159365               0.066525138               0.000000000              -0.220454798               0.075830897               0.000000000              -0.243750232               0.085136655               0.000000000              -0.267045665               0.094442414               0.000000000              -0.290341099               0.103748172               0.000000000              -0.313636532               0.113053931               0.000000000              -0.336931966               0.122359690               0.000000000              -0.360227399               0.131665448               0.000000000              -0.383522833               0.140971207               0.000000000              -0.406818266               0.150276966               0.000000000              -0.430113700               0.159582724               0.000000000              -0.453409133               0.168888483               0.000000000              -0.476704567               0.178194241               0.000000000              -0.500000000               0.187500000               0.000000000              -0.122875978               0.050896897               0.000000000              -0.146446229               0.063340840               0.000000000              -0.170016481               0.075784784               0.000000000              -0.193586732               0.088228728               0.000000000              -0.217156983               0.100672672               0.000000000              -0.240727235               0.113116616               0.000000000              -0.264297486               0.125560560               0.000000000              -0.287867738               0.138004504               0.000000000              -0.311437989               0.150448448               0.000000000              -0.335008240               0.162892392               0.000000000              -0.358578492               0.175336336               0.000000000              -0.382148743               0.187780280               0.000000000              -0.405718994               0.200224224               0.000000000              -0.429289246               0.212668168               0.000000000              -0.452859497               0.225112112               0.000000000              -0.476429749               0.237556056               0.000000000              -0.500000000               0.250000000               0.000000000              -0.117295528               0.062695766               0.000000000              -0.141214558               0.078308531               0.000000000              -0.165133587               0.093921295               0.000000000              -0.189052617               0.109534060               0.000000000              -0.212971646               0.125146824               0.000000000              -0.236890676               0.140759589               0.000000000              -0.260809705               0.156372354               0.000000000              -0.284728735               0.171985118               0.000000000              -0.308647764               0.187597883               0.000000000              -0.332566794               0.203210648               0.000000000              -0.356485823               0.218823412               0.000000000              -0.380404853               0.234436177               0.000000000              -0.404323882               0.250048941               0.000000000              -0.428242912               0.265661706               0.000000000              -0.452161941               0.281274471               0.000000000              -0.476080971               0.296887235               0.000000000              -0.500000000               0.312500000               0.000000000              -0.110585458               0.073890841               0.000000000              -0.134923867               0.092710163               0.000000000              -0.159262276               0.111529486               0.000000000              -0.183600685               0.130348808               0.000000000              -0.207939094               0.149168131               0.000000000              -0.232277503               0.167987453               0.000000000              -0.256615912               0.186806776               0.000000000              -0.280954320               0.205626098               0.000000000              -0.305292729               0.224445420               0.000000000              -0.329631138               0.243264743               0.000000000              -0.353969547               0.262084065               0.000000000              -0.378307956               0.280903388               0.000000000              -0.402646365               0.299722710               0.000000000              -0.426984773               0.318542033               0.000000000              -0.451323182               0.337361355               0.000000000              -0.475661591               0.356180678               0.000000000              -0.500000000               0.375000000               0.000000000              -0.102810390               0.084374307               0.000000000              -0.127634741               0.106444663               0.000000000              -0.152459092               0.128515018               0.000000000              -0.177283442               0.150585374               0.000000000              -0.202107793               0.172655730               0.000000000              -0.226932143               0.194726086               0.000000000              -0.251756494               0.216796442               0.000000000              -0.276580845               0.238866798               0.000000000              -0.301405195               0.260937153               0.000000000              -0.326229546               0.283007509               0.000000000              -0.351053896               0.305077865               0.000000000              -0.375878247               0.327148221               0.000000000              -0.400702598               0.349218577               0.000000000              -0.425526948               0.371288933               0.000000000              -0.450351299               0.393359288               0.000000000              -0.475175649               0.415429644               0.000000000              -0.500000000               0.437500000               0.000000000              -0.094045202               0.094045202               0.000000000              -0.119417377               0.119417377               0.000000000              -0.144789552               0.144789552               0.000000000              -0.170161727               0.170161727               0.000000000              -0.195533901               0.195533901               0.000000000              -0.220906076               0.220906076               0.000000000              -0.246278251               0.246278251               0.000000000              -0.271650426               0.271650426               0.000000000              -0.297022601               0.297022601               0.000000000              -0.322394776               0.322394776               0.000000000              -0.347766951               0.347766951               0.000000000              -0.373139126               0.373139126               0.000000000              -0.398511300               0.398511300               0.000000000              -0.423883475               0.423883475               0.000000000              -0.449255650               0.449255650               0.000000000              -0.474627825               0.474627825               0.000000000              -0.500000000               0.500000000               0.000000000              -0.084374307               0.102810390               0.000000000              -0.106444663               0.127634741               0.000000000              -0.128515018               0.152459092               0.000000000              -0.150585374               0.177283442               0.000000000              -0.172655730               0.202107793               0.000000000              -0.194726086               0.226932143               0.000000000              -0.216796442               0.251756494               0.000000000              -0.238866798               0.276580845               0.000000000              -0.260937153               0.301405195               0.000000000              -0.283007509               0.326229546               0.000000000              -0.305077865               0.351053896               0.000000000              -0.327148221               0.375878247               0.000000000              -0.349218577               0.400702598               0.000000000              -0.371288933               0.425526948               0.000000000              -0.393359288               0.450351299               0.000000000              -0.415429644               0.475175649               0.000000000              -0.437500000               0.500000000               0.000000000              -0.073890841               0.110585458               0.000000000              -0.092710163               0.134923867               0.000000000              -0.111529486               0.159262276               0.000000000              -0.130348808               0.183600685               0.000000000              -0.149168131               0.207939094               0.000000000              -0.167987453               0.232277503               0.000000000              -0.186806776               0.256615912               0.000000000              -0.205626098               0.280954320               0.000000000              -0.224445420               0.305292729               0.000000000              -0.243264743               0.329631138               0.000000000              -0.262084065               0.353969547               0.000000000              -0.280903388               0.378307956               0.000000000              -0.299722710               0.402646365               0.000000000              -0.318542033               0.426984773               0.000000000              -0.337361355               0.451323182               0.000000000              -0.356180678               0.475661591               0.000000000              -0.375000000               0.500000000               0.000000000              -0.062695766               0.117295528               0.000000000              -0.078308531               0.141214558               0.000000000              -0.093921295               0.165133587               0.000000000              -0.109534060               0.189052617               0.000000000              -0.125146824               0.212971646               0.000000000              -0.140759589               0.236890676               0.000000000              -0.156372354               0.260809705               0.000000000              -0.171985118               0.284728735               0.000000000              -0.187597883               0.308647764               0.000000000              -0.203210648               0.332566794               0.000000000              -0.218823412               0.356485823               0.000000000              -0.234436177               0.380404853               0.000000000              -0.250048941               0.404323882               0.000000000              -0.265661706               0.428242912               0.000000000              -0.281274471               0.452161941               0.000000000              -0.296887235               0.476080971               0.000000000              -0.312500000               0.500000000               0.000000000              -0.050896897               0.122875978               0.000000000              -0.063340840               0.146446229               0.000000000              -0.075784784               0.170016481               0.000000000              -0.088228728               0.193586732               0.000000000              -0.100672672               0.217156983               0.000000000              -0.113116616               0.240727235               0.000000000              -0.125560560               0.264297486               0.000000000              -0.138004504               0.287867738               0.000000000              -0.150448448               0.311437989               0.000000000              -0.162892392               0.335008240               0.000000000              -0.175336336               0.358578492               0.000000000              -0.187780280               0.382148743               0.000000000              -0.200224224               0.405718994               0.000000000              -0.212668168               0.429289246               0.000000000              -0.225112112               0.452859497               0.000000000              -0.237556056               0.476429749               0.000000000              -0.250000000               0.500000000               0.000000000              -0.038607862               0.127273065               0.000000000              -0.047913621               0.150568498               0.000000000              -0.057219379               0.173863932               0.000000000              -0.066525138               0.197159365               0.000000000              -0.075830897               0.220454798               0.000000000              -0.085136655               0.243750232               0.000000000              -0.094442414               0.267045665               0.000000000              -0.103748172               0.290341099               0.000000000              -0.113053931               0.313636532               0.000000000              -0.122359690               0.336931966               0.000000000              -0.131665448               0.360227399               0.000000000              -0.140971207               0.383522833               0.000000000              -0.150276966               0.406818266               0.000000000              -0.159582724               0.430113700               0.000000000              -0.168888483               0.453409133               0.000000000              -0.178194241               0.476704567               0.000000000              -0.187500000               0.500000000               0.000000000              -0.025947013               0.130444442               0.000000000              -0.032137825               0.153541665               0.000000000              -0.038328636               0.176638887               0.000000000              -0.044519448               0.199736109               0.000000000              -0.050710260               0.222833332               0.000000000              -0.056901071               0.245930554               0.000000000              -0.063091883               0.269027776               0.000000000              -0.069282695               0.292124999               0.000000000              -0.075473506               0.315222221               0.000000000              -0.081664318               0.338319444               0.000000000              -0.087855130               0.361416666               0.000000000              -0.094045942               0.384513888               0.000000000              -0.100236753               0.407611111               0.000000000              -0.106427565               0.430708333               0.000000000              -0.112618377               0.453805555               0.000000000              -0.118809188               0.476902778               0.000000000              -0.125000000               0.500000000               0.000000000              -0.013036280               0.132359569               0.000000000              -0.016127762               0.155337096               0.000000000              -0.019219245               0.178314623               0.000000000              -0.022310727               0.201292150               0.000000000              -0.025402210               0.224269676               0.000000000              -0.028493692               0.247247203               0.000000000              -0.031585175               0.270224730               0.000000000              -0.034676657               0.293202257               0.000000000              -0.037768140               0.316179784               0.000000000              -0.040859622               0.339157311               0.000000000              -0.043951105               0.362134838               0.000000000              -0.047042587               0.385112365               0.000000000              -0.050134070               0.408089892               0.000000000              -0.053225552               0.431067419               0.000000000              -0.056317035               0.454044946               0.000000000              -0.059408517               0.477022473               0.000000000              -0.062500000               0.500000000               0.000000000               0.000000000               0.133000000               0.000000000               0.000000000               0.155937500               0.000000000               0.000000000               0.178875000               0.000000000               0.000000000               0.201812500               0.000000000               0.000000000               0.224750000               0.000000000               0.000000000               0.247687500               0.000000000               0.000000000               0.270625000               0.000000000               0.000000000               0.293562500               0.000000000               0.000000000               0.316500000               0.000000000               0.000000000               0.339437500               0.000000000               0.000000000               0.362375000               0.000000000               0.000000000               0.385312500               0.000000000               0.000000000               0.408250000               0.000000000               0.000000000               0.431187500               0.000000000               0.000000000               0.454125000               0.000000000               0.000000000               0.477062500               0.000000000               0.000000000               0.500000000               0.000000000 </DataArray>
</Points>
<Cells>
<DataArray type="Int32"                                    Name="connectivity"                                                      NumberOfComponents=" 1" format="ascii">
         0          1         18         17          1          2         19         18          2          3         20         19          3          4         21         20          4          5         22         21          5          6         23         22          6          7         24         23          7          8         25         24          8          9         26         25          9         10         27         26         10         11         28         27         11         12         29         28         12         13         30         29         13         14         31         30         14         15         32         31         15         16         33         32         17         18         35         34         18         19         36         35         19         20         37         36         20         21         38         37         21         22         39         38         22         23         40         39         23         24         41         40         24         25         42         41         25         26         43         42         26         27         44         43         27         28         45         44         28         29         46         45         29         30         47         46         30         31         48         47         31         32         49         48         32         33         50         49         34         35         52         51         35         36         53         52         36         37         54         53         37         38         55         54         38         39         56         55         39         40         57         56         40         41         58         57         41         42         59         58         42         43         60         59         43         44         61         60         44         45         62         61         45         46         63         62         46         47         64         63         47         48         65         64         48         49         66         65         49         50         67         66         51         52         69         68         52         53         70         69         53         54         71         70         54         55         72         71         55         56         73         72         56         57         74         73         57         58         75         74         58         59         76         75         59         60         77         76         60         61         78         77         61         62         79         78         62         63         80         79         63         64         81         80         64         65         82         81         65         66         83         82         66         67         84         83         68         69         86         85         69         70         87         86         70         71         88         87         71         72         89         88         72         73         90         89         73         74         91         90         74         75         92         91         75         76         93         92         76         77         94         93         77         78         95         94         78         79         96         95         79         80         97         96         80         81         98         97         81         82         99         98         82         83        100         99         83         84        101        100         85         86        103        102         86         87        104        103         87         88        105        104         88         89        106        105         89         90        107        106         90         91        108        107         91         92        109        108         92         93        110        109         93         94        111        110         94         95        112        111         95         96        113        112         96         97        114        113         97         98        115        114         98         99        116        115         99        100        117        116        100        101        118        117        102        103        120        119        103        104        121        120        104        105        122        121        105        106        123        122        106        107        124        123        107        108        125        124        108        109        126        125        109        110        127        126        110        111        128        127        111        112        129        128        112        113        130        129        113        114        131        130        114        115        132        131        115        116        133        132        116        117        134        133        117        118        135        134        119        120        137        136        120        121        138        137        121        122        139        138        122        123        140        139        123        124        141        140        124        125        142        141        125        126        143        142        126        127        144        143        127        128        145        144        128        129        146        145        129        130        147        146        130        131        148        147        131        132        149        148        132        133        150        149        133        134        151        150        134        135        152        151        136        137        154        153        137        138        155        154        138        139        156        155        139        140        157        156        140        141        158        157        141        142        159        158        142        143        160        159        143        144        161        160        144        145        162        161        145        146        163        162        146        147        164        163        147        148        165        164        148        149        166        165        149        150        167        166        150        151        168        167        151        152        169        168        153        154        171        170        154        155        172        171        155        156        173        172        156        157        174        173        157        158        175        174        158        159        176        175        159        160        177        176        160        161        178        177        161        162        179        178        162        163        180        179        163        164        181        180        164        165        182        181        165        166        183        182        166        167        184        183        167        168        185        184        168        169        186        185        170        171        188        187        171        172        189        188        172        173        190        189        173        174        191        190        174        175        192        191        175        176        193        192        176        177        194        193        177        178        195        194        178        179        196        195        179        180        197        196        180        181        198        197        181        182        199        198        182        183        200        199        183        184        201        200        184        185        202        201        185        186        203        202        187        188        205        204        188        189        206        205        189        190        207        206        190        191        208        207        191        192        209        208        192        193        210        209        193        194        211        210        194        195        212        211        195        196        213        212        196        197        214        213        197        198        215        214        198        199        216        215        199        200        217        216        200        201        218        217        201        202        219        218        202        203        220        219        204        205        222        221        205        206        223        222        206        207        224        223        207        208        225        224        208        209        226        225        209        210        227        226        210        211        228        227        211        212        229        228        212        213        230        229        213        214        231        230        214        215        232        231        215        216        233        232        216        217        234        233        217        218        235        234        218        219        236        235        219        220        237        236        221        222        239        238        222        223        240        239        223        224        241        240        224        225        242        241        225        226        243        242        226        227        244        243        227        228        245        244        228        229        246        245        229        230        247        246        230        231        248        247        231        232        249        248        232        233        250        249        233        234        251        250        234        235        252        251        235        236        253        252        236        237        254        253        238        239        256        255        239        240        257        256        240        241        258        257        241        242        259        258        242        243        260        259        243        244        261        260        244        245        262        261        245        246        263        262        246        247        264        263        247        248        265        264        248        249        266        265        249        250        267        266        250        251        268        267        251        252        269        268        252        253        270        269        253        254        271        270        255        256        273        272        256        257        274        273        257        258        275        274        258        259        276        275        259        260        277        276        260        261        278        277        261        262        279        278        262        263        280        279        263        264        281        280        264        265        282        281        265        266        283        282        266        267        284        283        267        268        285        284        268        269        286        285        269        270        287        286        270        271        288        287        306        307          1          0        307        308          2          1        308        309          3          2        309        310          4          3        310        311          5          4        311        312          6          5        312        313          7          6        313        314          8          7        314        315          9          8        315        316         10          9        316        317         11         10        317        318         12         11        318        319         13         12        319        320         14         13        320        321         15         14        321        322         16         15        323        324        307        306        324        325        308        307        325        326        309        308        326        327        310        309        327        328        311        310        328        329        312        311        329        330        313        312        330        331        314        313        331        332        315        314        332        333        316        315        333        334        317        316        334        335        318        317        335        336        319        318        336        337        320        319        337        338        321        320        338        339        322        321        340        341        324        323        341        342        325        324        342        343        326        325        343        344        327        326        344        345        328        327        345        346        329        328        346        347        330        329        347        348        331        330        348        349        332        331        349        350        333        332        350        351        334        333        351        352        335        334        352        353        336        335        353        354        337        336        354        355        338        337        355        356        339        338        357        358        341        340        358        359        342        341        359        360        343        342        360        361        344        343        361        362        345        344        362        363        346        345        363        364        347        346        364        365        348        347        365        366        349        348        366        367        350        349        367        368        351        350        368        369        352        351        369        370        353        352        370        371        354        353        371        372        355        354        372        373        356        355        374        375        358        357        375        376        359        358        376        377        360        359        377        378        361        360        378        379        362        361        379        380        363        362        380        381        364        363        381        382        365        364        382        383        366        365        383        384        367        366        384        385        368        367        385        386        369        368        386        387        370        369        387        388        371        370        388        389        372        371        389        390        373        372        391        392        375        374        392        393        376        375        393        394        377        376        394        395        378        377        395        396        379        378        396        397        380        379        397        398        381        380        398        399        382        381        399        400        383        382        400        401        384        383        401        402        385        384        402        403        386        385        403        404        387        386        404        405        388        387        405        406        389        388        406        407        390        389        408        409        392        391        409        410        393        392        410        411        394        393        411        412        395        394        412        413        396        395        413        414        397        396        414        415        398        397        415        416        399        398        416        417        400        399        417        418        401        400        418        419        402        401        419        420        403        402        420        421        404        403        421        422        405        404        422        423        406        405        423        424        407        406        425        426        409        408        426        427        410        409        427        428        411        410        428        429        412        411        429        430        413        412        430        431        414        413        431        432        415        414        432        433        416        415        433        434        417        416        434        435        418        417        435        436        419        418        436        437        420        419        437        438        421        420        438        439        422        421        439        440        423        422        440        441        424        423        442        443        426        425        443        444        427        426        444        445        428        427        445        446        429        428        446        447        430        429        447        448        431        430        448        449        432        431        449        450        433        432        450        451        434        433        451        452        435        434        452        453        436        435        453        454        437        436        454        455        438        437        455        456        439        438        456        457        440        439        457        458        441        440        459        460        443        442        460        461        444        443        461        462        445        444        462        463        446        445        463        464        447        446        464        465        448        447        465        466        449        448        466        467        450        449        467        468        451        450        468        469        452        451        469        470        453        452        470        471        454        453        471        472        455        454        472        473        456        455        473        474        457        456        474        475        458        457        476        477        460        459        477        478        461        460        478        479        462        461        479        480        463        462        480        481        464        463        481        482        465        464        482        483        466        465        483        484        467        466        484        485        468        467        485        486        469        468        486        487        470        469        487        488        471        470        488        489        472        471        489        490        473        472        490        491        474        473        491        492        475        474        493        494        477        476        494        495        478        477        495        496        479        478        496        497        480        479        497        498        481        480        498        499        482        481        499        500        483        482        500        501        484        483        501        502        485        484        502        503        486        485        503        504        487        486        504        505        488        487        505        506        489        488        506        507        490        489        507        508        491        490        508        509        492        491        510        511        494        493        511        512        495        494        512        513        496        495        513        514        497        496        514        515        498        497        515        516        499        498        516        517        500        499        517        518        501        500        518        519        502        501        519        520        503        502        520        521        504        503        521        522        505        504        522        523        506        505        523        524        507        506        524        525        508        507        525        526        509        508        527        528        511        510        528        529        512        511        529        530        513        512        530        531        514        513        531        532        515        514        532        533        516        515        533        534        517        516        534        535        518        517        535        536        519        518        536        537        520        519        537        538        521        520        538        539        522        521        539        540        523        522        540        541        524        523        541        542        525        524        542        543        526        525        544        545        528        527        545        546        529        528        546        547        530        529        547        548        531        530        548        549        532        531        549        550        533        532        550        551        534        533        551        552        535        534        552        553        536        535        553        554        537        536        554        555        538        537        555        556        539        538        556        557        540        539        557        558        541        540        558        559        542        541        559        560        543        542        561        562        545        544        562        563        546        545        563        564        547        546        564        565        548        547        565        566        549        548        566        567        550        549        567        568        551        550        568        569        552        551        569        570        553        552        570        571        554        553        571        572        555        554        572        573        556        555        573        574        557        556        574        575        558        557        575        576        559        558        576        577        560        559        578        579        596        595        579        580        597        596        580        581        598        597        581        582        599        598        582        583        600        599        583        584        601        600        584        585        602        601        585        586        603        602        586        587        604        603        587        588        605        604        588        589        606        605        589        590        607        606        590        591        608        607        591        592        609        608        592        593        610        609        593        594        611        610        595        596        613        612        596        597        614        613        597        598        615        614        598        599        616        615        599        600        617        616        600        601        618        617        601        602        619        618        602        603        620        619        603        604        621        620        604        605        622        621        605        606        623        622        606        607        624        623        607        608        625        624        608        609        626        625        609        610        627        626        610        611        628        627        612        613        630        629        613        614        631        630        614        615        632        631        615        616        633        632        616        617        634        633        617        618        635        634        618        619        636        635        619        620        637        636        620        621        638        637        621        622        639        638        622        623        640        639        623        624        641        640        624        625        642        641        625        626        643        642        626        627        644        643        627        628        645        644        629        630        647        646        630        631        648        647        631        632        649        648        632        633        650        649        633        634        651        650        634        635        652        651        635        636        653        652        636        637        654        653        637        638        655        654        638        639        656        655        639        640        657        656        640        641        658        657        641        642        659        658        642        643        660        659        643        644        661        660        644        645        662        661        646        647        664        663        647        648        665        664        648        649        666        665        649        650        667        666        650        651        668        667        651        652        669        668        652        653        670        669        653        654        671        670        654        655        672        671        655        656        673        672        656        657        674        673        657        658        675        674        658        659        676        675        659        660        677        676        660        661        678        677        661        662        679        678        663        664        681        680        664        665        682        681        665        666        683        682        666        667        684        683        667        668        685        684        668        669        686        685        669        670        687        686        670        671        688        687        671        672        689        688        672        673        690        689        673        674        691        690        674        675        692        691        675        676        693        692        676        677        694        693        677        678        695        694        678        679        696        695        680        681        698        697        681        682        699        698        682        683        700        699        683        684        701        700        684        685        702        701        685        686        703        702        686        687        704        703        687        688        705        704        688        689        706        705        689        690        707        706        690        691        708        707        691        692        709        708        692        693        710        709        693        694        711        710        694        695        712        711        695        696        713        712        697        698        715        714        698        699        716        715        699        700        717        716        700        701        718        717        701        702        719        718        702        703        720        719        703        704        721        720        704        705        722        721        705        706        723        722        706        707        724        723        707        708        725        724        708        709        726        725        709        710        727        726        710        711        728        727        711        712        729        728        712        713        730        729        714        715        732        731        715        716        733        732        716        717        734        733        717        718        735        734        718        719        736        735        719        720        737        736        720        721        738        737        721        722        739        738        722        723        740        739        723        724        741        740        724        725        742        741        725        726        743        742        726        727        744        743        727        728        745        744        728        729        746        745        729        730        747        746        731        732        749        748        732        733        750        749        733        734        751        750        734        735        752        751        735        736        753        752        736        737        754        753        737        738        755        754        738        739        756        755        739        740        757        756        740        741        758        757        741        742        759        758        742        743        760        759        743        744        761        760        744        745        762        761        745        746        763        762        746        747        764        763        748        749        766        765        749        750        767        766        750        751        768        767        751        752        769        768        752        753        770        769        753        754        771        770        754        755        772        771        755        756        773        772        756        757        774        773        757        758        775        774        758        759        776        775        759        760        777        776        760        761        778        777        761        762        779        778        762        763        780        779        763        764        781        780        765        766        783        782        766        767        784        783        767        768        785        784        768        769        786        785        769        770        787        786        770        771        788        787        771        772        789        788        772        773        790        789        773        774        791        790        774        775        792        791        775        776        793        792        776        777        794        793        777        778        795        794        778        779        796        795        779        780        797        796        780        781        798        797        782        783        800        799        783        784        801        800        784        785        802        801        785        786        803        802        786        787        804        803        787        788        805        804        788        789        806        805        789        790        807        806        790        791        808        807        791        792        809        808        792        793        810        809        793        794        811        810        794        795        812        811        795        796        813        812        796        797        814        813        797        798        815        814        799        800        817        816        800        801        818        817        801        802        819        818        802        803        820        819        803        804        821        820        804        805        822        821        805        806        823        822        806        807        824        823        807        808        825        824        808        809        826        825        809        810        827        826        810        811        828        827        811        812        829        828        812        813        830        829        813        814        831        830        814        815        832        831        816        817        834        833        817        818        835        834        818        819        836        835        819        820        837        836        820        821        838        837        821        822        839        838        822        823        840        839        823        824        841        840        824        825        842        841        825        826        843        842        826        827        844        843        827        828        845        844        828        829        846        845        829        830        847        846        830        831        848        847        831        832        849        848        833        834        562        561        834        835        563        562        835        836        564        563        836        837        565        564        837        838        566        565        838        839        567        566        839        840        568        567        840        841        569        568        841        842        570        569        842        843        571        570        843        844        572        571        844        845        573        572        845        846        574        573        846        847        575        574        847        848        576        575        848        849        577        576        884        885        579        578        885        886        580        579        886        887        581        580        887        888        582        581        888        889        583        582        889        890        584        583        890        891        585        584        891        892        586        585        892        893        587        586        893        894        588        587        894        895        589        588        895        896        590        589        896        897        591        590        897        898        592        591        898        899        593        592        899        900        594        593        901        902        885        884        902        903        886        885        903        904        887        886        904        905        888        887        905        906        889        888        906        907        890        889        907        908        891        890        908        909        892        891        909        910        893        892        910        911        894        893        911        912        895        894        912        913        896        895        913        914        897        896        914        915        898        897        915        916        899        898        916        917        900        899        918        919        902        901        919        920        903        902        920        921        904        903        921        922        905        904        922        923        906        905        923        924        907        906        924        925        908        907        925        926        909        908        926        927        910        909        927        928        911        910        928        929        912        911        929        930        913        912        930        931        914        913        931        932        915        914        932        933        916        915        933        934        917        916        935        936        919        918        936        937        920        919        937        938        921        920        938        939        922        921        939        940        923        922        940        941        924        923        941        942        925        924        942        943        926        925        943        944        927        926        944        945        928        927        945        946        929        928        946        947        930        929        947        948        931        930        948        949        932        931        949        950        933        932        950        951        934        933        952        953        936        935        953        954        937        936        954        955        938        937        955        956        939        938        956        957        940        939        957        958        941        940        958        959        942        941        959        960        943        942        960        961        944        943        961        962        945        944        962        963        946        945        963        964        947        946        964        965        948        947        965        966        949        948        966        967        950        949        967        968        951        950        969        970        953        952        970        971        954        953        971        972        955        954        972        973        956        955        973        974        957        956        974        975        958        957        975        976        959        958        976        977        960        959        977        978        961        960        978        979        962        961        979        980        963        962        980        981        964        963        981        982        965        964        982        983        966        965        983        984        967        966        984        985        968        967        986        987        970        969        987        988        971        970        988        989        972        971        989        990        973        972        990        991        974        973        991        992        975        974        992        993        976        975        993        994        977        976        994        995        978        977        995        996        979        978        996        997        980        979        997        998        981        980        998        999        982        981        999       1000        983        982       1000       1001        984        983       1001       1002        985        984       1003       1004        987        986       1004       1005        988        987       1005       1006        989        988       1006       1007        990        989       1007       1008        991        990       1008       1009        992        991       1009       1010        993        992       1010       1011        994        993       1011       1012        995        994       1012       1013        996        995       1013       1014        997        996       1014       1015        998        997       1015       1016        999        998       1016       1017       1000        999       1017       1018       1001       1000       1018       1019       1002       1001       1020       1021       1004       1003       1021       1022       1005       1004       1022       1023       1006       1005       1023       1024       1007       1006       1024       1025       1008       1007       1025       1026       1009       1008       1026       1027       1010       1009       1027       1028       1011       1010       1028       1029       1012       1011       1029       1030       1013       1012       1030       1031       1014       1013       1031       1032       1015       1014       1032       1033       1016       1015       1033       1034       1017       1016       1034       1035       1018       1017       1035       1036       1019       1018       1037       1038       1021       1020       1038       1039       1022       1021       1039       1040       1023       1022       1040       1041       1024       1023       1041       1042       1025       1024       1042       1043       1026       1025       1043       1044       1027       1026       1044       1045       1028       1027       1045       1046       1029       1028       1046       1047       1030       1029       1047       1048       1031       1030       1048       1049       1032       1031       1049       1050       1033       1032       1050       1051       1034       1033       1051       1052       1035       1034       1052       1053       1036       1035       1054       1055       1038       1037       1055       1056       1039       1038       1056       1057       1040       1039       1057       1058       1041       1040       1058       1059       1042       1041       1059       1060       1043       1042       1060       1061       1044       1043       1061       1062       1045       1044       1062       1063       1046       1045       1063       1064       1047       1046       1064       1065       1048       1047       1065       1066       1049       1048       1066       1067       1050       1049       1067       1068       1051       1050       1068       1069       1052       1051       1069       1070       1053       1052       1071       1072       1055       1054       1072       1073       1056       1055       1073       1074       1057       1056       1074       1075       1058       1057       1075       1076       1059       1058       1076       1077       1060       1059       1077       1078       1061       1060       1078       1079       1062       1061       1079       1080       1063       1062       1080       1081       1064       1063       1081       1082       1065       1064       1082       1083       1066       1065       1083       1084       1067       1066       1084       1085       1068       1067       1085       1086       1069       1068       1086       1087       1070       1069       1088       1089       1072       1071       1089       1090       1073       1072       1090       1091       1074       1073       1091       1092       1075       1074       1092       1093       1076       1075       1093       1094       1077       1076       1094       1095       1078       1077       1095       1096       1079       1078       1096       1097       1080       1079       1097       1098       1081       1080       1098       1099       1082       1081       1099       1100       1083       1082       1100       1101       1084       1083       1101       1102       1085       1084       1102       1103       1086       1085       1103       1104       1087       1086       1105       1106       1089       1088       1106       1107       1090       1089       1107       1108       1091       1090       1108       1109       1092       1091       1109       1110       1093       1092       1110       1111       1094       1093       1111       1112       1095       1094       1112       1113       1096       1095       1113       1114       1097       1096       1114       1115       1098       1097       1115       1116       1099       1098       1116       1117       1100       1099       1117       1118       1101       1100       1118       1119       1102       1101       1119       1120       1103       1102       1120       1121       1104       1103       1122       1123       1106       1105       1123       1124       1107       1106       1124       1125       1108       1107       1125       1126       1109       1108       1126       1127       1110       1109       1127       1128       1111       1110       1128       1129       1112       1111       1129       1130       1113       1112       1130       1131       1114       1113       1131       1132       1115       1114       1132       1133       1116       1115       1133       1134       1117       1116       1134       1135       1118       1117       1135       1136       1119       1118       1136       1137       1120       1119       1137       1138       1121       1120        272        273       1123       1122        273        274       1124       1123        274        275       1125       1124        275        276       1126       1125        276        277       1127       1126        277        278       1128       1127        278        279       1129       1128        279        280       1130       1129        280        281       1131       1130        281        282       1132       1131        282        283       1133       1132        283        284       1134       1133        284        285       1135       1134        285        286       1136       1135        286        287       1137       1136        287        288       1138       1137 </DataArray>
<DataArray type="Int32"                                    Name="offsets"                                                      NumberOfComponents=" 1" format="ascii">
         4          8         12         16         20         24         28         32         36         40         44         48         52         56         60         64         68         72         76         80         84         88         92         96        100        104        108        112        116        120        124        128        132        136        140        144        148        152        156        160        164        168        172        176        180        184        188        192        196        200        204        208        212        216        220        224        228        232        236        240        244        248        252        256        260        264        268        272        276        280        284        288        292        296        300        304        308        312        316        320        324        328        332        336        340        344        348        352        356        360        364        368        372        376        380        384        388        392        396        400        404        408        412        416        420        424        428        432        436        440        444        448        452        456        460        464        468        472        476        480        484        488        492        496        500        504        508        512        516        520        524        528        532        536        540        544        548        552        556        560        564        568        572        576        580        584        588        592        596        600        604        608        612        616        620        624        628        632        636        640        644        648        652        656        660        664        668        672        676        680        684        688        692        696        700        704        708        712        716        720        724        728        732        736        740        744        748        752        756        760        764        768        772        776        780        784        788        792        796        800        804        808        812        816        820        824        828        832        836        840        844        848        852        856        860        864        868        872        876        880        884        888        892        896        900        904        908        912        916        920        924        928        932        936        940        944        948        952        956        960        964        968        972        976        980        984        988        992        996       1000       1004       1008       1012       1016       1020       1024       1028       1032       1036       1040       1044       1048       1052       1056       1060       1064       1068       1072       1076       1080       1084       1088       1092       1096       1100       1104       1108       1112       1116       1120       1124       1128       1132       1136       1140       1144       1148       1152       1156       1160       1164       1168       1172       1176       1180       1184       1188       1192       1196       1200       1204       1208       1212       1216       1220       1224       1228       1232       1236       1240       1244       1248       1252       1256       1260       1264       1268       1272       1276       1280       1284       1288       1292       1296       1300       1304       1308       1312       1316       1320       1324       1328       1332       1336       1340       1344       1348       1352       1356       1360       1364       1368       1372       1376       1380       1384       1388       1392       1396       1400       1404       1408       1412       1416       1420       1424       1428       1432       1436       1440       1444       1448       1452       1456       1460       1464       1468       1472       1476       1480       1484       1488       1492       1496       1500       1504       1508       1512       1516       1520       1524       1528       1532       1536       1540       1544       1548       1552       1556       1560       1564       1568       1572       1576       1580       1584       1588       1592       1596       1600       1604       1608       1612       1616       1620       1624       1628       1632       1636       1640       1644       1648       1652       1656       1660       1664       1668       1672       1676       1680       1684       1688       1692       1696       1700       1704       1708       1712       1716       1720       1724       1728       1732       1736       1740       1744       1748       1752       1756       1760       1764       1768       1772       1776       1780       1784       1788       1792       1796       1800       1804       1808       1812       1816       1820       1824       1828       1832       1836       1840       1844       1848       1852       1856       1860       1864       1868       1872       1876       1880       1884       1888       1892       1896       1900       1904       1908       1912       1916       1920       1924       1928       1932       1936       1940       1944       1948       1952       1956       1960       1964       1968       1972       1976       1980       1984       1988       1992       1996       2000       2004       2008       2012       2016       2020       2024       2028       2032       2036       2040       2044       2048       2052       2056       2060       2064       2068       2072       2076       2080       2084       2088       2092       2096       2100       2104       2108       2112       2116       2120       2124       2128       2132       2136       2140       2144       2148       2152       2156       2160       2164       2168       2172       2176       2180       2184       2188       2192       2196       2200       2204       2208       2212       2216       2220       2224       2228       2232       2236       2240       2244       2248       2252       2256       2260       2264       2268       2272       2276       2280       2284       2288       2292       2296       2300       2304       2308       2312       2316       2320       2324       2328       2332       2336       2340       2344       2348       2352       2356       2360       2364       2368       2372       2376       2380       2384       2388       2392       2396       2400       2404       2408       2412       2416       2420       2424       2428       2432       2436       2440       2444       2448       2452       2456       2460       2464       2468       2472       2476       2480       2484       2488       2492       2496       2500       2504       2508       2512       2516       2520       2524       2528       2532       2536       2540       2544       2548       2552       2556       2560       2564       2568       2572       2576       2580       2584       2588       2592       2596       2600       2604       2608       2612       2616       2620       2624       2628       2632       2636       2640       2644       2648       2652       2656       2660       2664       2668       2672       2676       2680       2684       2688       2692       2696       2700       2704       2708       2712       2716       2720       2724       2728       2732       2736       2740       2744       2748       2752       2756       2760       2764       2768       2772       2776       2780       2784       2788       2792       2796       2800       2804       2808       2812       2816       2820       2824       2828       2832       2836       2840       2844       2848       2852       2856       2860       2864       2868       2872       2876       2880       2884       2888       2892       2896       2900       2904       2908       2912       2916       2920       2924       2928       2932       2936       2940       2944       2948       2952       2956       2960       2964       2968       2972       2976       2980       2984       2988       2992       2996       3000       3004       3008       3012       3016       3020       3024       3028       3032       3036       3040       3044       3048       3052       3056       3060       3064       3068       3072       3076       3080       3084       3088       3092       3096       3100       3104       3108       3112       3116       3120       3124       3128       3132       3136       3140       3144       3148       3152       3156       3160       3164       3168       3172       3176       3180       3184       3188       3192       3196       3200       3204       3208       3212       3216       3220       3224       3228       3232       3236       3240       3244       3248       3252       3256       3260       3264       3268       3272       3276       3280       3284       3288       3292       3296       3300       3304       3308       3312       3316       3320       3324       3328       3332       3336       3340       3344       3348       3352       3356       3360       3364       3368       3372       3376       3380       3384       3388       3392       3396       3400       3404       3408       3412       3416       3420       3424       3428       3432       3436       3440       3444       3448       3452       3456       3460       3464       3468       3472       3476       3480       3484       3488       3492       3496       3500       3504       3508       3512       3516       3520       3524       3528       3532       3536       3540       3544       3548       3552       3556       3560       3564       3568       3572       3576       3580       3584       3588       3592       3596       3600       3604       3608       3612       3616       3620       3624       3628       3632       3636       3640       3644       3648       3652       3656       3660       3664       3668       3672       3676       3680       3684       3688       3692       3696       3700       3704       3708       3712       3716       3720       3724       3728       3732       3736       3740       3744       3748       3752       3756       3760       3764       3768       3772       3776       3780       3784       3788       3792       3796       3800       3804       3808       3812       3816       3820       3824       3828       3832       3836       3840       3844       3848       3852       3856       3860       3864       3868       3872       3876       3880       3884       3888       3892       3896       3900       3904       3908       3912       3916       3920       3924       3928       3932       3936       3940       3944       3948       3952       3956       3960       3964       3968       3972       3976       3980       3984       3988       3992       3996       4000       4004       4008       4012       4016       4020       4024       4028       4032       4036       4040       4044       4048       4052       4056       4060       4064       4068       4072       4076       4080       4084       4088       4092       4096 </DataArray>
<DataArray type="UInt8"                                    Name="types"                                                      NumberOfComponents=" 1" format="ascii">
         9          9          9          9          9          9          9          9          9          9          9          9          9          9          9          9          9          9          9          9          9          9          9          9          9          9          9          9          9          9          9          9          9          9          9          9          9          9          9          9          9          9          9          9          9          9          9          9          9          9          9          9          9          9          9          9          9          9          9          9          9          9          9          9          9          9          9          9          9          9          9          9          9          9          9          9          9          9          9          9          9          9          9          9          9          9          9          9          9          9          9          9          9          9          9          9          9          9          9          9          9          9          9          9          9          9          9          9          9          9          9          9          9          9          9          9          9          9          9          9          9          9          9          9          9          9          9          9          9          9          9          9          9          9          9          9          9          9          9          9          9          9          9          9          9          9          9          9          9          9          9          9          9          9          9          9          9          9          9          9          9          9          9          9          9          9          9          9          9          9          9          9          9          9          9          9          9          9          9          9          9          9          9          9          9          9          9          9          9          9          9          9          9          9          9          9          9          9          9          9          9          9          9          9          9          9          9          9          9          9          9          9          9          9          9          9          9          9          9          9          9          9          9          9          9          9          9          9          9          9          9          9          9          9          9          9          9          9          9          9          9          9          9          9          9          9          9          9          9          9          9          9          9          9          9          9          9          9          9          9          9          9          9          9          9          9          9          9          9          9          9          9          9          9          9          9          9          9          9          9          9          9          9          9          9          9          9          9          9          9          9          9          9          9          9          9          9          9          9          9          9          9          9          9          9          9          9          9          9          9          9          9          9          9          9          9          9          9          9          9          9          9          9          9          9          9          9          9          9          9          9          9          9          9          9          9          9          9          9          9          9          9          9          9          9          9          9          9          9          9          9          9          9          9          9          9          9          9          9          9          9          9          9          9          9          9          9          9          9          9          9          9          9          9          9          9          9          9          9          9          9          9          9          9          9          9          9          9          9          9          9          9          9          9          9          9          9          9          9          9          9          9          9          9          9          9          9          9          9          9          9          9          9          9          9          9          9          9          9          9          9          9          9          9          9          9          9          9          9          9          9          9          9          9          9          9          9          9          9          9          9          9          9          9          9          9          9          9          9          9          9          9          9          9          9          9          9          9          9          9          9          9          9          9          9          9          9          9          9          9          9          9          9          9          9          9          9          9          9          9          9          9          9          9          9          9          9          9          9          9          9          9          9          9          9          9          9          9          9          9          9          9          9          9          9          9          9          9          9          9          9          9          9          9          9          9          9          9          9          9          9          9          9          9          9          9          9          9          9          9          9          9          9          9          9          9          9          9          9          9          9          9          9          9          9          9          9          9          9          9          9          9          9          9          9          9          9          9          9          9          9          9          9          9          9          9          9          9          9          9          9          9          9          9          9          9          9          9          9          9          9          9          9          9          9          9          9          9          9          9          9          9          9          9          9          9          9          9          9          9          9          9          9          9          9          9          9          9          9          9          9          9          9          9          9          9          9          9          9          9          9          9          9          9          9          9          9          9          9          9          9          9          9          9          9          9          9          9          9          9          9          9          9          9          9          9          9          9          9          9          9          9          9          9          9          9          9          9          9          9          9          9          9          9          9          9          9          9          9          9          9          9          9          9          9          9          9          9          9          9          9          9          9          9          9          9          9          9          9          9          9          9          9          9          9          9          9          9          9          9          9          9          9          9          9          9          9          9          9          9          9          9          9          9          9          9          9          9          9          9          9          9          9          9          9          9          9          9          9          9          9          9          9          9          9          9          9          9          9          9          9          9          9          9          9          9          9          9          9          9          9          9          9          9          9          9          9          9          9          9          9          9          9          9          9          9          9          9          9          9          9          9          9          9          9          9          9          9          9          9          9          9          9          9          9          9          9          9          9          9          9          9          9          9          9          9          9          9          9          9          9          9          9          9          9          9          9          9          9          9          9          9          9          9          9          9          9          9          9          9          9          9          9          9          9          9          9          9          9          9          9          9          9          9          9          9          9          9          9          9          9          9          9          9          9          9          9          9          9          9          9          9          9          9          9          9          9          9          9          9          9          9          9          9          9          9          9          9          9          9          9          9          9          9          9          9          9          9          9          9          9          9          9          9          9          9          9          9          9          9          9          9          9          9          9          9          9          9          9          9          9          9          9          9          9          9          9          9          9          9          9          9          9          9          9          9          9          9          9          9          9          9          9          9          9          9          9          9          9          9          9          9          9          9          9          9          9          9          9          9          9          9          9          9          9          9          9          9          9          9          9          9          9          9          9          9          9          9          9          9          9          9          9          9          9          9          9          9          9          9          9          9          9          9          9          9          9          9          9          9          9          9          9          9          9          9          9          9          9          9          9          9          9          9          9          9          9          9          9          9          9          9          9          9          9          9          9          9          9          9          9          9          9          9          9          9          9          9          9          9          9          9          9          9 </DataArray>
</Cells>
<CellData>
<DataArray type="Int32"                                    Name="material"                                                      NumberOfComponents=" 1" format="ascii">
         1          1          1          1          1          1          1          1          1          1          1          1          1          1          1          1          1          1          1          1          1          1          1          1          1          1          1          1          1          1          1          1          1          1          1          1          1          1          1          1          1          1          1          1          1          1          1          1          1          1          1          1          1          1          1          1          1          1          1          1          1          1          1          1          1          1          1          1          1          1          1          1          1          1          1          1          1          1          1          1          1          1          1          1          1          1          1          1          1          1          1          1          1          1          1          1          1          1          1          1          1          1          1          1          1          1          1          1          1          1          1          1          1          1          1          1          1          1          1          1          1          1          1          1          1          1          1          1          1          1          1          1          1          1          1          1          1          1          1          1          1          1          1          1          1          1          1          1          1          1          1          1          1          1          1          1          1          1          1          1          1          1          1          1          1          1          1          1          1          1          1          1          1          1          1          1          1          1          1          1          1          1          1          1          1          1          1          1          1          1          1          1          1          1          1          1          1          1          1          1          1          1          1          1          1          1          1          1          1          1          1          1          1          1          1          1          1          1          1          1          1          1          1          1          1          1          1          1          1          1          1          1          1          1          1          1          1          1          1          1          1          1          1          1          1          1          1          1          1          1          1          1          1          1          1          1          1          1          1          1          1          1          1          1          1          1          1          1          1          1          1          1          1          1          1          1          1          1          1          1          1          1          1          1          1          1          1          1          1          1          1          1          1          1          1          1          1          1          1          1          1          1          1          1          1          1          1          1          1          1          1          1          1          1          1          1          1          1          1          1          1          1          1          1          1          1          1          1          1          1          1          1          1          1          1          1          1          1          1          1          1          1          1          1          1          1          1          1          1          1          1          1          1          1          1          1          1          1          1          1          1          1          1          1          1          1          1          1          1          1          1          1          1          1          1          1          1          1          1          1          1          1          1          1          1          1          1          1          1          1          1          1          1          1          1          1          1          1          1          1          1          1          1          1          1          1          1          1          1          1          1          1          1          1          1          1          1          1          1          1          1          1          1          1          1          1          1          1          1          1          1          1          1          1          1          1          1          1          1          1          1          1          1          1          1          1          1          1          1          1          1          1          1          1          1          1          1          1          1          1          1          1          1          1          1          1          1          1          1          1          1          1          1          1          1          1          1          1          1          1          1          1          1          1          1          1          1          1          1          1          1          1          1          1          1          1          1          1          1          1          1          1          1          1          1          1          1          1          1          1          1          1          1          1          1          1          1          1          1          1          1          1          1          1          1          1          1          1          1          1          1          1          1          1          1          1          1          1          1          1          1          1          1          1          1          1          1          1          1          1          1          1          1          1          1          1          1          1          1          1          1          1          1          1          1          1          1          1          1          1          1          1          1          1          1          1          1          1          1          1          1          1          1          1          1          1          1          1          1          1          1          1          1          1          1          1          1          1          1          1          1          1          1          1          1          1          1          1          1          1          1          1          1          1          1          1          1          1          1          1          1          1          1          1          1          1          1          1          1          1          1          1          1          1          1          1          1          1          1          1          1          1          1          1          1          1          1          1          1          1          1          1          1          1          1          1          1          1          1          1          1          1          1          1          1          1          1          1          1          1          1          1          1          1          1          1          1          1          1          1          1          1          1          1          1          1          1          1          1          1          1          1          1          1          1          1          1          1          1          1          1          1          1          1          1          1          1          1          1          1          1          1          1          1          1          1          1          1          1          1          1          1          1          1          1          1          1          1          1          1          1          1          1          1          1          1          1          1          1          1          1          1          1          1          1          1          1          1          1          1          1          1          1          1          1          1          1          1          1          1          1          1          1          1          1          1          1          1          1          1          1          1          1          1          1          1          1          1          1          1          1          1          1          1          1          1          1          1          1          1          1          1          1          1          1          1          1          1          1          1          1          1          1          1          1          1          1          1          1          1          1          1          1          1          1          1          1          1          1          1          1          1          1          1          1          1          1          1          1          1          1          1          1          1          1          1          1          1          1          1          1          1          1          1          1          1          1          1          1          1          1          1          1          1          1          1          1          1          1          1          1          1          1          1          1          1          1          1          1          1          1          1          1          1          1          1          1          1          1          1          1          1          1          1          1          1          1          1          1          1          1          1          1          1          1          1          1          1          1          1          1          1          1          1          1          1          1          1          1          1          1          1          1          1          1          1          1          1          1          1          1          1          1          1          1          1          1          1          1          1          1          1          1          1          1          1          1          1          1          1          1          1          1          1          1          1          1          1          1          1          1          1          1          1          1          1          1          1          1          1          1          1          1          1          1          1          1          1          1          1          1          1          1          1          1          1          1          1          1          1          1          1          1          1          1          1          1          1          1          1          1          1          1          1          1          1          1          1          1          1          1          1          1          1          1          1          1          1          1          1          1          1          1          1          1          1          1          1          1          1          1          1          1          1 </DataArray>
</CellData>
<PointData>
<DataArray type="Float64"                                    Name="u"                                                      NumberOfComponents=" 3" format="ascii">
             -0.000878026              -0.000000000               0.999999988              -0.000923909               0.000000000               0.999999988              -0.000942645              -0.000000000               0.999999988              -0.000952587               0.000000000               0.999999988              -0.000960393               0.000000000               0.999999988              -0.000968425              -0.000000000               0.999999988              -0.000977360               0.000000000               0.999999988              -0.000987199               0.000000000               0.999999988              -0.000997656              -0.000000000               0.999999988              -0.001008531              -0.000000000               0.999999988              -0.001019351              -0.000000000               0.999999988              -0.001029796              -0.000000000               0.999999988              -0.001039507              -0.000000000               0.999999988              -0.001048101               0.000000000               0.999999988              -0.001055055              -0.000000000               0.999999988              -0.001059731              -0.000000000               0.999999988              -0.001061479              -0.000000000               0.999999988              -0.000873175               0.000120980               0.999999988              -0.000915084               0.000095408               0.999999988              -0.000931228               0.000083403               0.999999988              -0.000939440               0.000078147               0.999999988              -0.000945986               0.000076056               0.999999988              -0.000952970               0.000075523               0.999999988              -0.000960925               0.000075465               0.999999988              -0.000969746               0.000075132               0.999999988              -0.000979198               0.000074269               0.999999988              -0.000988935               0.000072399               0.999999988              -0.000998390               0.000069223               0.999999988              -0.001007213               0.000064458               0.999999988              -0.001015036               0.000057712               0.999999988              -0.001021393               0.000048558               0.999999988              -0.001025909               0.000036480               0.999999988              -0.001028173               0.000020582               0.999999988              -0.001027567              -0.000000462               0.999999988              -0.000858871               0.000240941               0.999999988              -0.000889113               0.000190513               0.999999988              -0.000897905               0.000167721               0.999999988              -0.000901437               0.000158219               0.999999988              -0.000904718               0.000154856               0.999999988              -0.000909053               0.000154311               0.999999988              -0.000914481               0.000154482               0.999999988              -0.000920633               0.000154163               0.999999988              -0.000927206               0.000152693               0.999999988              -0.000933594               0.000149212               0.999999988              -0.000939176               0.000142988               0.999999988              -0.000943463               0.000133548               0.999999988              -0.000946005               0.000120304               0.999999988              -0.000946535               0.000102815               0.999999988              -0.000944840               0.000080395               0.999999988              -0.000940662               0.000051708               0.999999988              -0.000933845               0.000015041               0.999999988              -0.000835418               0.000358880               0.999999988              -0.000847197               0.000285130               0.999999988              -0.000845336               0.000253801               0.999999988              -0.000842549               0.000241840               0.999999988              -0.000841507               0.000238463               0.999999988              -0.000842461               0.000238673               0.999999988              -0.000844705               0.000239679               0.999999988              -0.000847399               0.000239609               0.999999988              -0.000849711               0.000237619               0.999999988              -0.000850998               0.000232530               0.999999988              -0.000850579               0.000223367               0.999999988              -0.000847998               0.000209528               0.999999988              -0.000843002               0.000190687               0.999999988              -0.000835394               0.000166454               0.999999988              -0.000825155               0.000136116               0.999999988              -0.000812270               0.000098722               0.999999988              -0.000797010               0.000053347               0.999999988              -0.000803104               0.000473831               0.999999988              -0.000791357               0.000379379               0.999999988              -0.000777669               0.000342243               0.999999988              -0.000768399               0.000329809               0.999999988              -0.000763311               0.000327709               0.999999988              -0.000760973               0.000329514               0.999999988              -0.000759731               0.000331648               0.999999988              -0.000758383               0.000331946               0.999999988              -0.000755664               0.000329166               0.999999988              -0.000750747               0.000322327               0.999999988              -0.000743006               0.000310288               0.999999988              -0.000732264               0.000292695               0.999999988              -0.000718458               0.000269100               0.999999988              -0.000701557               0.000239458               0.999999988              -0.000681563               0.000203468               0.999999988              -0.000658744               0.000160946               0.999999988              -0.000633766               0.000112074               0.999999988              -0.000762472               0.000584800               0.999999988              -0.000724196               0.000473555               0.999999988              -0.000699410               0.000433490               0.999999988              -0.000685214               0.000422117               0.999999988              -0.000677370               0.000422111               0.999999988              -0.000672379               0.000425775               0.999999988              -0.000667912               0.000429024               0.999999988              -0.000662143               0.000429517               0.999999988              -0.000653670               0.000425631               0.999999988              -0.000641555               0.000416663               0.999999988              -0.000625448               0.000401995               0.999999988              -0.000605458               0.000380900               0.999999988              -0.000581574               0.000353366               0.999999988              -0.000553889               0.000319643               0.999999988              -0.000522829               0.000280118               0.999999988              -0.000489149               0.000235409               0.999999988              -0.000453903               0.000186671               0.999999988              -0.000714237               0.000690745               0.999999988              -0.000648975               0.000567757               0.999999988              -0.000615656               0.000527217               0.999999988              -0.000598936               0.000517848               0.999999988              -0.000589843               0.000520161               0.999999988              -0.000583130               0.000525407               0.999999988              -0.000575554               0.000529460               0.999999988              -0.000564847               0.000529554               0.999999988              -0.000549562               0.000524148               0.999999988              -0.000529055               0.000512853               0.999999988              -0.000503426               0.000495543               0.999999988              -0.000472698               0.000471534               0.999999988              -0.000437402               0.000441010               0.999999988              -0.000398047               0.000404781               0.999999988              -0.000355677               0.000363780               0.999999988              -0.000311460               0.000319592               0.999999988              -0.000266753               0.000273996               0.999999988              -0.000659330               0.000790480               0.999999988              -0.000569246               0.000661824               0.999999988              -0.000531134               0.000622520               0.999999988              -0.000514629               0.000615295               0.999999988              -0.000505693               0.000619554               0.999999988              -0.000497636               0.000626010               0.999999988              -0.000486509               0.000630139               0.999999988              -0.000469865               0.000629212               0.999999988              -0.000446770               0.000621916               0.999999988              -0.000416957               0.000608296               0.999999988              -0.000380641               0.000588471               0.999999988              -0.000338348               0.000561995               0.999999988              -0.000291007               0.000529700               0.999999988              -0.000239911               0.000492696               0.999999988              -0.000186548               0.000452577               0.999999988              -0.000132203               0.000411196               0.999999988              -0.000078158               0.000370528               0.999999988              -0.000599540               0.000882053               0.999999988              -0.000487922               0.000755524               0.999999988              -0.000450186               0.000717934               0.999999988              -0.000435875               0.000712363               0.999999988              -0.000427888               0.000718016               0.999999988              -0.000418144               0.000725148               0.999999988              -0.000402587               0.000728795               0.999999988              -0.000379049               0.000726542               0.999999988              -0.000347145               0.000717446               0.999999988              -0.000306931               0.000701700               0.999999988              -0.000258935               0.000679661               0.999999988              -0.000204210               0.000651738               0.999999988              -0.000144314               0.000619280               0.999999988              -0.000080920               0.000583935               0.999999988              -0.000015581               0.000547664               0.999999988               0.000050044               0.000512079               0.999999988               0.000115079               0.000477977               0.999999988              -0.000537414               0.000968924               0.999999988              -0.000419532               0.000861430               0.999999988              -0.000379572               0.000820991               0.999999988              -0.000365102               0.000811216               0.999999988              -0.000358107               0.000814558               0.999999988              -0.000350536               0.000821996               0.999999988              -0.000338294               0.000828490               0.999999988              -0.000319353               0.000831403               0.999999988              -0.000292647               0.000829414               0.999999988              -0.000258156               0.000822365               0.999999988              -0.000215946               0.000810367               0.999999988              -0.000166637               0.000793788               0.999999988              -0.000111237               0.000773197               0.999999988              -0.000050714               0.000749580               0.999999988               0.000013734               0.000724162               0.999999988               0.000080709               0.000698519               0.999999988               0.000148342               0.000674098               0.999999988              -0.000469718               0.001048206               0.999999988              -0.000353457               0.000964174               0.999999988              -0.000311607               0.000926925               0.999999988              -0.000296029               0.000915414               0.999999988              -0.000289188               0.000917337               0.999999988              -0.000282992               0.000925173               0.999999988              -0.000273371               0.000934286               0.999999988              -0.000258368               0.000941856               0.999999988              -0.000236641               0.000946333               0.999999988              -0.000207886               0.000947054               0.999999988              -0.000171684               0.000944044               0.999999988              -0.000128288               0.000937472               0.999999988              -0.000078200               0.000927706               0.999999988              -0.000022079               0.000915105               0.999999988               0.000039528               0.000900436               0.999999988               0.000105557               0.000884598               0.999999988               0.000174004               0.000868985               0.999999988              -0.000397894               0.001117847               0.999999988              -0.000289950               0.001060391               0.999999988              -0.000247924               0.001030729               0.999999988              -0.000231162               0.001020637               0.999999988              -0.000223821               0.001022693               0.999999988              -0.000218240               0.001031493               0.999999988              -0.000210506               0.001043167               0.999999988              -0.000198798               0.001055072               0.999999988              -0.000181808               0.001065471               0.999999988              -0.000158594               0.001073551               0.999999988              -0.000128440               0.001078886               0.999999988              -0.000091277               0.001081429               0.999999988              -0.000047455               0.001081382               0.999999988               0.000002977               0.001078991               0.999999988               0.000060174               0.001074712               0.999999988               0.000123425               0.001068904               0.999999988               0.000191679               0.001062565               0.999999988              -0.000322551               0.001176695               0.999999988              -0.000228924               0.001146259               0.999999988              -0.000189414               0.001127171               0.999999988              -0.000172342               0.001121119               0.999999988              -0.000164418               0.001125045               0.999999988              -0.000159223               0.001135570               0.999999988              -0.000152891               0.001149812               0.999999988              -0.000143889               0.001165754               0.999999988              -0.000131005               0.001181692               0.999999988              -0.000113097               0.001196587               0.999999988              -0.000089183               0.001209805               0.999999988              -0.000058809               0.001221057               0.999999988              -0.000021907               0.001230335               0.999999988               0.000021756               0.001237656               0.999999988               0.000072612               0.001243167               0.999999988               0.000130936               0.001247154               0.999999988               0.000196706               0.001250160               0.999999988              -0.000244459               0.001223516               0.999999988              -0.000170017               0.001217718               0.999999988              -0.000136243               0.001210494               0.999999988              -0.000120550               0.001210133               0.999999988              -0.000112809               0.001217237               0.999999988              -0.000108029               0.001230238               0.999999988              -0.000103082               0.001247282               0.999999988              -0.000096306               0.001266764               0.999999988              -0.000086884               0.001287572               0.999999988              -0.000073871               0.001308611               0.999999988              -0.000056286               0.001328960               0.999999988              -0.000033153               0.001348399               0.999999988              -0.000004143               0.001366612               0.999999988               0.000031013               0.001383329               0.999999988               0.000073103               0.001398398               0.999999988               0.000123267               0.001411826               0.999999988               0.000183003               0.001423907               0.999999988              -0.000164207               0.001257687               0.999999988              -0.000112572               0.001271430               0.999999988              -0.000087811               0.001274977               0.999999988              -0.000075630               0.001280609               0.999999988              -0.000069393               0.001291341               0.999999988              -0.000065563               0.001307061               0.999999988              -0.000062051               0.001326858               0.999999988              -0.000057351               0.001349593               0.999999988              -0.000051079               0.001374231               0.999999988              -0.000042623               0.001399931               0.999999988              -0.000030956               0.001426219               0.999999988              -0.000015328               0.001452561               0.999999988               0.000004675               0.001478530               0.999999988               0.000029427               0.001503829               0.999999988               0.000059906               0.001528038               0.999999988               0.000097582               0.001550699               0.999999988               0.000144584               0.001571476               0.999999988              -0.000082465               0.001278502               0.999999988              -0.000056074               0.001304758               0.999999988              -0.000042966               0.001315719               0.999999988              -0.000036282               0.001325882               0.999999988              -0.000032761               0.001339526               0.999999988              -0.000030569               0.001357515               0.999999988              -0.000028667               0.001379508               0.999999988              -0.000026255               0.001404519               0.999999988              -0.000023186               0.001431834               0.999999988              -0.000019016               0.001460877               0.999999988              -0.000013071               0.001491208               0.999999988              -0.000005113               0.001522252               0.999999988               0.000005134               0.001553558               0.999999988               0.000018095               0.001584727               0.999999988               0.000034236               0.001615270               0.999999988               0.000054520               0.001644623               0.999999988               0.000080532               0.001672011               0.999999988               0.000000000               0.001285414               0.999999988               0.000000000               0.001316016               0.999999988              -0.000000000               0.001329695               0.999999988               0.000000000               0.001341530               0.999999988               0.000000000               0.001356289               0.999999988               0.000000000               0.001375147               0.999999988              -0.000000000               0.001397891               0.999999988               0.000000000               0.001423685               0.999999988               0.000000000               0.001452034               0.999999988               0.000000000               0.001482278               0.999999988              -0.000000000               0.001513939               0.999999988              -0.000000000               0.001546603               0.999999988              -0.000000000               0.001579820               0.999999988              -0.000000000               0.001613119               0.999999988               0.000000000               0.001645861               0.999999988              -0.000000000               0.001677464               0.999999988               0.000000000               0.001707180               0.999999988              -0.000878026              -0.000000000               0.999999988              -0.000923909               0.000000000               0.999999988              -0.000942645              -0.000000000               0.999999988              -0.000952587               0.000000000               0.999999988              -0.000960393               0.000000000               0.999999988              -0.000968425              -0.000000000               0.999999988              -0.000977360               0.000000000               0.999999988              -0.000987199               0.000000000               0.999999988              -0.000997656              -0.000000000               0.999999988              -0.001008531              -0.000000000               0.999999988              -0.001019351              -0.000000000               0.999999988              -0.001029796              -0.000000000               0.999999988              -0.001039507              -0.000000000               0.999999988              -0.001048101               0.000000000               0.999999988              -0.001055055              -0.000000000               0.999999988              -0.001059731              -0.000000000               0.999999988              -0.001061479              -0.000000000               0.999999988              -0.000873175              -0.000120980               0.999999988              -0.000915084              -0.000095408               0.999999988              -0.000931228              -0.000083403               0.999999988              -0.000939440              -0.000078147               0.999999988              -0.000945986              -0.000076056               0.999999988              -0.000952970              -0.000075523               0.999999988              -0.000960925              -0.000075465               0.999999988              -0.000969746              -0.000075132               0.999999988              -0.000979198              -0.000074269               0.999999988              -0.000988935              -0.000072399               0.999999988              -0.000998390              -0.000069223               0.999999988              -0.001007213              -0.000064458               0.999999988              -0.001015036              -0.000057712               0.999999988              -0.001021393              -0.000048558               0.999999988              -0.001025909              -0.000036480               0.999999988              -0.001028173              -0.000020582               0.999999988              -0.001027567               0.000000462               0.999999988              -0.000858871              -0.000240941               0.999999988              -0.000889113              -0.000190513               0.999999988              -0.000897905              -0.000167721               0.999999988              -0.000901437              -0.000158219               0.999999988              -0.000904718              -0.000154856               0.999999988              -0.000909053              -0.000154311               0.999999988              -0.000914481              -0.000154482               0.999999988              -0.000920633              -0.000154163               0.999999988              -0.000927206              -0.000152693               0.999999988              -0.000933594              -0.000149212               0.999999988              -0.000939176              -0.000142988               0.999999988              -0.000943463              -0.000133548               0.999999988              -0.000946005              -0.000120304               0.999999988              -0.000946535              -0.000102815               0.999999988              -0.000944840              -0.000080395               0.999999988              -0.000940662              -0.000051708               0.999999988              -0.000933845              -0.000015041               0.999999988              -0.000835418              -0.000358880               0.999999988              -0.000847197              -0.000285130               0.999999988              -0.000845336              -0.000253801               0.999999988              -0.000842549              -0.000241840               0.999999988              -0.000841507              -0.000238463               0.999999988              -0.000842461              -0.000238673               0.999999988              -0.000844705              -0.000239679               0.999999988              -0.000847399              -0.000239609               0.999999988              -0.000849711              -0.000237619               0.999999988              -0.000850998              -0.000232530               0.999999988              -0.000850579              -0.000223367               0.999999988              -0.000847998              -0.000209528               0.999999988              -0.000843002              -0.000190687               0.999999988              -0.000835394              -0.000166454               0.999999988              -0.000825155              -0.000136116               0.999999988              -0.000812270              -0.000098722               0.999999988              -0.000797010              -0.000053347               0.999999988              -0.000803104              -0.000473831               0.999999988              -0.000791357              -0.000379379               0.999999988              -0.000777669              -0.000342243               0.999999988              -0.000768399              -0.000329809               0.999999988              -0.000763311              -0.000327709               0.999999988              -0.000760973              -0.000329514               0.999999988              -0.000759731              -0.000331648               0.999999988              -0.000758383              -0.000331946               0.999999988              -0.000755664              -0.000329166               0.999999988              -0.000750747              -0.000322327               0.999999988              -0.000743006              -0.000310288               0.999999988              -0.000732264              -0.000292695               0.999999988              -0.000718458              -0.000269100               0.999999988              -0.000701557              -0.000239458               0.999999988              -0.000681563              -0.000203468               0.999999988              -0.000658744              -0.000160946               0.999999988              -0.000633766              -0.000112074               0.999999988              -0.000762472              -0.000584800               0.999999988              -0.000724196              -0.000473555               0.999999988              -0.000699410              -0.000433490               0.999999988              -0.000685214              -0.000422117               0.999999988              -0.000677370              -0.000422111               0.999999988              -0.000672379              -0.000425775               0.999999988              -0.000667912              -0.000429024               0.999999988              -0.000662143              -0.000429517               0.999999988              -0.000653670              -0.000425631               0.999999988              -0.000641555              -0.000416663               0.999999988              -0.000625448              -0.000401995               0.999999988              -0.000605458              -0.000380900               0.999999988              -0.000581574              -0.000353366               0.999999988              -0.000553889              -0.000319643               0.999999988              -0.000522829              -0.000280118               0.999999988              -0.000489149              -0.000235409               0.999999988              -0.000453903              -0.000186671               0.999999988              -0.000714237              -0.000690745               0.999999988              -0.000648975              -0.000567757               0.999999988              -0.000615656              -0.000527217               0.999999988              -0.000598936              -0.000517848               0.999999988              -0.000589843              -0.000520161               0.999999988              -0.000583130              -0.000525407               0.999999988              -0.000575554              -0.000529460               0.999999988              -0.000564847              -0.000529554               0.999999988              -0.000549562              -0.000524148               0.999999988              -0.000529055              -0.000512853               0.999999988              -0.000503426              -0.000495543               0.999999988              -0.000472698              -0.000471534               0.999999988              -0.000437402              -0.000441010               0.999999988              -0.000398047              -0.000404781               0.999999988              -0.000355677              -0.000363780               0.999999988              -0.000311460              -0.000319592               0.999999988              -0.000266753              -0.000273996               0.999999988              -0.000659330              -0.000790480               0.999999988              -0.000569246              -0.000661824               0.999999988              -0.000531134              -0.000622520               0.999999988              -0.000514629              -0.000615295               0.999999988              -0.000505693              -0.000619554               0.999999988              -0.000497636              -0.000626010               0.999999988              -0.000486509              -0.000630139               0.999999988              -0.000469865              -0.000629212               0.999999988              -0.000446770              -0.000621916               0.999999988              -0.000416957              -0.000608296               0.999999988              -0.000380641              -0.000588471               0.999999988              -0.000338348              -0.000561995               0.999999988              -0.000291007              -0.000529700               0.999999988              -0.000239911              -0.000492696               0.999999988              -0.000186548              -0.000452577               0.999999988              -0.000132203              -0.000411196               0.999999988              -0.000078158              -0.000370528               0.999999988              -0.000599540              -0.000882053               0.999999988              -0.000487922              -0.000755524               0.999999988              -0.000450186              -0.000717934               0.999999988              -0.000435875              -0.000712363               0.999999988              -0.000427888              -0.000718016               0.999999988              -0.000418144              -0.000725148               0.999999988              -0.000402587              -0.000728795               0.999999988              -0.000379049              -0.000726542               0.999999988              -0.000347145              -0.000717446               0.999999988              -0.000306931              -0.000701700               0.999999988              -0.000258935              -0.000679661               0.999999988              -0.000204210              -0.000651738               0.999999988              -0.000144314              -0.000619280               0.999999988              -0.000080920              -0.000583935               0.999999988              -0.000015581              -0.000547664               0.999999988               0.000050044              -0.000512079               0.999999988               0.000115079              -0.000477977               0.999999988              -0.000537414              -0.000968924               0.999999988              -0.000419532              -0.000861430               0.999999988              -0.000379572              -0.000820991               0.999999988              -0.000365102              -0.000811216               0.999999988              -0.000358107              -0.000814558               0.999999988              -0.000350536              -0.000821996               0.999999988              -0.000338294              -0.000828490               0.999999988              -0.000319353              -0.000831403               0.999999988              -0.000292647              -0.000829414               0.999999988              -0.000258156              -0.000822365               0.999999988              -0.000215946              -0.000810367               0.999999988              -0.000166637              -0.000793788               0.999999988              -0.000111237              -0.000773197               0.999999988              -0.000050714              -0.000749580               0.999999988               0.000013734              -0.000724162               0.999999988               0.000080709              -0.000698519               0.999999988               0.000148342              -0.000674098               0.999999988              -0.000469718              -0.001048206               0.999999988              -0.000353457              -0.000964174               0.999999988              -0.000311607              -0.000926925               0.999999988              -0.000296029              -0.000915414               0.999999988              -0.000289188              -0.000917337               0.999999988              -0.000282992              -0.000925173               0.999999988              -0.000273371              -0.000934286               0.999999988              -0.000258368              -0.000941856               0.999999988              -0.000236641              -0.000946333               0.999999988              -0.000207886              -0.000947054               0.999999988              -0.000171684              -0.000944044               0.999999988              -0.000128288              -0.000937472               0.999999988              -0.000078200              -0.000927706               0.999999988              -0.000022079              -0.000915105               0.999999988               0.000039528              -0.000900436               0.999999988               0.000105557              -0.000884598               0.999999988               0.000174004              -0.000868985               0.999999988              -0.000397894              -0.001117847               0.999999988              -0.000289950              -0.001060391               0.999999988              -0.000247924              -0.001030729               0.999999988              -0.000231162              -0.001020637               0.999999988              -0.000223821              -0.001022693               0.999999988              -0.000218240              -0.001031493               0.999999988              -0.000210506              -0.001043167               0.999999988              -0.000198798              -0.001055072               0.999999988              -0.000181808              -0.001065471               0.999999988              -0.000158594              -0.001073551               0.999999988              -0.000128440              -0.001078886               0.999999988              -0.000091277              -0.001081429               0.999999988              -0.000047455              -0.001081382               0.999999988               0.000002977              -0.001078991               0.999999988               0.000060174              -0.001074712               0.999999988               0.000123425              -0.001068904               0.999999988               0.000191679              -0.001062565               0.999999988              -0.000322551              -0.001176695               0.999999988              -0.000228924              -0.001146259               0.999999988              -0.000189414              -0.001127171               0.999999988              -0.000172342              -0.001121119               0.999999988              -0.000164418              -0.001125045               0.999999988              -0.000159223              -0.001135570               0.999999988              -0.000152891              -0.001149812               0.999999988              -0.000143889              -0.001165754               0.999999988              -0.000131005              -0.001181692               0.999999988              -0.000113097              -0.001196587               0.999999988              -0.000089183              -0.001209805               0.999999988              -0.000058809              -0.001221057               0.999999988              -0.000021907              -0.001230335               0.999999988               0.000021756              -0.001237656               0.999999988               0.000072612              -0.001243167               0.999999988               0.000130936              -0.001247154               0.999999988               0.000196706              -0.001250160               0.999999988              -0.000244459              -0.001223516               0.999999988              -0.000170017              -0.001217718               0.999999988              -0.000136243              -0.001210494               0.999999988              -0.000120550              -0.001210133               0.999999988              -0.000112809              -0.001217237               0.999999988              -0.000108029              -0.001230238               0.999999988              -0.000103082              -0.001247282               0.999999988              -0.000096306              -0.001266764               0.999999988              -0.000086884              -0.001287572               0.999999988              -0.000073871              -0.001308611               0.999999988              -0.000056286              -0.001328960               0.999999988              -0.000033153              -0.001348399               0.999999988              -0.000004143              -0.001366612               0.999999988               0.000031013              -0.001383329               0.999999988               0.000073103              -0.001398398               0.999999988               0.000123267              -0.001411826               0.999999988               0.000183003              -0.001423907               0.999999988              -0.000164207              -0.001257687               0.999999988              -0.000112572              -0.001271430               0.999999988              -0.000087811              -0.001274977               0.999999988              -0.000075630              -0.001280609               0.999999988              -0.000069393              -0.001291341               0.999999988              -0.000065563              -0.001307061               0.999999988              -0.000062051              -0.001326858               0.999999988              -0.000057351              -0.001349593               0.999999988              -0.000051079              -0.001374231               0.999999988              -0.000042623              -0.001399931               0.999999988              -0.000030956              -0.001426219               0.999999988              -0.000015328              -0.001452561               0.999999988               0.000004675              -0.001478530               0.999999988               0.000029427              -0.001503829               0.999999988               0.000059906              -0.001528038               0.999999988               0.000097582              -0.001550699               0.999999988               0.000144584              -0.001571476               0.999999988              -0.000082465              -0.001278502               0.999999988              -0.000056074              -0.001304758               0.999999988              -0.000042966              -0.001315719               0.999999988              -0.000036282              -0.001325882               0.999999988              -0.000032761              -0.001339526               0.999999988              -0.000030569              -0.001357515               0.999999988              -0.000028667              -0.001379508               0.999999988              -0.000026255              -0.001404519               0.999999988              -0.000023186              -0.001431834               0.999999988              -0.000019016              -0.001460877               0.999999988              -0.000013071              -0.001491208               0.999999988              -0.000005113              -0.001522252               0.999999988               0.000005134              -0.001553558               0.999999988               0.000018095              -0.001584727               0.999999988               0.000034236              -0.001615270               0.999999988               0.000054520              -0.001644623               0.999999988               0.000080532              -0.001672011               0.999999988              -0.000000000              -0.001285414               0.999999988              -0.000000000              -0.001316016               0.999999988               0.000000000              -0.001329695               0.999999988              -0.000000000              -0.001341530               0.999999988               0.000000000              -0.001356289               0.999999988               0.000000000              -0.001375147               0.999999988               0.000000000              -0.001397891               0.999999988               0.000000000              -0.001423685               0.999999988              -0.000000000              -0.001452034               0.999999988              -0.000000000              -0.001482278               0.999999988               0.000000000              -0.001513939               0.999999988               0.000000000              -0.001546603               0.999999988              -0.000000000              -0.001579820               0.999999988               0.000000000              -0.001613119               0.999999988               0.000000000              -0.001645861               0.999999988              -0.000000000              -0.001677464               0.999999988              -0.000000000              -0.001707180               0.999999988               0.000878026               0.000000000               0.999999988               0.000923909               0.000000000               0.999999988               0.000942645               0.000000000               0.999999988               0.000952587               0.000000000               0.999999988               0.000960393              -0.000000000               0.999999988               0.000968425               0.000000000               0.999999988               0.000977360               0.000000000               0.999999988               0.000987199               0.000000000               0.999999988               0.000997656               0.000000000               0.999999988               0.001008531               0.000000000               0.999999988               0.001019351               0.000000000               0.999999988               0.001029796              -0.000000000               0.999999988               0.001039507               0.000000000               0.999999988               0.001048101              -0.000000000               0.999999988               0.001055055               0.000000000               0.999999988               0.001059731               0.000000000               0.999999988               0.001061479               0.000000000               0.999999988               0.000873175              -0.000120980               0.999999988               0.000915084              -0.000095408               0.999999988               0.000931228              -0.000083403               0.999999988               0.000939440              -0.000078147               0.999999988               0.000945986              -0.000076056               0.999999988               0.000952970              -0.000075523               0.999999988               0.000960925              -0.000075465               0.999999988               0.000969746              -0.000075132               0.999999988               0.000979198              -0.000074269               0.999999988               0.000988935              -0.000072399               0.999999988               0.000998390              -0.000069223               0.999999988               0.001007213              -0.000064458               0.999999988               0.001015036              -0.000057712               0.999999988               0.001021393              -0.000048558               0.999999988               0.001025909              -0.000036480               0.999999988               0.001028173              -0.000020582               0.999999988               0.001027567               0.000000462               0.999999988               0.000858871              -0.000240941               0.999999988               0.000889113              -0.000190513               0.999999988               0.000897905              -0.000167721               0.999999988               0.000901437              -0.000158219               0.999999988               0.000904718              -0.000154856               0.999999988               0.000909053              -0.000154311               0.999999988               0.000914481              -0.000154482               0.999999988               0.000920633              -0.000154163               0.999999988               0.000927206              -0.000152693               0.999999988               0.000933594              -0.000149212               0.999999988               0.000939176              -0.000142988               0.999999988               0.000943463              -0.000133548               0.999999988               0.000946005              -0.000120304               0.999999988               0.000946535              -0.000102815               0.999999988               0.000944840              -0.000080395               0.999999988               0.000940662              -0.000051708               0.999999988               0.000933845              -0.000015041               0.999999988               0.000835418              -0.000358880               0.999999988               0.000847197              -0.000285130               0.999999988               0.000845336              -0.000253801               0.999999988               0.000842549              -0.000241840               0.999999988               0.000841507              -0.000238463               0.999999988               0.000842461              -0.000238673               0.999999988               0.000844705              -0.000239679               0.999999988               0.000847399              -0.000239609               0.999999988               0.000849711              -0.000237619               0.999999988               0.000850998              -0.000232530               0.999999988               0.000850579              -0.000223367               0.999999988               0.000847998              -0.000209528               0.999999988               0.000843002              -0.000190687               0.999999988               0.000835394              -0.000166454               0.999999988               0.000825155              -0.000136116               0.999999988               0.000812270              -0.000098722               0.999999988               0.000797010              -0.000053347               0.999999988               0.000803104              -0.000473831               0.999999988               0.000791357              -0.000379379               0.999999988               0.000777669              -0.000342243               0.999999988               0.000768399              -0.000329809               0.999999988               0.000763311              -0.000327709               0.999999988               0.000760973              -0.000329514               0.999999988               0.000759731              -0.000331648               0.999999988               0.000758383              -0.000331946               0.999999988               0.000755664              -0.000329166               0.999999988               0.000750747              -0.000322327               0.999999988               0.000743006              -0.000310288               0.999999988               0.000732264              -0.000292695               0.999999988               0.000718458              -0.000269100               0.999999988               0.000701557              -0.000239458               0.999999988               0.000681563              -0.000203468               0.999999988               0.000658744              -0.000160946               0.999999988               0.000633766              -0.000112074               0.999999988               0.000762472              -0.000584800               0.999999988               0.000724196              -0.000473555               0.999999988               0.000699410              -0.000433490               0.999999988               0.000685214              -0.000422117               0.999999988               0.000677370              -0.000422111               0.999999988               0.000672379              -0.000425775               0.999999988               0.000667912              -0.000429024               0.999999988               0.000662143              -0.000429517               0.999999988               0.000653670              -0.000425631               0.999999988               0.000641555              -0.000416663               0.999999988               0.000625448              -0.000401995               0.999999988               0.000605458              -0.000380900               0.999999988               0.000581574              -0.000353366               0.999999988               0.000553889              -0.000319643               0.999999988               0.000522829              -0.000280118               0.999999988               0.000489149              -0.000235409               0.999999988               0.000453903              -0.000186671               0.999999988               0.000714237              -0.000690745               0.999999988               0.000648975              -0.000567757               0.999999988               0.000615656              -0.000527217               0.999999988               0.000598936              -0.000517848               0.999999988               0.000589843              -0.000520161               0.999999988               0.000583130              -0.000525407               0.999999988               0.000575554              -0.000529460               0.999999988               0.000564847              -0.000529554               0.999999988               0.000549562              -0.000524148               0.999999988               0.000529055              -0.000512853               0.999999988               0.000503426              -0.000495543               0.999999988               0.000472698              -0.000471534               0.999999988               0.000437402              -0.000441010               0.999999988               0.000398047              -0.000404781               0.999999988               0.000355677              -0.000363780               0.999999988               0.000311460              -0.000319592               0.999999988               0.000266753              -0.000273996               0.999999988               0.000659330              -0.000790480               0.999999988               0.000569246              -0.000661824               0.999999988               0.000531134              -0.000622520               0.999999988               0.000514629              -0.000615295               0.999999988               0.000505693              -0.000619554               0.999999988               0.000497636              -0.000626010               0.999999988               0.000486509              -0.000630139               0.999999988               0.000469865              -0.000629212               0.999999988               0.000446770              -0.000621916               0.999999988               0.000416957              -0.000608296               0.999999988               0.000380641              -0.000588471               0.999999988               0.000338348              -0.000561995               0.999999988               0.000291007              -0.000529700               0.999999988               0.000239911              -0.000492696               0.999999988               0.000186548              -0.000452577               0.999999988               0.000132203              -0.000411196               0.999999988               0.000078158              -0.000370528               0.999999988               0.000599540              -0.000882053               0.999999988               0.000487922              -0.000755524               0.999999988               0.000450186              -0.000717934               0.999999988               0.000435875              -0.000712363               0.999999988               0.000427888              -0.000718016               0.999999988               0.000418144              -0.000725148               0.999999988               0.000402587              -0.000728795               0.999999988               0.000379049              -0.000726542               0.999999988               0.000347145              -0.000717446               0.999999988               0.000306931              -0.000701700               0.999999988               0.000258935              -0.000679661               0.999999988               0.000204210              -0.000651738               0.999999988               0.000144314              -0.000619280               0.999999988               0.000080920              -0.000583935               0.999999988               0.000015581              -0.000547664               0.999999988              -0.000050044              -0.000512079               0.999999988              -0.000115079              -0.000477977               0.999999988               0.000537414              -0.000968924               0.999999988               0.000419532              -0.000861430               0.999999988               0.000379572              -0.000820991               0.999999988               0.000365102              -0.000811216               0.999999988               0.000358107              -0.000814558               0.999999988               0.000350536              -0.000821996               0.999999988               0.000338294              -0.000828490               0.999999988               0.000319353              -0.000831403               0.999999988               0.000292647              -0.000829414               0.999999988               0.000258156              -0.000822365               0.999999988               0.000215946              -0.000810367               0.999999988               0.000166637              -0.000793788               0.999999988               0.000111237              -0.000773197               0.999999988               0.000050714              -0.000749580               0.999999988              -0.000013734              -0.000724162               0.999999988              -0.000080709              -0.000698519               0.999999988              -0.000148342              -0.000674098               0.999999988               0.000469718              -0.001048206               0.999999988               0.000353457              -0.000964174               0.999999988               0.000311607              -0.000926925               0.999999988               0.000296029              -0.000915414               0.999999988               0.000289188              -0.000917337               0.999999988               0.000282992              -0.000925173               0.999999988               0.000273371              -0.000934286               0.999999988               0.000258368              -0.000941856               0.999999988               0.000236641              -0.000946333               0.999999988               0.000207886              -0.000947054               0.999999988               0.000171684              -0.000944044               0.999999988               0.000128288              -0.000937472               0.999999988               0.000078200              -0.000927706               0.999999988               0.000022079              -0.000915105               0.999999988              -0.000039528              -0.000900436               0.999999988              -0.000105557              -0.000884598               0.999999988              -0.000174004              -0.000868985               0.999999988               0.000397894              -0.001117847               0.999999988               0.000289950              -0.001060391               0.999999988               0.000247924              -0.001030729               0.999999988               0.000231162              -0.001020637               0.999999988               0.000223821              -0.001022693               0.999999988               0.000218240              -0.001031493               0.999999988               0.000210506              -0.001043167               0.999999988               0.000198798              -0.001055072               0.999999988               0.000181808              -0.001065471               0.999999988               0.000158594              -0.001073551               0.999999988               0.000128440              -0.001078886               0.999999988               0.000091277              -0.001081429               0.999999988               0.000047455              -0.001081382               0.999999988              -0.000002977              -0.001078991               0.999999988              -0.000060174              -0.001074712               0.999999988              -0.000123425              -0.001068904               0.999999988              -0.000191679              -0.001062565               0.999999988               0.000322551              -0.001176695               0.999999988               0.000228924              -0.001146259               0.999999988               0.000189414              -0.001127171               0.999999988               0.000172342              -0.001121119               0.999999988               0.000164418              -0.001125045               0.999999988               0.000159223              -0.001135570               0.999999988               0.000152891              -0.001149812               0.999999988               0.000143889              -0.001165754               0.999999988               0.000131005              -0.001181692               0.999999988               0.000113097              -0.001196587               0.999999988               0.000089183              -0.001209805               0.999999988               0.000058809              -0.001221057               0.999999988               0.000021907              -0.001230335               0.999999988              -0.000021756              -0.001237656               0.999999988              -0.000072612              -0.001243167               0.999999988              -0.000130936              -0.001247154               0.999999988              -0.000196706              -0.001250160               0.999999988               0.000244459              -0.001223516               0.999999988               0.000170017              -0.001217718               0.999999988               0.000136243              -0.001210494               0.999999988               0.000120550              -0.001210133               0.999999988               0.000112809              -0.001217237               0.999999988               0.000108029              -0.001230238               0.999999988               0.000103082              -0.001247282               0.999999988               0.000096306              -0.001266764               0.999999988               0.000086884              -0.001287572               0.999999988               0.000073871              -0.001308611               0.999999988               0.000056286              -0.001328960               0.999999988               0.000033153              -0.001348399               0.999999988               0.000004143              -0.001366612               0.999999988              -0.000031013              -0.001383329               0.999999988              -0.000073103              -0.001398398               0.999999988              -0.000123267              -0.001411826               0.999999988              -0.000183003              -0.001423907               0.999999988               0.000164207              -0.001257687               0.999999988               0.000112572              -0.001271430               0.999999988               0.000087811              -0.001274977               0.999999988               0.000075630              -0.001280609               0.999999988               0.000069393              -0.001291341               0.999999988               0.000065563              -0.001307061               0.999999988               0.000062051              -0.001326858               0.999999988               0.000057351              -0.001349593               0.999999988               0.000051079              -0.001374231               0.999999988               0.000042623              -0.001399931               0.999999988               0.000030956              -0.001426219               0.999999988               0.000015328              -0.001452561               0.999999988              -0.000004675              -0.001478530               0.999999988              -0.000029427              -0.001503829               0.999999988              -0.000059906              -0.001528038               0.999999988              -0.000097582              -0.001550699               0.999999988              -0.000144584              -0.001571476               0.999999988               0.000082465              -0.001278502               0.999999988               0.000056074              -0.001304758               0.999999988               0.000042966              -0.001315719               0.999999988               0.000036282              -0.001325882               0.999999988               0.000032761              -0.001339526               0.999999988               0.000030569              -0.001357515               0.999999988               0.000028667              -0.001379508               0.999999988               0.000026255              -0.001404519               0.999999988               0.000023186              -0.001431834               0.999999988               0.000019016              -0.001460877               0.999999988               0.000013071              -0.001491208               0.999999988               0.000005113              -0.001522252               0.999999988              -0.000005134              -0.001553558               0.999999988              -0.000018095              -0.001584727               0.999999988              -0.000034236              -0.001615270               0.999999988              -0.000054520              -0.001644623               0.999999988              -0.000080532              -0.001672011               0.999999988              -0.000000000              -0.001285414               0.999999988              -0.000000000              -0.001316016               0.999999988               0.000000000              -0.001329695               0.999999988              -0.000000000              -0.001341530               0.999999988               0.000000000              -0.001356289               0.999999988               0.000000000              -0.001375147               0.999999988               0.000000000              -0.001397891               0.999999988               0.000000000              -0.001423685               0.999999988              -0.000000000              -0.001452034               0.999999988              -0.000000000              -0.001482278               0.999999988               0.000000000              -0.001513939               0.999999988               0.000000000              -0.001546603               0.999999988              -0.000000000              -0.001579820               0.999999988               0.000000000              -0.001613119               0.999999988               0.000000000              -0.001645861               0.999999988              -0.000000000              -0.001677464               0.999999988              -0.000000000              -0.001707180               0.999999988               0.000878026               0.000000000               0.999999988               0.000923909               0.000000000               0.999999988               0.000942645               0.000000000               0.999999988               0.000952587               0.000000000               0.999999988               0.000960393              -0.000000000               0.999999988               0.000968425               0.000000000               0.999999988               0.000977360               0.000000000               0.999999988               0.000987199               0.000000000               0.999999988               0.000997656               0.000000000               0.999999988               0.001008531               0.000000000               0.999999988               0.001019351               0.000000000               0.999999988               0.001029796              -0.000000000               0.999999988               0.001039507               0.000000000               0.999999988               0.001048101              -0.000000000               0.999999988               0.001055055               0.000000000               0.999999988               0.001059731               0.000000000               0.999999988               0.001061479               0.000000000               0.999999988               0.000873175               0.000120980               0.999999988               0.000915084               0.000095408               0.999999988               0.000931228               0.000083403               0.999999988               0.000939440               0.000078147               0.999999988               0.000945986               0.000076056               0.999999988               0.000952970               0.000075523               0.999999988               0.000960925               0.000075465               0.999999988               0.000969746               0.000075132               0.999999988               0.000979198               0.000074269               0.999999988               0.000988935               0.000072399               0.999999988               0.000998390               0.000069223               0.999999988               0.001007213               0.000064458               0.999999988               0.001015036               0.000057712               0.999999988               0.001021393               0.000048558               0.999999988               0.001025909               0.000036480               0.999999988               0.001028173               0.000020582               0.999999988               0.001027567              -0.000000462               0.999999988               0.000858871               0.000240941               0.999999988               0.000889113               0.000190513               0.999999988               0.000897905               0.000167721               0.999999988               0.000901437               0.000158219               0.999999988               0.000904718               0.000154856               0.999999988               0.000909053               0.000154311               0.999999988               0.000914481               0.000154482               0.999999988               0.000920633               0.000154163               0.999999988               0.000927206               0.000152693               0.999999988               0.000933594               0.000149212               0.999999988               0.000939176               0.000142988               0.999999988               0.000943463               0.000133548               0.999999988               0.000946005               0.000120304               0.999999988               0.000946535               0.000102815               0.999999988               0.000944840               0.000080395               0.999999988               0.000940662               0.000051708               0.999999988               0.000933845               0.000015041               0.999999988               0.000835418               0.000358880               0.999999988               0.000847197               0.000285130               0.999999988               0.000845336               0.000253801               0.999999988               0.000842549               0.000241840               0.999999988               0.000841507               0.000238463               0.999999988               0.000842461               0.000238673               0.999999988               0.000844705               0.000239679               0.999999988               0.000847399               0.000239609               0.999999988               0.000849711               0.000237619               0.999999988               0.000850998               0.000232530               0.999999988               0.000850579               0.000223367               0.999999988               0.000847998               0.000209528               0.999999988               0.000843002               0.000190687               0.999999988               0.000835394               0.000166454               0.999999988               0.000825155               0.000136116               0.999999988               0.000812270               0.000098722               0.999999988               0.000797010               0.000053347               0.999999988               0.000803104               0.000473831               0.999999988               0.000791357               0.000379379               0.999999988               0.000777669               0.000342243               0.999999988               0.000768399               0.000329809               0.999999988               0.000763311               0.000327709               0.999999988               0.000760973               0.000329514               0.999999988               0.000759731               0.000331648               0.999999988               0.000758383               0.000331946               0.999999988               0.000755664               0.000329166               0.999999988               0.000750747               0.000322327               0.999999988               0.000743006               0.000310288               0.999999988               0.000732264               0.000292695               0.999999988               0.000718458               0.000269100               0.999999988               0.000701557               0.000239458               0.999999988               0.000681563               0.000203468               0.999999988               0.000658744               0.000160946               0.999999988               0.000633766               0.000112074               0.999999988               0.000762472               0.000584800               0.999999988               0.000724196               0.000473555               0.999999988               0.000699410               0.000433490               0.999999988               0.000685214               0.000422117               0.999999988               0.000677370               0.000422111               0.999999988               0.000672379               0.000425775               0.999999988               0.000667912               0.000429024               0.999999988               0.000662143               0.000429517               0.999999988               0.000653670               0.000425631               0.999999988               0.000641555               0.000416663               0.999999988               0.000625448               0.000401995               0.999999988               0.000605458               0.000380900               0.999999988               0.000581574               0.000353366               0.999999988               0.000553889               0.000319643               0.999999988               0.000522829               0.000280118               0.999999988               0.000489149               0.000235409               0.999999988               0.000453903               0.000186671               0.999999988               0.000714237               0.000690745               0.999999988               0.000648975               0.000567757               0.999999988               0.000615656               0.000527217               0.999999988               0.000598936               0.000517848               0.999999988               0.000589843               0.000520161               0.999999988               0.000583130               0.000525407               0.999999988               0.000575554               0.000529460               0.999999988               0.000564847               0.000529554               0.999999988               0.000549562               0.000524148               0.999999988               0.000529055               0.000512853               0.999999988               0.000503426               0.000495543               0.999999988               0.000472698               0.000471534               0.999999988               0.000437402               0.000441010               0.999999988               0.000398047               0.000404781               0.999999988               0.000355677               0.000363780               0.999999988               0.000311460               0.000319592               0.999999988               0.000266753               0.000273996               0.999999988               0.000659330               0.000790480               0.999999988               0.000569246               0.000661824               0.999999988               0.000531134               0.000622520               0.999999988               0.000514629               0.000615295               0.999999988               0.000505693               0.000619554               0.999999988               0.000497636               0.000626010               0.999999988               0.000486509               0.000630139               0.999999988               0.000469865               0.000629212               0.999999988               0.000446770               0.000621916               0.999999988               0.000416957               0.000608296               0.999999988               0.000380641               0.000588471               0.999999988               0.000338348               0.000561995               0.999999988               0.000291007               0.000529700               0.999999988               0.000239911               0.000492696               0.999999988               0.000186548               0.000452577               0.999999988               0.000132203               0.000411196               0.999999988               0.000078158               0.000370528               0.999999988               0.000599540               0.000882053               0.999999988               0.000487922               0.000755524               0.999999988               0.000450186               0.000717934               0.999999988               0.000435875               0.000712363               0.999999988               0.000427888               0.000718016               0.999999988               0.000418144               0.000725148               0.999999988               0.000402587               0.000728795               0.999999988               0.000379049               0.000726542               0.999999988               0.000347145               0.000717446               0.999999988               0.000306931               0.000701700               0.999999988               0.000258935               0.000679661               0.999999988               0.000204210               0.000651738               0.999999988               0.000144314               0.000619280               0.999999988               0.000080920               0.000583935               0.999999988               0.000015581               0.000547664               0.999999988              -0.000050044               0.000512079               0.999999988              -0.000115079               0.000477977               0.999999988               0.000537414               0.000968924               0.999999988               0.000419532               0.000861430               0.999999988               0.000379572               0.000820991               0.999999988               0.000365102               0.000811216               0.999999988               0.000358107               0.000814558               0.999999988               0.000350536               0.000821996               0.999999988               0.000338294               0.000828490               0.999999988               0.000319353               0.000831403               0.999999988               0.000292647               0.000829414               0.999999988               0.000258156               0.000822365               0.999999988               0.000215946               0.000810367               0.999999988               0.000166637               0.000793788               0.999999988               0.000111237               0.000773197               0.999999988               0.000050714               0.000749580               0.999999988              -0.000013734               0.000724162               0.999999988              -0.000080709               0.000698519               0.999999988              -0.000148342               0.000674098               0.999999988               0.000469718               0.001048206               0.999999988               0.000353457               0.000964174               0.999999988               0.000311607               0.000926925               0.999999988               0.000296029               0.000915414               0.999999988               0.000289188               0.000917337               0.999999988               0.000282992               0.000925173               0.999999988               0.000273371               0.000934286               0.999999988               0.000258368               0.000941856               0.999999988               0.000236641               0.000946333               0.999999988               0.000207886               0.000947054               0.999999988               0.000171684               0.000944044               0.999999988               0.000128288               0.000937472               0.999999988               0.000078200               0.000927706               0.999999988               0.000022079               0.000915105               0.999999988              -0.000039528               0.000900436               0.999999988              -0.000105557               0.000884598               0.999999988              -0.000174004               0.000868985               0.999999988               0.000397894               0.001117847               0.999999988               0.000289950               0.001060391               0.999999988               0.000247924               0.001030729               0.999999988               0.000231162               0.001020637               0.999999988               0.000223821               0.001022693               0.999999988               0.000218240               0.001031493               0.999999988               0.000210506               0.001043167               0.999999988               0.000198798               0.001055072               0.999999988               0.000181808               0.001065471               0.999999988               0.000158594               0.001073551               0.999999988               0.000128440               0.001078886               0.999999988               0.000091277               0.001081429               0.999999988               0.000047455               0.001081382               0.999999988              -0.000002977               0.001078991               0.999999988              -0.000060174               0.001074712               0.999999988              -0.000123425               0.001068904               0.999999988              -0.000191679               0.001062565               0.999999988               0.000322551               0.001176695               0.999999988               0.000228924               0.001146259               0.999999988               0.000189414               0.001127171               0.999999988               0.000172342               0.001121119               0.999999988               0.000164418               0.001125045               0.999999988               0.000159223               0.001135570               0.999999988               0.000152891               0.001149812               0.999999988               0.000143889               0.001165754               0.999999988               0.000131005               0.001181692               0.999999988               0.000113097               0.001196587               0.999999988               0.000089183               0.001209805               0.999999988               0.000058809               0.001221057               0.999999988               0.000021907               0.001230335               0.999999988              -0.000021756               0.001237656               0.999999988              -0.000072612               0.001243167               0.999999988              -0.000130936               0.001247154               0.999999988              -0.000196706               0.001250160               0.999999988               0.000244459               0.001223516               0.999999988               0.000170017               0.001217718               0.999999988               0.000136243               0.001210494               0.999999988               0.000120550               0.001210133               0.999999988               0.000112809               0.001217237               0.999999988               0.000108029               0.001230238               0.999999988               0.000103082               0.001247282               0.999999988               0.000096306               0.001266764               0.999999988               0.000086884               0.001287572               0.999999988               0.000073871               0.001308611               0.999999988               0.000056286               0.001328960               0.999999988               0.000033153               0.001348399               0.999999988               0.000004143               0.001366612               0.999999988              -0.000031013               0.001383329               0.999999988              -0.000073103               0.001398398               0.999999988              -0.000123267               0.001411826               0.999999988              -0.000183003               0.001423907               0.999999988               0.000164207               0.001257687               0.999999988               0.000112572               0.001271430               0.999999988               0.000087811               0.001274977               0.999999988               0.000075630               0.001280609               0.999999988               0.000069393               0.001291341               0.999999988               0.000065563               0.001307061               0.999999988               0.000062051               0.001326858               0.999999988               0.000057351               0.001349593               0.999999988               0.000051079               0.001374231               0.999999988               0.000042623               0.001399931               0.999999988               0.000030956               0.001426219               0.999999988               0.000015328               0.001452561               0.999999988              -0.000004675               0.001478530               0.999999988              -0.000029427               0.001503829               0.999999988              -0.000059906               0.001528038               0.999999988              -0.000097582               0.001550699               0.999999988              -0.000144584               0.001571476               0.999999988               0.000082465               0.001278502               0.999999988               0.000056074               0.001304758               0.999999988               0.000042966               0.001315719               0.999999988               0.000036282               0.001325882               0.999999988               0.000032761               0.001339526               0.999999988               0.000030569               0.001357515               0.999999988               0.000028667               0.001379508               0.999999988               0.000026255               0.001404519               0.999999988               0.000023186               0.001431834               0.999999988               0.000019016               0.001460877               0.999999988               0.000013071               0.001491208               0.999999988               0.000005113               0.001522252               0.999999988              -0.000005134               0.001553558               0.999999988              -0.000018095               0.001584727               0.999999988              -0.000034236               0.001615270               0.999999988              -0.000054520               0.001644623               0.999999988              -0.000080532               0.001672011               0.999999988               0.000000000               0.001285414               0.999999988               0.000000000               0.001316016               0.999999988              -0.000000000               0.001329695               0.999999988               0.000000000               0.001341530               0.999999988               0.000000000               0.001356289               0.999999988               0.000000000               0.001375147               0.999999988              -0.000000000               0.001397891               0.999999988               0.000000000               0.001423685               0.999999988               0.000000000               0.001452034               0.999999988               0.000000000               0.001482278               0.999999988              -0.000000000               0.001513939               0.999999988              -0.000000000               0.001546603               0.999999988              -0.000000000               0.001579820               0.999999988              -0.000000000               0.001613119               0.999999988               0.000000000               0.001645861               0.999999988              -0.000000000               0.001677464               0.999999988               0.000000000               0.001707180               0.999999988 </DataArray>
<DataArray type="Float64"                                    Name="defo"                                                      NumberOfComponents=" 3" format="ascii">
             -0.000878026              -0.000000000               0.999999988              -0.000923909               0.000000000               0.999999988              -0.000942645              -0.000000000               0.999999988              -0.000952587               0.000000000               0.999999988              -0.000960393               0.000000000               0.999999988              -0.000968425              -0.000000000               0.999999988              -0.000977360               0.000000000               0.999999988              -0.000987199               0.000000000               0.999999988              -0.000997656              -0.000000000               0.999999988              -0.001008531              -0.000000000               0.999999988              -0.001019351              -0.000000000               0.999999988              -0.001029796              -0.000000000               0.999999988              -0.001039507              -0.000000000               0.999999988              -0.001048101               0.000000000               0.999999988              -0.001055055              -0.000000000               0.999999988              -0.001059731              -0.000000000               0.999999988              -0.001061479              -0.000000000               0.999999988              -0.000873175               0.000120980               0.999999988              -0.000915084               0.000095408               0.999999988              -0.000931228               0.000083403               0.999999988              -0.000939440               0.000078147               0.999999988              -0.000945986               0.000076056               0.999999988              -0.000952970               0.000075523               0.999999988              -0.000960925               0.000075465               0.999999988              -0.000969746               0.000075132               0.999999988              -0.000979198               0.000074269               0.999999988              -0.000988935               0.000072399               0.999999988              -0.000998390               0.000069223               0.999999988              -0.001007213               0.000064458               0.999999988              -0.001015036               0.000057712               0.999999988              -0.001021393               0.000048558               0.999999988              -0.001025909               0.000036480               0.999999988              -0.001028173               0.000020582               0.999999988              -0.001027567              -0.000000462               0.999999988              -0.000858871               0.000240941               0.999999988              -0.000889113               0.000190513               0.999999988              -0.000897905               0.000167721               0.999999988              -0.000901437               0.000158219               0.999999988              -0.000904718               0.000154856               0.999999988              -0.000909053               0.000154311               0.999999988              -0.000914481               0.000154482               0.999999988              -0.000920633               0.000154163               0.999999988              -0.000927206               0.000152693               0.999999988              -0.000933594               0.000149212               0.999999988              -0.000939176               0.000142988               0.999999988              -0.000943463               0.000133548               0.999999988              -0.000946005               0.000120304               0.999999988              -0.000946535               0.000102815               0.999999988              -0.000944840               0.000080395               0.999999988              -0.000940662               0.000051708               0.999999988              -0.000933845               0.000015041               0.999999988              -0.000835418               0.000358880               0.999999988              -0.000847197               0.000285130               0.999999988              -0.000845336               0.000253801               0.999999988              -0.000842549               0.000241840               0.999999988              -0.000841507               0.000238463               0.999999988              -0.000842461               0.000238673               0.999999988              -0.000844705               0.000239679               0.999999988              -0.000847399               0.000239609               0.999999988              -0.000849711               0.000237619               0.999999988              -0.000850998               0.000232530               0.999999988              -0.000850579               0.000223367               0.999999988              -0.000847998               0.000209528               0.999999988              -0.000843002               0.000190687               0.999999988              -0.000835394               0.000166454               0.999999988              -0.000825155               0.000136116               0.999999988              -0.000812270               0.000098722               0.999999988              -0.000797010               0.000053347               0.999999988              -0.000803104               0.000473831               0.999999988              -0.000791357               0.000379379               0.999999988              -0.000777669               0.000342243               0.999999988              -0.000768399               0.000329809               0.999999988              -0.000763311               0.000327709               0.999999988              -0.000760973               0.000329514               0.999999988              -0.000759731               0.000331648               0.999999988              -0.000758383               0.000331946               0.999999988              -0.000755664               0.000329166               0.999999988              -0.000750747               0.000322327               0.999999988              -0.000743006               0.000310288               0.999999988              -0.000732264               0.000292695               0.999999988              -0.000718458               0.000269100               0.999999988              -0.000701557               0.000239458               0.999999988              -0.000681563               0.000203468               0.999999988              -0.000658744               0.000160946               0.999999988              -0.000633766               0.000112074               0.999999988              -0.000762472               0.000584800               0.999999988              -0.000724196               0.000473555               0.999999988              -0.000699410               0.000433490               0.999999988              -0.000685214               0.000422117               0.999999988              -0.000677370               0.000422111               0.999999988              -0.000672379               0.000425775               0.999999988              -0.000667912               0.000429024               0.999999988              -0.000662143               0.000429517               0.999999988              -0.000653670               0.000425631               0.999999988              -0.000641555               0.000416663               0.999999988              -0.000625448               0.000401995               0.999999988              -0.000605458               0.000380900               0.999999988              -0.000581574               0.000353366               0.999999988              -0.000553889               0.000319643               0.999999988              -0.000522829               0.000280118               0.999999988              -0.000489149               0.000235409               0.999999988              -0.000453903               0.000186671               0.999999988              -0.000714237               0.000690745               0.999999988              -0.000648975               0.000567757               0.999999988              -0.000615656               0.000527217               0.999999988              -0.000598936               0.000517848               0.999999988              -0.000589843               0.000520161               0.999999988              -0.000583130               0.000525407               0.999999988              -0.000575554               0.000529460               0.999999988              -0.000564847               0.000529554               0.999999988              -0.000549562               0.000524148               0.999999988              -0.000529055               0.000512853               0.999999988              -0.000503426               0.000495543               0.999999988              -0.000472698               0.000471534               0.999999988              -0.000437402               0.000441010               0.999999988              -0.000398047               0.000404781               0.999999988              -0.000355677               0.000363780               0.999999988              -0.000311460               0.000319592               0.999999988              -0.000266753               0.000273996               0.999999988              -0.000659330               0.000790480               0.999999988              -0.000569246               0.000661824               0.999999988              -0.000531134               0.000622520               0.999999988              -0.000514629               0.000615295               0.999999988              -0.000505693               0.000619554               0.999999988              -0.000497636               0.000626010               0.999999988              -0.000486509               0.000630139               0.999999988              -0.000469865               0.000629212               0.999999988              -0.000446770               0.000621916               0.999999988              -0.000416957               0.000608296               0.999999988              -0.000380641               0.000588471               0.999999988              -0.000338348               0.000561995               0.999999988              -0.000291007               0.000529700               0.999999988              -0.000239911               0.000492696               0.999999988              -0.000186548               0.000452577               0.999999988              -0.000132203               0.000411196               0.999999988              -0.000078158               0.000370528               0.999999988              -0.000599540               0.000882053               0.999999988              -0.000487922               0.000755524               0.999999988              -0.000450186               0.000717934               0.999999988              -0.000435875               0.000712363               0.999999988              -0.000427888               0.000718016               0.999999988              -0.000418144               0.000725148               0.999999988              -0.000402587               0.000728795               0.999999988              -0.000379049               0.000726542               0.999999988              -0.000347145               0.000717446               0.999999988              -0.000306931               0.000701700               0.999999988              -0.000258935               0.000679661               0.999999988              -0.000204210               0.000651738               0.999999988              -0.000144314               0.000619280               0.999999988              -0.000080920               0.000583935               0.999999988              -0.000015581               0.000547664               0.999999988               0.000050044               0.000512079               0.999999988               0.000115079               0.000477977               0.999999988              -0.000537414               0.000968924               0.999999988              -0.000419532               0.000861430               0.999999988              -0.000379572               0.000820991               0.999999988              -0.000365102               0.000811216               0.999999988              -0.000358107               0.000814558               0.999999988              -0.000350536               0.000821996               0.999999988              -0.000338294               0.000828490               0.999999988              -0.000319353               0.000831403               0.999999988              -0.000292647               0.000829414               0.999999988              -0.000258156               0.000822365               0.999999988              -0.000215946               0.000810367               0.999999988              -0.000166637               0.000793788               0.999999988              -0.000111237               0.000773197               0.999999988              -0.000050714               0.000749580               0.999999988               0.000013734               0.000724162               0.999999988               0.000080709               0.000698519               0.999999988               0.000148342               0.000674098               0.999999988              -0.000469718               0.001048206               0.999999988              -0.000353457               0.000964174               0.999999988              -0.000311607               0.000926925               0.999999988              -0.000296029               0.000915414               0.999999988              -0.000289188               0.000917337               0.999999988              -0.000282992               0.000925173               0.999999988              -0.000273371               0.000934286               0.999999988              -0.000258368               0.000941856               0.999999988              -0.000236641               0.000946333               0.999999988              -0.000207886               0.000947054               0.999999988              -0.000171684               0.000944044               0.999999988              -0.000128288               0.000937472               0.999999988              -0.000078200               0.000927706               0.999999988              -0.000022079               0.000915105               0.999999988               0.000039528               0.000900436               0.999999988               0.000105557               0.000884598               0.999999988               0.000174004               0.000868985               0.999999988              -0.000397894               0.001117847               0.999999988              -0.000289950               0.001060391               0.999999988              -0.000247924               0.001030729               0.999999988              -0.000231162               0.001020637               0.999999988              -0.000223821               0.001022693               0.999999988              -0.000218240               0.001031493               0.999999988              -0.000210506               0.001043167               0.999999988              -0.000198798               0.001055072               0.999999988              -0.000181808               0.001065471               0.999999988              -0.000158594               0.001073551               0.999999988              -0.000128440               0.001078886               0.999999988              -0.000091277               0.001081429               0.999999988              -0.000047455               0.001081382               0.999999988               0.000002977               0.001078991               0.999999988               0.000060174               0.001074712               0.999999988               0.000123425               0.001068904               0.999999988               0.000191679               0.001062565               0.999999988              -0.000322551               0.001176695               0.999999988              -0.000228924               0.001146259               0.999999988              -0.000189414               0.001127171               0.999999988              -0.000172342               0.001121119               0.999999988              -0.000164418               0.001125045               0.999999988              -0.000159223               0.001135570               0.999999988              -0.000152891               0.001149812               0.999999988              -0.000143889               0.001165754               0.999999988              -0.000131005               0.001181692               0.999999988              -0.000113097               0.001196587               0.999999988              -0.000089183               0.001209805               0.999999988              -0.000058809               0.001221057               0.999999988              -0.000021907               0.001230335               0.999999988               0.000021756               0.001237656               0.999999988               0.000072612               0.001243167               0.999999988               0.000130936               0.001247154               0.999999988               0.000196706               0.001250160               0.999999988              -0.000244459               0.001223516               0.999999988              -0.000170017               0.001217718               0.999999988              -0.000136243               0.001210494               0.999999988              -0.000120550               0.001210133               0.999999988              -0.000112809               0.001217237               0.999999988              -0.000108029               0.001230238               0.999999988              -0.000103082               0.001247282               0.999999988              -0.000096306               0.001266764               0.999999988              -0.000086884               0.001287572               0.999999988              -0.000073871               0.001308611               0.999999988              -0.000056286               0.001328960               0.999999988              -0.000033153               0.001348399               0.999999988              -0.000004143               0.001366612               0.999999988               0.000031013               0.001383329               0.999999988               0.000073103               0.001398398               0.999999988               0.000123267               0.001411826               0.999999988               0.000183003               0.001423907               0.999999988              -0.000164207               0.001257687               0.999999988              -0.000112572               0.001271430               0.999999988              -0.000087811               0.001274977               0.999999988              -0.000075630               0.001280609               0.999999988              -0.000069393               0.001291341               0.999999988              -0.000065563               0.001307061               0.999999988              -0.000062051               0.001326858               0.999999988              -0.000057351               0.001349593               0.999999988              -0.000051079               0.001374231               0.999999988              -0.000042623               0.001399931               0.999999988              -0.000030956               0.001426219               0.999999988              -0.000015328               0.001452561               0.999999988               0.000004675               0.001478530               0.999999988               0.000029427               0.001503829               0.999999988               0.000059906               0.001528038               0.999999988               0.000097582               0.001550699               0.999999988               0.000144584               0.001571476               0.999999988              -0.000082465               0.001278502               0.999999988              -0.000056074               0.001304758               0.999999988              -0.000042966               0.001315719               0.999999988              -0.000036282               0.001325882               0.999999988              -0.000032761               0.001339526               0.999999988              -0.000030569               0.001357515               0.999999988              -0.000028667               0.001379508               0.999999988              -0.000026255               0.001404519               0.999999988              -0.000023186               0.001431834               0.999999988              -0.000019016               0.001460877               0.999999988              -0.000013071               0.001491208               0.999999988              -0.000005113               0.001522252               0.999999988               0.000005134               0.001553558               0.999999988               0.000018095               0.001584727               0.999999988               0.000034236               0.001615270               0.999999988               0.000054520               0.001644623               0.999999988               0.000080532               0.001672011               0.999999988               0.000000000               0.001285414               0.999999988               0.000000000               0.001316016               0.999999988              -0.000000000               0.001329695               0.999999988               0.000000000               0.001341530               0.999999988               0.000000000               0.001356289               0.999999988               0.000000000               0.001375147               0.999999988              -0.000000000               0.001397891               0.999999988               0.000000000               0.001423685               0.999999988               0.000000000               0.001452034               0.999999988               0.000000000               0.001482278               0.999999988              -0.000000000               0.001513939               0.999999988              -0.000000000               0.001546603               0.999999988              -0.000000000               0.001579820               0.999999988              -0.000000000               0.001613119               0.999999988               0.000000000               0.001645861               0.999999988              -0.000000000               0.001677464               0.999999988               0.000000000               0.001707180               0.999999988              -0.000878026              -0.000000000               0.999999988              -0.000923909               0.000000000               0.999999988              -0.000942645              -0.000000000               0.999999988              -0.000952587               0.000000000               0.999999988              -0.000960393               0.000000000               0.999999988              -0.000968425              -0.000000000               0.999999988              -0.000977360               0.000000000               0.999999988              -0.000987199               0.000000000               0.999999988              -0.000997656              -0.000000000               0.999999988              -0.001008531              -0.000000000               0.999999988              -0.001019351              -0.000000000               0.999999988              -0.001029796              -0.000000000               0.999999988              -0.001039507              -0.000000000               0.999999988              -0.001048101               0.000000000               0.999999988              -0.001055055              -0.000000000               0.999999988              -0.001059731              -0.000000000               0.999999988              -0.001061479              -0.000000000               0.999999988              -0.000873175              -0.000120980               0.999999988              -0.000915084              -0.000095408               0.999999988              -0.000931228              -0.000083403               0.999999988              -0.000939440              -0.000078147               0.999999988              -0.000945986              -0.000076056               0.999999988              -0.000952970              -0.000075523               0.999999988              -0.000960925              -0.000075465               0.999999988              -0.000969746              -0.000075132               0.999999988              -0.000979198              -0.000074269               0.999999988              -0.000988935              -0.000072399               0.999999988              -0.000998390              -0.000069223               0.999999988              -0.001007213              -0.000064458               0.999999988              -0.001015036              -0.000057712               0.999999988              -0.001021393              -0.000048558               0.999999988              -0.001025909              -0.000036480               0.999999988              -0.001028173              -0.000020582               0.999999988              -0.001027567               0.000000462               0.999999988              -0.000858871              -0.000240941               0.999999988              -0.000889113              -0.000190513               0.999999988              -0.000897905              -0.000167721               0.999999988              -0.000901437              -0.000158219               0.999999988              -0.000904718              -0.000154856               0.999999988              -0.000909053              -0.000154311               0.999999988              -0.000914481              -0.000154482               0.999999988              -0.000920633              -0.000154163               0.999999988              -0.000927206              -0.000152693               0.999999988              -0.000933594              -0.000149212               0.999999988              -0.000939176              -0.000142988               0.999999988              -0.000943463              -0.000133548               0.999999988              -0.000946005              -0.000120304               0.999999988              -0.000946535              -0.000102815               0.999999988              -0.000944840              -0.000080395               0.999999988              -0.000940662              -0.000051708               0.999999988              -0.000933845              -0.000015041               0.999999988              -0.000835418              -0.000358880               0.999999988              -0.000847197              -0.000285130               0.999999988              -0.000845336              -0.000253801               0.999999988              -0.000842549              -0.000241840               0.999999988              -0.000841507              -0.000238463               0.999999988              -0.000842461              -0.000238673               0.999999988              -0.000844705              -0.000239679               0.999999988              -0.000847399              -0.000239609               0.999999988              -0.000849711              -0.000237619               0.999999988              -0.000850998              -0.000232530               0.999999988              -0.000850579              -0.000223367               0.999999988              -0.000847998              -0.000209528               0.999999988              -0.000843002              -0.000190687               0.999999988              -0.000835394              -0.000166454               0.999999988              -0.000825155              -0.000136116               0.999999988              -0.000812270              -0.000098722               0.999999988              -0.000797010              -0.000053347               0.999999988              -0.000803104              -0.000473831               0.999999988              -0.000791357              -0.000379379               0.999999988              -0.000777669              -0.000342243               0.999999988              -0.000768399              -0.000329809               0.999999988              -0.000763311              -0.000327709               0.999999988              -0.000760973              -0.000329514               0.999999988              -0.000759731              -0.000331648               0.999999988              -0.000758383              -0.000331946               0.999999988              -0.000755664              -0.000329166               0.999999988              -0.000750747              -0.000322327               0.999999988              -0.000743006              -0.000310288               0.999999988              -0.000732264              -0.000292695               0.999999988              -0.000718458              -0.000269100               0.999999988              -0.000701557              -0.000239458               0.999999988              -0.000681563              -0.000203468               0.999999988              -0.000658744              -0.000160946               0.999999988              -0.000633766              -0.000112074               0.999999988              -0.000762472              -0.000584800               0.999999988              -0.000724196              -0.000473555               0.999999988              -0.000699410              -0.000433490               0.999999988              -0.000685214              -0.000422117               0.999999988              -0.000677370              -0.000422111               0.999999988              -0.000672379              -0.000425775               0.999999988              -0.000667912              -0.000429024               0.999999988              -0.000662143              -0.000429517               0.999999988              -0.000653670              -0.000425631               0.999999988              -0.000641555              -0.000416663               0.999999988              -0.000625448              -0.000401995               0.999999988              -0.000605458              -0.000380900               0.999999988              -0.000581574              -0.000353366               0.999999988              -0.000553889              -0.000319643               0.999999988              -0.000522829              -0.000280118               0.999999988              -0.000489149              -0.000235409               0.999999988              -0.000453903              -0.000186671               0.999999988              -0.000714237              -0.000690745               0.999999988              -0.000648975              -0.000567757               0.999999988              -0.000615656              -0.000527217               0.999999988              -0.000598936              -0.000517848               0.999999988              -0.000589843              -0.000520161               0.999999988              -0.000583130              -0.000525407               0.999999988              -0.000575554              -0.000529460               0.999999988              -0.000564847              -0.000529554               0.999999988              -0.000549562              -0.000524148               0.999999988              -0.000529055              -0.000512853               0.999999988              -0.000503426              -0.000495543               0.999999988              -0.000472698              -0.000471534               0.999999988              -0.000437402              -0.000441010               0.999999988              -0.000398047              -0.000404781               0.999999988              -0.000355677              -0.000363780               0.999999988              -0.000311460              -0.000319592               0.999999988              -0.000266753              -0.000273996               0.999999988              -0.000659330              -0.000790480               0.999999988              -0.000569246              -0.000661824               0.999999988              -0.000531134              -0.000622520               0.999999988              -0.000514629              -0.000615295               0.999999988              -0.000505693              -0.000619554               0.999999988              -0.000497636              -0.000626010               0.999999988              -0.000486509              -0.000630139               0.999999988              -0.000469865              -0.000629212               0.999999988              -0.000446770              -0.000621916               0.999999988              -0.000416957              -0.000608296               0.999999988              -0.000380641              -0.000588471               0.999999988              -0.000338348              -0.000561995               0.999999988              -0.000291007              -0.000529700               0.999999988              -0.000239911              -0.000492696               0.999999988              -0.000186548              -0.000452577               0.999999988              -0.000132203              -0.000411196               0.999999988              -0.000078158              -0.000370528               0.999999988              -0.000599540              -0.000882053               0.999999988              -0.000487922              -0.000755524               0.999999988              -0.000450186              -0.000717934               0.999999988              -0.000435875              -0.000712363               0.999999988              -0.000427888              -0.000718016               0.999999988              -0.000418144              -0.000725148               0.999999988              -0.000402587              -0.000728795               0.999999988              -0.000379049              -0.000726542               0.999999988              -0.000347145              -0.000717446               0.999999988              -0.000306931              -0.000701700               0.999999988              -0.000258935              -0.000679661               0.999999988              -0.000204210              -0.000651738               0.999999988              -0.000144314              -0.000619280               0.999999988              -0.000080920              -0.000583935               0.999999988              -0.000015581              -0.000547664               0.999999988               0.000050044              -0.000512079               0.999999988               0.000115079              -0.000477977               0.999999988              -0.000537414              -0.000968924               0.999999988              -0.000419532              -0.000861430               0.999999988              -0.000379572              -0.000820991               0.999999988              -0.000365102              -0.000811216               0.999999988              -0.000358107              -0.000814558               0.999999988              -0.000350536              -0.000821996               0.999999988              -0.000338294              -0.000828490               0.999999988              -0.000319353              -0.000831403               0.999999988              -0.000292647              -0.000829414               0.999999988              -0.000258156              -0.000822365               0.999999988              -0.000215946              -0.000810367               0.999999988              -0.000166637              -0.000793788               0.999999988              -0.000111237              -0.000773197               0.999999988              -0.000050714              -0.000749580               0.999999988               0.000013734              -0.000724162               0.999999988               0.000080709              -0.000698519               0.999999988               0.000148342              -0.000674098               0.999999988              -0.000469718              -0.001048206               0.999999988              -0.000353457              -0.000964174               0.999999988              -0.000311607              -0.000926925               0.999999988              -0.000296029              -0.000915414               0.999999988              -0.000289188              -0.000917337               0.999999988              -0.000282992              -0.000925173               0.999999988              -0.000273371              -0.000934286               0.999999988              -0.000258368              -0.000941856               0.999999988              -0.000236641              -0.000946333               0.999999988              -0.000207886              -0.000947054               0.999999988              -0.000171684              -0.000944044               0.999999988              -0.000128288              -0.000937472               0.999999988              -0.000078200              -0.000927706               0.999999988              -0.000022079              -0.000915105               0.999999988               0.000039528              -0.000900436               0.999999988               0.000105557              -0.000884598               0.999999988               0.000174004              -0.000868985               0.999999988              -0.000397894              -0.001117847               0.999999988              -0.000289950              -0.001060391               0.999999988              -0.000247924              -0.001030729               0.999999988              -0.000231162              -0.001020637               0.999999988              -0.000223821              -0.001022693               0.999999988              -0.000218240              -0.001031493               0.999999988              -0.000210506              -0.001043167               0.999999988              -0.000198798              -0.001055072               0.999999988              -0.000181808              -0.001065471               0.999999988              -0.000158594              -0.001073551               0.999999988              -0.000128440              -0.001078886               0.999999988              -0.000091277              -0.001081429               0.999999988              -0.000047455              -0.001081382               0.999999988               0.000002977              -0.001078991               0.999999988               0.000060174              -0.001074712               0.999999988               0.000123425              -0.001068904               0.999999988               0.000191679              -0.001062565               0.999999988              -0.000322551              -0.001176695               0.999999988              -0.000228924              -0.001146259               0.999999988              -0.000189414              -0.001127171               0.999999988              -0.000172342              -0.001121119               0.999999988              -0.000164418              -0.001125045               0.999999988              -0.000159223              -0.001135570               0.999999988              -0.000152891              -0.001149812               0.999999988              -0.000143889              -0.001165754               0.999999988              -0.000131005              -0.001181692               0.999999988              -0.000113097              -0.001196587               0.999999988              -0.000089183              -0.001209805               0.999999988              -0.000058809              -0.001221057               0.999999988              -0.000021907              -0.001230335               0.999999988               0.000021756              -0.001237656               0.999999988               0.000072612              -0.001243167               0.999999988               0.000130936              -0.001247154               0.999999988               0.000196706              -0.001250160               0.999999988              -0.000244459              -0.001223516               0.999999988              -0.000170017              -0.001217718               0.999999988              -0.000136243              -0.001210494               0.999999988              -0.000120550              -0.001210133               0.999999988              -0.000112809              -0.001217237               0.999999988              -0.000108029              -0.001230238               0.999999988              -0.000103082              -0.001247282               0.999999988              -0.000096306              -0.001266764               0.999999988              -0.000086884              -0.001287572               0.999999988              -0.000073871              -0.001308611               0.999999988              -0.000056286              -0.001328960               0.999999988              -0.000033153              -0.001348399               0.999999988              -0.000004143              -0.001366612               0.999999988               0.000031013              -0.001383329               0.999999988               0.000073103              -0.001398398               0.999999988               0.000123267              -0.001411826               0.999999988               0.000183003              -0.001423907               0.999999988              -0.000164207              -0.001257687               0.999999988              -0.000112572              -0.001271430               0.999999988              -0.000087811              -0.001274977               0.999999988              -0.000075630              -0.001280609               0.999999988              -0.000069393              -0.001291341               0.999999988              -0.000065563              -0.001307061               0.999999988              -0.000062051              -0.001326858               0.999999988              -0.000057351              -0.001349593               0.999999988              -0.000051079              -0.001374231               0.999999988              -0.000042623              -0.001399931               0.999999988              -0.000030956              -0.001426219               0.999999988              -0.000015328              -0.001452561               0.999999988               0.000004675              -0.001478530               0.999999988               0.000029427              -0.001503829               0.999999988               0.000059906              -0.001528038               0.999999988               0.000097582              -0.001550699               0.999999988               0.000144584              -0.001571476               0.999999988              -0.000082465              -0.001278502               0.999999988              -0.000056074              -0.001304758               0.999999988              -0.000042966              -0.001315719               0.999999988              -0.000036282              -0.001325882               0.999999988              -0.000032761              -0.001339526               0.999999988              -0.000030569              -0.001357515               0.999999988              -0.000028667              -0.001379508               0.999999988              -0.000026255              -0.001404519               0.999999988              -0.000023186              -0.001431834               0.999999988              -0.000019016              -0.001460877               0.999999988              -0.000013071              -0.001491208               0.999999988              -0.000005113              -0.001522252               0.999999988               0.000005134              -0.001553558               0.999999988               0.000018095              -0.001584727               0.999999988               0.000034236              -0.001615270               0.999999988               0.000054520              -0.001644623               0.999999988               0.000080532              -0.001672011               0.999999988              -0.000000000              -0.001285414               0.999999988              -0.000000000              -0.001316016               0.999999988               0.000000000              -0.001329695               0.999999988              -0.000000000              -0.001341530               0.999999988               0.000000000              -0.001356289               0.999999988               0.000000000              -0.001375147               0.999999988               0.000000000              -0.001397891               0.999999988               0.000000000              -0.001423685               0.999999988              -0.000000000              -0.001452034               0.999999988              -0.000000000              -0.001482278               0.999999988               0.000000000              -0.001513939               0.999999988               0.000000000              -0.001546603               0.999999988              -0.000000000              -0.001579820               0.999999988               0.000000000              -0.001613119               0.999999988               0.000000000              -0.001645861               0.999999988              -0.000000000              -0.001677464               0.999999988              -0.000000000              -0.001707180               0.999999988               0.000878026               0.000000000               0.999999988               0.000923909               0.000000000               0.999999988               0.000942645               0.000000000               0.999999988               0.000952587               0.000000000               0.999999988               0.000960393              -0.000000000               0.999999988               0.000968425               0.000000000               0.999999988               0.000977360               0.000000000               0.999999988               0.000987199               0.000000000               0.999999988               0.000997656               0.000000000               0.999999988               0.001008531               0.000000000               0.999999988               0.001019351               0.000000000               0.999999988               0.001029796              -0.000000000               0.999999988               0.001039507               0.000000000               0.999999988               0.001048101              -0.000000000               0.999999988               0.001055055               0.000000000               0.999999988               0.001059731               0.000000000               0.999999988               0.001061479               0.000000000               0.999999988               0.000873175              -0.000120980               0.999999988               0.000915084              -0.000095408               0.999999988               0.000931228              -0.000083403               0.999999988               0.000939440              -0.000078147               0.999999988               0.000945986              -0.000076056               0.999999988               0.000952970              -0.000075523               0.999999988               0.000960925              -0.000075465               0.999999988               0.000969746              -0.000075132               0.999999988               0.000979198              -0.000074269               0.999999988               0.000988935              -0.000072399               0.999999988               0.000998390              -0.000069223               0.999999988               0.001007213              -0.000064458               0.999999988               0.001015036              -0.000057712               0.999999988               0.001021393              -0.000048558               0.999999988               0.001025909              -0.000036480               0.999999988               0.001028173              -0.000020582               0.999999988               0.001027567               0.000000462               0.999999988               0.000858871              -0.000240941               0.999999988               0.000889113              -0.000190513               0.999999988               0.000897905              -0.000167721               0.999999988               0.000901437              -0.000158219               0.999999988               0.000904718              -0.000154856               0.999999988               0.000909053              -0.000154311               0.999999988               0.000914481              -0.000154482               0.999999988               0.000920633              -0.000154163               0.999999988               0.000927206              -0.000152693               0.999999988               0.000933594              -0.000149212               0.999999988               0.000939176              -0.000142988               0.999999988               0.000943463              -0.000133548               0.999999988               0.000946005              -0.000120304               0.999999988               0.000946535              -0.000102815               0.999999988               0.000944840              -0.000080395               0.999999988               0.000940662              -0.000051708               0.999999988               0.000933845              -0.000015041               0.999999988               0.000835418              -0.000358880               0.999999988               0.000847197              -0.000285130               0.999999988               0.000845336              -0.000253801               0.999999988               0.000842549              -0.000241840               0.999999988               0.000841507              -0.000238463               0.999999988               0.000842461              -0.000238673               0.999999988               0.000844705              -0.000239679               0.999999988               0.000847399              -0.000239609               0.999999988               0.000849711              -0.000237619               0.999999988               0.000850998              -0.000232530               0.999999988               0.000850579              -0.000223367               0.999999988               0.000847998              -0.000209528               0.999999988               0.000843002              -0.000190687               0.999999988               0.000835394              -0.000166454               0.999999988               0.000825155              -0.000136116               0.999999988               0.000812270              -0.000098722               0.999999988               0.000797010              -0.000053347               0.999999988               0.000803104              -0.000473831               0.999999988               0.000791357              -0.000379379               0.999999988               0.000777669              -0.000342243               0.999999988               0.000768399              -0.000329809               0.999999988               0.000763311              -0.000327709               0.999999988               0.000760973              -0.000329514               0.999999988               0.000759731              -0.000331648               0.999999988               0.000758383              -0.000331946               0.999999988               0.000755664              -0.000329166               0.999999988               0.000750747              -0.000322327               0.999999988               0.000743006              -0.000310288               0.999999988               0.000732264              -0.000292695               0.999999988               0.000718458              -0.000269100               0.999999988               0.000701557              -0.000239458               0.999999988               0.000681563              -0.000203468               0.999999988               0.000658744              -0.000160946               0.999999988               0.000633766              -0.000112074               0.999999988               0.000762472              -0.000584800               0.999999988               0.000724196              -0.000473555               0.999999988               0.000699410              -0.000433490               0.999999988               0.000685214              -0.000422117               0.999999988               0.000677370              -0.000422111               0.999999988               0.000672379              -0.000425775               0.999999988               0.000667912              -0.000429024               0.999999988               0.000662143              -0.000429517               0.999999988               0.000653670              -0.000425631               0.999999988               0.000641555              -0.000416663               0.999999988               0.000625448              -0.000401995               0.999999988               0.000605458              -0.000380900               0.999999988               0.000581574              -0.000353366               0.999999988               0.000553889              -0.000319643               0.999999988               0.000522829              -0.000280118               0.999999988               0.000489149              -0.000235409               0.999999988               0.000453903              -0.000186671               0.999999988               0.000714237              -0.000690745               0.999999988               0.000648975              -0.000567757               0.999999988               0.000615656              -0.000527217               0.999999988               0.000598936              -0.000517848               0.999999988               0.000589843              -0.000520161               0.999999988               0.000583130              -0.000525407               0.999999988               0.000575554              -0.000529460               0.999999988               0.000564847              -0.000529554               0.999999988               0.000549562              -0.000524148               0.999999988               0.000529055              -0.000512853               0.999999988               0.000503426              -0.000495543               0.999999988               0.000472698              -0.000471534               0.999999988               0.000437402              -0.000441010               0.999999988               0.000398047              -0.000404781               0.999999988               0.000355677              -0.000363780               0.999999988               0.000311460              -0.000319592               0.999999988               0.000266753              -0.000273996               0.999999988               0.000659330              -0.000790480               0.999999988               0.000569246              -0.000661824               0.999999988               0.000531134              -0.000622520               0.999999988               0.000514629              -0.000615295               0.999999988               0.000505693              -0.000619554               0.999999988               0.000497636              -0.000626010               0.999999988               0.000486509              -0.000630139               0.999999988               0.000469865              -0.000629212               0.999999988               0.000446770              -0.000621916               0.999999988               0.000416957              -0.000608296               0.999999988               0.000380641              -0.000588471               0.999999988               0.000338348              -0.000561995               0.999999988               0.000291007              -0.000529700               0.999999988               0.000239911              -0.000492696               0.999999988               0.000186548              -0.000452577               0.999999988               0.000132203              -0.000411196               0.999999988               0.000078158              -0.000370528               0.999999988               0.000599540              -0.000882053               0.999999988               0.000487922              -0.000755524               0.999999988               0.000450186              -0.000717934               0.999999988               0.000435875              -0.000712363               0.999999988               0.000427888              -0.000718016               0.999999988               0.000418144              -0.000725148               0.999999988               0.000402587              -0.000728795               0.999999988               0.000379049              -0.000726542               0.999999988               0.000347145              -0.000717446               0.999999988               0.000306931              -0.000701700               0.999999988               0.000258935              -0.000679661               0.999999988               0.000204210              -0.000651738               0.999999988               0.000144314              -0.000619280               0.999999988               0.000080920              -0.000583935               0.999999988               0.000015581              -0.000547664               0.999999988              -0.000050044              -0.000512079               0.999999988              -0.000115079              -0.000477977               0.999999988               0.000537414              -0.000968924               0.999999988               0.000419532              -0.000861430               0.999999988               0.000379572              -0.000820991               0.999999988               0.000365102              -0.000811216               0.999999988               0.000358107              -0.000814558               0.999999988               0.000350536              -0.000821996               0.999999988               0.000338294              -0.000828490               0.999999988               0.000319353              -0.000831403               0.999999988               0.000292647              -0.000829414               0.999999988               0.000258156              -0.000822365               0.999999988               0.000215946              -0.000810367               0.999999988               0.000166637              -0.000793788               0.999999988               0.000111237              -0.000773197               0.999999988               0.000050714              -0.000749580               0.999999988              -0.000013734              -0.000724162               0.999999988              -0.000080709              -0.000698519               0.999999988              -0.000148342              -0.000674098               0.999999988               0.000469718              -0.001048206               0.999999988               0.000353457              -0.000964174               0.999999988               0.000311607              -0.000926925               0.999999988               0.000296029              -0.000915414               0.999999988               0.000289188              -0.000917337               0.999999988               0.000282992              -0.000925173               0.999999988               0.000273371              -0.000934286               0.999999988               0.000258368              -0.000941856               0.999999988               0.000236641              -0.000946333               0.999999988               0.000207886              -0.000947054               0.999999988               0.000171684              -0.000944044               0.999999988               0.000128288              -0.000937472               0.999999988               0.000078200              -0.000927706               0.999999988               0.000022079              -0.000915105               0.999999988              -0.000039528              -0.000900436               0.999999988              -0.000105557              -0.000884598               0.999999988              -0.000174004              -0.000868985               0.999999988               0.000397894              -0.001117847               0.999999988               0.000289950              -0.001060391               0.999999988               0.000247924              -0.001030729               0.999999988               0.000231162              -0.001020637               0.999999988               0.000223821              -0.001022693               0.999999988               0.000218240              -0.001031493               0.999999988               0.000210506              -0.001043167               0.999999988               0.000198798              -0.001055072               0.999999988               0.000181808              -0.001065471               0.999999988               0.000158594              -0.001073551               0.999999988               0.000128440              -0.001078886               0.999999988               0.000091277              -0.001081429               0.999999988               0.000047455              -0.001081382               0.999999988              -0.000002977              -0.001078991               0.999999988              -0.000060174              -0.001074712               0.999999988              -0.000123425              -0.001068904               0.999999988              -0.000191679              -0.001062565               0.999999988               0.000322551              -0.001176695               0.999999988               0.000228924              -0.001146259               0.999999988               0.000189414              -0.001127171               0.999999988               0.000172342              -0.001121119               0.999999988               0.000164418              -0.001125045               0.999999988               0.000159223              -0.001135570               0.999999988               0.000152891              -0.001149812               0.999999988               0.000143889              -0.001165754               0.999999988               0.000131005              -0.001181692               0.999999988               0.000113097              -0.001196587               0.999999988               0.000089183              -0.001209805               0.999999988               0.000058809              -0.001221057               0.999999988               0.000021907              -0.001230335               0.999999988              -0.000021756              -0.001237656               0.999999988              -0.000072612              -0.001243167               0.999999988              -0.000130936              -0.001247154               0.999999988              -0.000196706              -0.001250160               0.999999988               0.000244459              -0.001223516               0.999999988               0.000170017              -0.001217718               0.999999988               0.000136243              -0.001210494               0.999999988               0.000120550              -0.001210133               0.999999988               0.000112809              -0.001217237               0.999999988               0.000108029              -0.001230238               0.999999988               0.000103082              -0.001247282               0.999999988               0.000096306              -0.001266764               0.999999988               0.000086884              -0.001287572               0.999999988               0.000073871              -0.001308611               0.999999988               0.000056286              -0.001328960               0.999999988               0.000033153              -0.001348399               0.999999988               0.000004143              -0.001366612               0.999999988              -0.000031013              -0.001383329               0.999999988              -0.000073103              -0.001398398               0.999999988              -0.000123267              -0.001411826               0.999999988              -0.000183003              -0.001423907               0.999999988               0.000164207              -0.001257687               0.999999988               0.000112572              -0.001271430               0.999999988               0.000087811              -0.001274977               0.999999988               0.000075630              -0.001280609               0.999999988               0.000069393              -0.001291341               0.999999988               0.000065563              -0.001307061               0.999999988               0.000062051              -0.001326858               0.999999988               0.000057351              -0.001349593               0.999999988               0.000051079              -0.001374231               0.999999988               0.000042623              -0.001399931               0.999999988               0.000030956              -0.001426219               0.999999988               0.000015328              -0.001452561               0.999999988              -0.000004675              -0.001478530               0.999999988              -0.000029427              -0.001503829               0.999999988              -0.000059906              -0.001528038               0.999999988              -0.000097582              -0.001550699               0.999999988              -0.000144584              -0.001571476               0.999999988               0.000082465              -0.001278502               0.999999988               0.000056074              -0.001304758               0.999999988               0.000042966              -0.001315719               0.999999988               0.000036282              -0.001325882               0.999999988               0.000032761              -0.001339526               0.999999988               0.000030569              -0.001357515               0.999999988               0.000028667              -0.001379508               0.999999988               0.000026255              -0.001404519               0.999999988               0.000023186              -0.001431834               0.999999988               0.000019016              -0.001460877               0.999999988               0.000013071              -0.001491208               0.999999988               0.000005113              -0.001522252               0.999999988              -0.000005134              -0.001553558               0.999999988              -0.000018095              -0.001584727               0.999999988              -0.000034236              -0.001615270               0.999999988              -0.000054520              -0.001644623               0.999999988              -0.000080532              -0.001672011               0.999999988              -0.000000000              -0.001285414               0.999999988              -0.000000000              -0.001316016               0.999999988               0.000000000              -0.001329695               0.999999988              -0.000000000              -0.001341530               0.999999988               0.000000000              -0.001356289               0.999999988               0.000000000              -0.001375147               0.999999988               0.000000000              -0.001397891               0.999999988               0.000000000              -0.001423685               0.999999988              -0.000000000              -0.001452034               0.999999988              -0.000000000              -0.001482278               0.999999988               0.000000000              -0.001513939               0.999999988               0.000000000              -0.001546603               0.999999988              -0.000000000              -0.001579820               0.999999988               0.000000000              -0.001613119               0.999999988               0.000000000              -0.001645861               0.999999988              -0.000000000              -0.001677464               0.999999988              -0.000000000              -0.001707180               0.999999988               0.000878026               0.000000000               0.999999988               0.000923909               0.000000000               0.999999988               0.000942645               0.000000000               0.999999988               0.000952587               0.000000000               0.999999988               0.000960393              -0.000000000               0.999999988               0.000968425               0.000000000               0.999999988               0.000977360               0.000000000               0.999999988               0.000987199               0.000000000               0.999999988               0.000997656               0.000000000               0.999999988               0.001008531               0.000000000               0.999999988               0.001019351               0.000000000               0.999999988               0.001029796              -0.000000000               0.999999988               0.001039507               0.000000000               0.999999988               0.001048101              -0.000000000               0.999999988               0.001055055               0.000000000               0.999999988               0.001059731               0.000000000               0.999999988               0.001061479               0.000000000               0.999999988               0.000873175               0.000120980               0.999999988               0.000915084               0.000095408               0.999999988               0.000931228               0.000083403               0.999999988               0.000939440               0.000078147               0.999999988               0.000945986               0.000076056               0.999999988               0.000952970               0.000075523               0.999999988               0.000960925               0.000075465               0.999999988               0.000969746               0.000075132               0.999999988               0.000979198               0.000074269               0.999999988               0.000988935               0.000072399               0.999999988               0.000998390               0.000069223               0.999999988               0.001007213               0.000064458               0.999999988               0.001015036               0.000057712               0.999999988               0.001021393               0.000048558               0.999999988               0.001025909               0.000036480               0.999999988               0.001028173               0.000020582               0.999999988               0.001027567              -0.000000462               0.999999988               0.000858871               0.000240941               0.999999988               0.000889113               0.000190513               0.999999988               0.000897905               0.000167721               0.999999988               0.000901437               0.000158219               0.999999988               0.000904718               0.000154856               0.999999988               0.000909053               0.000154311               0.999999988               0.000914481               0.000154482               0.999999988               0.000920633               0.000154163               0.999999988               0.000927206               0.000152693               0.999999988               0.000933594               0.000149212               0.999999988               0.000939176               0.000142988               0.999999988               0.000943463               0.000133548               0.999999988               0.000946005               0.000120304               0.999999988               0.000946535               0.000102815               0.999999988               0.000944840               0.000080395               0.999999988               0.000940662               0.000051708               0.999999988               0.000933845               0.000015041               0.999999988               0.000835418               0.000358880               0.999999988               0.000847197               0.000285130               0.999999988               0.000845336               0.000253801               0.999999988               0.000842549               0.000241840               0.999999988               0.000841507               0.000238463               0.999999988               0.000842461               0.000238673               0.999999988               0.000844705               0.000239679               0.999999988               0.000847399               0.000239609               0.999999988               0.000849711               0.000237619               0.999999988               0.000850998               0.000232530               0.999999988               0.000850579               0.000223367               0.999999988               0.000847998               0.000209528               0.999999988               0.000843002               0.000190687               0.999999988               0.000835394               0.000166454               0.999999988               0.000825155               0.000136116               0.999999988               0.000812270               0.000098722               0.999999988               0.000797010               0.000053347               0.999999988               0.000803104               0.000473831               0.999999988               0.000791357               0.000379379               0.999999988               0.000777669               0.000342243               0.999999988               0.000768399               0.000329809               0.999999988               0.000763311               0.000327709               0.999999988               0.000760973               0.000329514               0.999999988               0.000759731               0.000331648               0.999999988               0.000758383               0.000331946               0.999999988               0.000755664               0.000329166               0.999999988               0.000750747               0.000322327               0.999999988               0.000743006               0.000310288               0.999999988               0.000732264               0.000292695               0.999999988               0.000718458               0.000269100               0.999999988               0.000701557               0.000239458               0.999999988               0.000681563               0.000203468               0.999999988               0.000658744               0.000160946               0.999999988               0.000633766               0.000112074               0.999999988               0.000762472               0.000584800               0.999999988               0.000724196               0.000473555               0.999999988               0.000699410               0.000433490               0.999999988               0.000685214               0.000422117               0.999999988               0.000677370               0.000422111               0.999999988               0.000672379               0.000425775               0.999999988               0.000667912               0.000429024               0.999999988               0.000662143               0.000429517               0.999999988               0.000653670               0.000425631               0.999999988               0.000641555               0.000416663               0.999999988               0.000625448               0.000401995               0.999999988               0.000605458               0.000380900               0.999999988               0.000581574               0.000353366               0.999999988               0.000553889               0.000319643               0.999999988               0.000522829               0.000280118               0.999999988               0.000489149               0.000235409               0.999999988               0.000453903               0.000186671               0.999999988               0.000714237               0.000690745               0.999999988               0.000648975               0.000567757               0.999999988               0.000615656               0.000527217               0.999999988               0.000598936               0.000517848               0.999999988               0.000589843               0.000520161               0.999999988               0.000583130               0.000525407               0.999999988               0.000575554               0.000529460               0.999999988               0.000564847               0.000529554               0.999999988               0.000549562               0.000524148               0.999999988               0.000529055               0.000512853               0.999999988               0.000503426               0.000495543               0.999999988               0.000472698               0.000471534               0.999999988               0.000437402               0.000441010               0.999999988               0.000398047               0.000404781               0.999999988               0.000355677               0.000363780               0.999999988               0.000311460               0.000319592               0.999999988               0.000266753               0.000273996               0.999999988               0.000659330               0.000790480               0.999999988               0.000569246               0.000661824               0.999999988               0.000531134               0.000622520               0.999999988               0.000514629               0.000615295               0.999999988               0.000505693               0.000619554               0.999999988               0.000497636               0.000626010               0.999999988               0.000486509               0.000630139               0.999999988               0.000469865               0.000629212               0.999999988               0.000446770               0.000621916               0.999999988               0.000416957               0.000608296               0.999999988               0.000380641               0.000588471               0.999999988               0.000338348               0.000561995               0.999999988               0.000291007               0.000529700               0.999999988               0.000239911               0.000492696               0.999999988               0.000186548               0.000452577               0.999999988               0.000132203               0.000411196               0.999999988               0.000078158               0.000370528               0.999999988               0.000599540               0.000882053               0.999999988               0.000487922               0.000755524               0.999999988               0.000450186               0.000717934               0.999999988               0.000435875               0.000712363               0.999999988               0.000427888               0.000718016               0.999999988               0.000418144               0.000725148               0.999999988               0.000402587               0.000728795               0.999999988               0.000379049               0.000726542               0.999999988               0.000347145               0.000717446               0.999999988               0.000306931               0.000701700               0.999999988               0.000258935               0.000679661               0.999999988               0.000204210               0.000651738               0.999999988               0.000144314               0.000619280               0.999999988               0.000080920               0.000583935               0.999999988               0.000015581               0.000547664               0.999999988              -0.000050044               0.000512079               0.999999988              -0.000115079               0.000477977               0.999999988               0.000537414               0.000968924               0.999999988               0.000419532               0.000861430               0.999999988               0.000379572               0.000820991               0.999999988               0.000365102               0.000811216               0.999999988               0.000358107               0.000814558               0.999999988               0.000350536               0.000821996               0.999999988               0.000338294               0.000828490               0.999999988               0.000319353               0.000831403               0.999999988               0.000292647               0.000829414               0.999999988               0.000258156               0.000822365               0.999999988               0.000215946               0.000810367               0.999999988               0.000166637               0.000793788               0.999999988               0.000111237               0.000773197               0.999999988               0.000050714               0.000749580               0.999999988              -0.000013734               0.000724162               0.999999988              -0.000080709               0.000698519               0.999999988              -0.000148342               0.000674098               0.999999988               0.000469718               0.001048206               0.999999988               0.000353457               0.000964174               0.999999988               0.000311607               0.000926925               0.999999988               0.000296029               0.000915414               0.999999988               0.000289188               0.000917337               0.999999988               0.000282992               0.000925173               0.999999988               0.000273371               0.000934286               0.999999988               0.000258368               0.000941856               0.999999988               0.000236641               0.000946333               0.999999988               0.000207886               0.000947054               0.999999988               0.000171684               0.000944044               0.999999988               0.000128288               0.000937472               0.999999988               0.000078200               0.000927706               0.999999988               0.000022079               0.000915105               0.999999988              -0.000039528               0.000900436               0.999999988              -0.000105557               0.000884598               0.999999988              -0.000174004               0.000868985               0.999999988               0.000397894               0.001117847               0.999999988               0.000289950               0.001060391               0.999999988               0.000247924               0.001030729               0.999999988               0.000231162               0.001020637               0.999999988               0.000223821               0.001022693               0.999999988               0.000218240               0.001031493               0.999999988               0.000210506               0.001043167               0.999999988               0.000198798               0.001055072               0.999999988               0.000181808               0.001065471               0.999999988               0.000158594               0.001073551               0.999999988               0.000128440               0.001078886               0.999999988               0.000091277               0.001081429               0.999999988               0.000047455               0.001081382               0.999999988              -0.000002977               0.001078991               0.999999988              -0.000060174               0.001074712               0.999999988              -0.000123425               0.001068904               0.999999988              -0.000191679               0.001062565               0.999999988               0.000322551               0.001176695               0.999999988               0.000228924               0.001146259               0.999999988               0.000189414               0.001127171               0.999999988               0.000172342               0.001121119               0.999999988               0.000164418               0.001125045               0.999999988               0.000159223               0.001135570               0.999999988               0.000152891               0.001149812               0.999999988               0.000143889               0.001165754               0.999999988               0.000131005               0.001181692               0.999999988               0.000113097               0.001196587               0.999999988               0.000089183               0.001209805               0.999999988               0.000058809               0.001221057               0.999999988               0.000021907               0.001230335               0.999999988              -0.000021756               0.001237656               0.999999988              -0.000072612               0.001243167               0.999999988              -0.000130936               0.001247154               0.999999988              -0.000196706               0.001250160               0.999999988               0.000244459               0.001223516               0.999999988               0.000170017               0.001217718               0.999999988               0.000136243               0.001210494               0.999999988               0.000120550               0.001210133               0.999999988               0.000112809               0.001217237               0.999999988               0.000108029               0.001230238               0.999999988               0.000103082               0.001247282               0.999999988               0.000096306               0.001266764               0.999999988               0.000086884               0.001287572               0.999999988               0.000073871               0.001308611               0.999999988               0.000056286               0.001328960               0.999999988               0.000033153               0.001348399               0.999999988               0.000004143               0.001366612               0.999999988              -0.000031013               0.001383329               0.999999988              -0.000073103               0.001398398               0.999999988              -0.000123267               0.001411826               0.999999988              -0.000183003               0.001423907               0.999999988               0.000164207               0.001257687               0.999999988               0.000112572               0.001271430               0.999999988               0.000087811               0.001274977               0.999999988               0.000075630               0.001280609               0.999999988               0.000069393               0.001291341               0.999999988               0.000065563               0.001307061               0.999999988               0.000062051               0.001326858               0.999999988               0.000057351               0.001349593               0.999999988               0.000051079               0.001374231               0.999999988               0.000042623               0.001399931               0.999999988               0.000030956               0.001426219               0.999999988               0.000015328               0.001452561               0.999999988              -0.000004675               0.001478530               0.999999988              -0.000029427               0.001503829               0.999999988              -0.000059906               0.001528038               0.999999988              -0.000097582               0.001550699               0.999999988              -0.000144584               0.001571476               0.999999988               0.000082465               0.001278502               0.999999988               0.000056074               0.001304758               0.999999988               0.000042966               0.001315719               0.999999988               0.000036282               0.001325882               0.999999988               0.000032761               0.001339526               0.999999988               0.000030569               0.001357515               0.999999988               0.000028667               0.001379508               0.999999988               0.000026255               0.001404519               0.999999988               0.000023186               0.001431834               0.999999988               0.000019016               0.001460877               0.999999988               0.000013071               0.001491208               0.999999988               0.000005113               0.001522252               0.999999988              -0.000005134               0.001553558               0.999999988              -0.000018095               0.001584727               0.999999988              -0.000034236               0.001615270               0.999999988              -0.000054520               0.001644623               0.999999988              -0.000080532               0.001672011               0.999999988               0.000000000               0.001285414               0.999999988               0.000000000               0.001316016               0.999999988              -0.000000000               0.001329695               0.999999988               0.000000000               0.001341530               0.999999988               0.000000000               0.001356289               0.999999988               0.000000000               0.001375147               0.999999988              -0.000000000               0.001397891               0.999999988               0.000000000               0.001423685               0.999999988               0.000000000               0.001452034               0.999999988               0.000000000               0.001482278               0.999999988              -0.000000000               0.001513939               0.999999988              -0.000000000               0.001546603               0.999999988              -0.000000000               0.001579820               0.999999988              -0.000000000               0.001613119               0.999999988               0.000000000               0.001645861               0.999999988              -0.000000000               0.001677464               0.999999988               0.000000000               0.001707180               0.999999988 </DataArray>
<DataArray type="Float64"                                    Name="stress"                                                      NumberOfComponents="10" format="ascii">
              0.002090280               0.021928849               0.000000000              -0.001957246               0.007961959               0.006004712               0.000000000               0.000000000               0.000000000               0.000000000               0.002001827               0.016762484               0.000000000              -0.001344622               0.006035646               0.004691024               0.000000000               0.000000000               0.000000000               0.000000000               0.002561696               0.012557114              -0.000000000              -0.000609002               0.004388663               0.003779661               0.000000000               0.000000000               0.000000000               0.000000000               0.002354878               0.010175366               0.000000000              -0.000388841               0.003521368               0.003132528               0.000000000               0.000000000               0.000000000               0.000000000               0.001940470               0.008650544               0.000000000              -0.000353641               0.003001366               0.002647725               0.000000000               0.000000000               0.000000000               0.000000000               0.001512297               0.007574511               0.000000000              -0.000379701               0.002651379               0.002271677               0.000000000               0.000000000               0.000000000               0.000000000               0.001131638               0.006741010               0.000000000              -0.000418261               0.002386401               0.001968140               0.000000000               0.000000000               0.000000000               0.000000000               0.000812204               0.006038786               0.000000000              -0.000450271               0.002162999               0.001712728               0.000000000               0.000000000               0.000000000               0.000000000               0.000547563               0.005412126              -0.000000000              -0.000471179               0.001961083               0.001489905               0.000000000               0.000000000               0.000000000               0.000000000               0.000338343               0.004821550               0.000000000              -0.000475814               0.001765772               0.001289958               0.000000000               0.000000000               0.000000000               0.000000000               0.000180206               0.004242167               0.000000000              -0.000462693               0.001568272               0.001105580               0.000000000               0.000000000               0.000000000               0.000000000               0.000058355               0.003653031               0.000000000              -0.000434745               0.001362580               0.000927835               0.000000000               0.000000000               0.000000000               0.000000000              -0.000027969               0.003037689               0.000000000              -0.000390199               0.001142619               0.000752420               0.000000000               0.000000000               0.000000000               0.000000000              -0.000077033               0.002381572               0.000000000              -0.000326583               0.000902710               0.000576127               0.000000000               0.000000000               0.000000000               0.000000000              -0.000085220               0.001667959              -0.000000000              -0.000240452               0.000636131               0.000395679               0.000000000               0.000000000               0.000000000               0.000000000              -0.000052403               0.000867426              -0.000000000              -0.000128079               0.000331832               0.000203753               0.000000000               0.000000000               0.000000000               0.000000000              -0.000091980               0.000253438              -0.000000000              -0.000066172               0.000106536               0.000040363               0.000000000               0.000000000               0.000000000               0.000000000               0.002144858               0.021455024              -0.001442766              -0.001877552               0.007777454               0.005899902               0.000000000               0.000000000               0.000000000               0.000000000               0.001935786               0.016461699              -0.000633622              -0.001331789               0.005931108               0.004599319               0.000000000               0.000000000               0.000000000               0.000000000               0.002367240               0.012438868               0.000166707              -0.000667142               0.004368628               0.003701487               0.000000000               0.000000000               0.000000000               0.000000000               0.002112960               0.010151667               0.000492701              -0.000476597               0.003542721               0.003066124               0.000000000               0.000000000               0.000000000               0.000000000               0.001692637               0.008678279               0.000616806              -0.000450045               0.003042746               0.002592701               0.000000000               0.000000000               0.000000000               0.000000000               0.001276541               0.007627348               0.000653810              -0.000474715               0.002700662               0.002225947               0.000000000               0.000000000               0.000000000               0.000000000               0.000915384               0.006805073               0.000648353              -0.000507364               0.002437456               0.001930092               0.000000000               0.000000000               0.000000000               0.000000000               0.000615236               0.006110929               0.000626431              -0.000533151               0.002214673               0.001681522               0.000000000               0.000000000               0.000000000               0.000000000               0.000371514               0.005490047               0.000594968              -0.000546937               0.002012309               0.001465373               0.000000000               0.000000000               0.000000000               0.000000000               0.000189207               0.004905784               0.000556731              -0.000542269               0.001816001               0.001273732               0.000000000               0.000000000               0.000000000               0.000000000               0.000058952               0.004330566               0.000516918              -0.000519213               0.001616578               0.001097366               0.000000000               0.000000000               0.000000000               0.000000000              -0.000035250               0.003745707               0.000474612              -0.000481431               0.001409033               0.000927602               0.000000000               0.000000000               0.000000000               0.000000000              -0.000093426               0.003140895               0.000427071              -0.000427646               0.001189503               0.000761857               0.000000000               0.000000000               0.000000000               0.000000000              -0.000117281               0.002508645               0.000369660              -0.000357560               0.000955393               0.000597833               0.000000000               0.000000000               0.000000000               0.000000000              -0.000109130               0.001836879               0.000289011              -0.000270533               0.000702464               0.000431931               0.000000000               0.000000000               0.000000000               0.000000000              -0.000063866               0.001106449               0.000166862              -0.000162256               0.000422898               0.000260642               0.000000000               0.000000000               0.000000000               0.000000000              -0.000089267               0.000560786               0.000104549              -0.000103573               0.000221451               0.000117878               0.000000000               0.000000000               0.000000000               0.000000000               0.002273975               0.020101866              -0.002669166              -0.001659990               0.007253885               0.005593895               0.000000000               0.000000000               0.000000000               0.000000000               0.001730095               0.015609884              -0.001163471              -0.001302447               0.005637392               0.004334945               0.000000000               0.000000000               0.000000000               0.000000000               0.001806622               0.012108813               0.000307729              -0.000836116               0.004314936               0.003478820               0.000000000               0.000000000               0.000000000               0.000000000               0.001431348               0.010085044               0.000883031              -0.000723874               0.003602939               0.002879065               0.000000000               0.000000000               0.000000000               0.000000000               0.001001941               0.008747043               0.001089790              -0.000717651               0.003154869               0.002437217               0.000000000               0.000000000               0.000000000               0.000000000               0.000627355               0.007762750               0.001140123              -0.000735084               0.002832585               0.002097501               0.000000000               0.000000000               0.000000000               0.000000000               0.000330880               0.006975275               0.001118797              -0.000747828               0.002574344               0.001826516               0.000000000               0.000000000               0.000000000               0.000000000               0.000098880               0.006298153               0.001071907              -0.000750188               0.002349426               0.001599238               0.000000000               0.000000000               0.000000000               0.000000000              -0.000075606               0.005685391               0.001013374              -0.000739025               0.002141453               0.001402428               0.000000000               0.000000000               0.000000000               0.000000000              -0.000187037               0.005107544               0.000943065              -0.000708580               0.001938691               0.001230111               0.000000000               0.000000000               0.000000000               0.000000000              -0.000247187               0.004540559               0.000867791              -0.000660264               0.001733592               0.001073329               0.000000000               0.000000000               0.000000000               0.000000000              -0.000269441               0.003973231               0.000788685              -0.000597693               0.001523628               0.000925935               0.000000000               0.000000000               0.000000000               0.000000000              -0.000260293               0.003406305               0.000701915              -0.000523397               0.001309889               0.000786492               0.000000000               0.000000000               0.000000000               0.000000000              -0.000227812               0.002839306               0.000599216              -0.000440342               0.001093206               0.000652864               0.000000000               0.000000000               0.000000000               0.000000000              -0.000171886               0.002270677               0.000459585              -0.000348291               0.000872982               0.000524690               0.000000000               0.000000000               0.000000000               0.000000000              -0.000091184               0.001703049               0.000259684              -0.000247075               0.000650036               0.000402961               0.000000000               0.000000000               0.000000000               0.000000000              -0.000086356               0.001311492               0.000157650              -0.000196319               0.000502599               0.000306280               0.000000000               0.000000000               0.000000000               0.000000000               0.002367556               0.018053270              -0.003504545              -0.001368824               0.006473971               0.005105147               0.000000000               0.000000000               0.000000000               0.000000000               0.001355955               0.014343358              -0.001517956              -0.001284434               0.005209216               0.003924782               0.000000000               0.000000000               0.000000000               0.000000000               0.000942525               0.011623184               0.000390101              -0.001099449               0.004240839               0.003141390               0.000000000               0.000000000               0.000000000               0.000000000               0.000436255               0.009974334               0.001091626              -0.001083194               0.003685809               0.002602616               0.000000000               0.000000000               0.000000000               0.000000000               0.000026286               0.008820071               0.001320333              -0.001092650               0.003304211               0.002211561               0.000000000               0.000000000               0.000000000               0.000000000              -0.000270113               0.007925376               0.001359580              -0.001091962               0.003005753               0.001913791               0.000000000               0.000000000               0.000000000               0.000000000              -0.000464459               0.007178631               0.001317182              -0.001071499               0.002750019               0.001678520               0.000000000               0.000000000               0.000000000               0.000000000              -0.000577905               0.006518337               0.001247059              -0.001031504               0.002516592               0.001485087               0.000000000               0.000000000               0.000000000               0.000000000              -0.000632010               0.005908559               0.001168826              -0.000975572               0.002294690               0.001319119               0.000000000               0.000000000               0.000000000               0.000000000              -0.000634518               0.005333797               0.001077173              -0.000904667               0.002079470               0.001174803               0.000000000               0.000000000               0.000000000               0.000000000              -0.000595959               0.004781579               0.000977745              -0.000821180               0.001867570               0.001046390               0.000000000               0.000000000               0.000000000               0.000000000              -0.000531494               0.004248318               0.000873950              -0.000730349               0.001659541               0.000929193               0.000000000               0.000000000               0.000000000               0.000000000              -0.000446202               0.003736134               0.000762651              -0.000634341               0.001456813               0.000822471               0.000000000               0.000000000               0.000000000               0.000000000              -0.000345626               0.003249955               0.000632901              -0.000535853               0.001261925               0.000726072               0.000000000               0.000000000               0.000000000               0.000000000              -0.000233301               0.002797864               0.000468072              -0.000437220               0.001078352               0.000641132               0.000000000               0.000000000               0.000000000               0.000000000              -0.000115562               0.002399848               0.000255038              -0.000343316               0.000914380               0.000571064               0.000000000               0.000000000               0.000000000               0.000000000              -0.000082609               0.002159537               0.000148799              -0.000300920               0.000820145               0.000519225               0.000000000               0.000000000               0.000000000               0.000000000               0.002272450               0.015556761              -0.003867683              -0.001092426               0.005549677               0.004457250               0.000000000               0.000000000               0.000000000               0.000000000               0.000779276               0.012840074              -0.001681922              -0.001312778               0.004717575               0.003404796               0.000000000               0.000000000               0.000000000               0.000000000              -0.000131564               0.011052154               0.000379379              -0.001430852               0.004160965               0.002730113               0.000000000               0.000000000               0.000000000               0.000000000              -0.000708209               0.009809702               0.001078155              -0.001491788               0.003767131               0.002275343               0.000000000               0.000000000               0.000000000               0.000000000              -0.001035736               0.008843409               0.001276996              -0.001493824               0.003445715               0.001951891               0.000000000               0.000000000               0.000000000               0.000000000              -0.001198452               0.008036151               0.001291840              -0.001453935               0.003163335               0.001709400               0.000000000               0.000000000               0.000000000               0.000000000              -0.001251933               0.007323745               0.001233972              -0.001384940               0.002902870               0.001517930               0.000000000               0.000000000               0.000000000               0.000000000              -0.001223685               0.006676509               0.001152745              -0.001293443               0.002656628               0.001363185               0.000000000               0.000000000               0.000000000               0.000000000              -0.001136549               0.006069307               0.001069050              -0.001184866               0.002418037               0.001233171               0.000000000               0.000000000               0.000000000               0.000000000              -0.001012220               0.005502000               0.000976484              -0.001067330               0.002189758               0.001122428               0.000000000               0.000000000               0.000000000               0.000000000              -0.000869640               0.004975117               0.000872631              -0.000948003               0.001974356               0.001026354               0.000000000               0.000000000               0.000000000               0.000000000              -0.000724333               0.004480696               0.000761386              -0.000831710               0.001770787               0.000939077               0.000000000               0.000000000               0.000000000               0.000000000              -0.000574152               0.004023113               0.000644563              -0.000718195               0.001580422               0.000862228               0.000000000               0.000000000               0.000000000               0.000000000              -0.000417367               0.003614105               0.000517188              -0.000608274               0.001407448               0.000799173               0.000000000               0.000000000               0.000000000               0.000000000              -0.000260221               0.003270406               0.000367832              -0.000506383               0.001258919               0.000752536               0.000000000               0.000000000               0.000000000               0.000000000              -0.000121290               0.003011730               0.000194267              -0.000421949               0.001144549               0.000722600               0.000000000               0.000000000               0.000000000               0.000000000              -0.000073085               0.002882427               0.000110416              -0.000387709               0.001090036               0.000702326               0.000000000               0.000000000               0.000000000               0.000000000               0.001871276               0.012870631              -0.003771710              -0.000907101               0.004592534               0.003685432               0.000000000               0.000000000               0.000000000               0.000000000               0.000009372               0.011262312              -0.001687402              -0.001404272               0.004222157               0.002817885               0.000000000               0.000000000               0.000000000               0.000000000              -0.001298428               0.010437050               0.000244741              -0.001791537               0.004076161               0.002284624               0.000000000               0.000000000               0.000000000               0.000000000              -0.001841274               0.009571352               0.000843576              -0.001886892               0.003819383               0.001932491               0.000000000               0.000000000               0.000000000               0.000000000              -0.002009478               0.008766344               0.000992821              -0.001849343               0.003538533               0.001689190               0.000000000               0.000000000               0.000000000               0.000000000              -0.001990388               0.008026178               0.000989630              -0.001749664               0.003258587               0.001508923               0.000000000               0.000000000               0.000000000               0.000000000              -0.001869794               0.007344713               0.000932700              -0.001619258               0.002987966               0.001368708               0.000000000               0.000000000               0.000000000               0.000000000              -0.001685888               0.006707842               0.000861470              -0.001470685               0.002726153               0.001255468               0.000000000               0.000000000               0.000000000               0.000000000              -0.001462968               0.006109327               0.000793841              -0.001312276               0.002473847               0.001161571               0.000000000               0.000000000               0.000000000               0.000000000              -0.001226726               0.005558550               0.000727085              -0.001154838               0.002237778               0.001082939               0.000000000               0.000000000               0.000000000               0.000000000              -0.000998333               0.005063272               0.000642921              -0.001007281               0.002023501               0.001016220               0.000000000               0.000000000               0.000000000               0.000000000              -0.000787707               0.004613933               0.000546460              -0.000872130               0.001828672               0.000956542               0.000000000               0.000000000               0.000000000               0.000000000              -0.000582569               0.004221555               0.000448061              -0.000746156               0.001655890               0.000909734               0.000000000               0.000000000               0.000000000               0.000000000              -0.000388444               0.003896788               0.000346012              -0.000632763               0.001509837               0.000877074               0.000000000               0.000000000               0.000000000               0.000000000              -0.000220047               0.003652764               0.000235114              -0.000539112               0.001397280               0.000858168               0.000000000               0.000000000               0.000000000               0.000000000              -0.000093841               0.003506848               0.000119322              -0.000473545               0.001326786               0.000853241               0.000000000               0.000000000               0.000000000               0.000000000              -0.000044940               0.003460836               0.000062510              -0.000449456               0.001303419               0.000853963               0.000000000               0.000000000               0.000000000               0.000000000               0.001102349               0.010216722              -0.003301779              -0.000863710               0.003693442               0.002829732               0.000000000               0.000000000               0.000000000               0.000000000              -0.000909400               0.009728331              -0.001596548              -0.001557063               0.003761765               0.002204702               0.000000000               0.000000000               0.000000000               0.000000000              -0.002422106               0.009787056              -0.000026749              -0.002131667               0.003972875               0.001841208               0.000000000               0.000000000               0.000000000               0.000000000              -0.002809643               0.009236233               0.000429675              -0.002208140               0.003814760               0.001606620               0.000000000               0.000000000               0.000000000               0.000000000              -0.002763909               0.008558586               0.000541835              -0.002106284               0.003554928               0.001448644               0.000000000               0.000000000               0.000000000               0.000000000              -0.002541675               0.007875355               0.000546058              -0.001937543               0.003270940               0.001333397               0.000000000               0.000000000               0.000000000               0.000000000              -0.002241553               0.007218644               0.000519290              -0.001742909               0.002987160               0.001244252               0.000000000               0.000000000               0.000000000               0.000000000              -0.001908420               0.006593583               0.000483959              -0.001539852               0.002711123               0.001171271               0.000000000               0.000000000               0.000000000               0.000000000              -0.001565457               0.006016607               0.000452576              -0.001339119               0.002451888               0.001112769               0.000000000               0.000000000               0.000000000               0.000000000              -0.001239288               0.005499964               0.000424130              -0.001152226               0.002217378               0.001065152               0.000000000               0.000000000               0.000000000               0.000000000              -0.000940779               0.005046999               0.000376763              -0.000983665               0.002010204               0.001026540               0.000000000               0.000000000               0.000000000               0.000000000              -0.000676291               0.004657134               0.000310023              -0.000835749               0.001830945               0.000995197               0.000000000               0.000000000               0.000000000               0.000000000              -0.000444741               0.004341241               0.000239195              -0.000709431               0.001683543               0.000974112               0.000000000               0.000000000               0.000000000               0.000000000              -0.000250999               0.004106296               0.000165816              -0.000607410               0.001571222               0.000963812               0.000000000               0.000000000               0.000000000               0.000000000              -0.000109222               0.003958722               0.000094618              -0.000535797               0.001498160               0.000962363               0.000000000               0.000000000               0.000000000               0.000000000              -0.000031001               0.003902720               0.000037594              -0.000499464               0.001467382               0.000967918               0.000000000               0.000000000               0.000000000               0.000000000              -0.000001786               0.003913594               0.000008525              -0.000489868               0.001467808               0.000977940               0.000000000               0.000000000               0.000000000               0.000000000               0.000007088               0.007762317              -0.002568563              -0.000967631               0.002909956               0.001942325               0.000000000               0.000000000               0.000000000               0.000000000              -0.001915358               0.008324410              -0.001464121              -0.001758807               0.003361044               0.001602237               0.000000000               0.000000000               0.000000000               0.000000000              -0.003385156               0.009102672              -0.000420642              -0.002407262               0.003836614               0.001429353               0.000000000               0.000000000               0.000000000               0.000000000              -0.003516557               0.008792290              -0.000093303              -0.002417739               0.003736647               0.001318908               0.000000000               0.000000000               0.000000000               0.000000000              -0.003229796               0.008222210               0.000019369              -0.002238944               0.003487024               0.001248080               0.000000000               0.000000000               0.000000000               0.000000000              -0.002813114               0.007594707               0.000063723              -0.002004251               0.003199627               0.001195376               0.000000000               0.000000000               0.000000000               0.000000000              -0.002353618               0.006967315               0.000090176              -0.001753517               0.002906921               0.001153404               0.000000000               0.000000000               0.000000000               0.000000000              -0.001896619               0.006373315               0.000105469              -0.001507893               0.002627048               0.001119155               0.000000000               0.000000000               0.000000000               0.000000000              -0.001462328               0.005840405               0.000117491              -0.001278420               0.002372922               0.001094502               0.000000000               0.000000000               0.000000000               0.000000000              -0.001062720               0.005377859               0.000129497              -0.001070750               0.002149518               0.001078769               0.000000000               0.000000000               0.000000000               0.000000000              -0.000713409               0.004981550               0.000121915              -0.000890220               0.001957240               0.001067020               0.000000000               0.000000000               0.000000000               0.000000000              -0.000419865               0.004664921               0.000092007              -0.000740563               0.001801812               0.001061250               0.000000000               0.000000000               0.000000000               0.000000000              -0.000191366               0.004439873               0.000054446              -0.000626745               0.001688858               0.001062113               0.000000000               0.000000000               0.000000000               0.000000000              -0.000035853               0.004306917               0.000015903              -0.000551808               0.001619561               0.001067753               0.000000000               0.000000000               0.000000000               0.000000000               0.000044247               0.004264018              -0.000012270              -0.000516408               0.001593461               0.001077053               0.000000000               0.000000000               0.000000000               0.000000000               0.000050109               0.004291259              -0.000017918              -0.000517615               0.001602944               0.001085329               0.000000000               0.000000000               0.000000000               0.000000000               0.000038225               0.004337200              -0.000018881              -0.000527814               0.001621657               0.001093843               0.000000000               0.000000000               0.000000000               0.000000000              -0.001277842               0.005690991              -0.001692216              -0.001190563               0.002293832               0.001103269               0.000000000               0.000000000               0.000000000               0.000000000              -0.002897278               0.007061758              -0.001325717              -0.001969195               0.003010294               0.001041099               0.000000000               0.000000000               0.000000000               0.000000000              -0.004144161               0.008400809              -0.000895269              -0.002604155               0.003668293               0.001064138               0.000000000               0.000000000               0.000000000               0.000000000              -0.004008492               0.008339333              -0.000650683              -0.002545595               0.003628282               0.001082687               0.000000000               0.000000000               0.000000000               0.000000000              -0.003519511               0.007905760              -0.000504260              -0.002308031               0.003404571               0.001096540               0.000000000               0.000000000               0.000000000               0.000000000              -0.002944256               0.007357794              -0.000401661              -0.002023815               0.003127179               0.001103363               0.000000000               0.000000000               0.000000000               0.000000000              -0.002362917               0.006786345              -0.000318009              -0.001734383               0.002840220               0.001105837               0.000000000               0.000000000               0.000000000               0.000000000              -0.001807889               0.006244814              -0.000251185              -0.001458557               0.002567769               0.001109213               0.000000000               0.000000000               0.000000000               0.000000000              -0.001302946               0.005765964              -0.000194457              -0.001209347               0.002325084               0.001115737               0.000000000               0.000000000               0.000000000               0.000000000              -0.000850909               0.005359690              -0.000142905              -0.000989050               0.002116229               0.001127179               0.000000000               0.000000000               0.000000000               0.000000000              -0.000468943               0.005016346              -0.000104994              -0.000802895               0.001939730               0.001136835               0.000000000               0.000000000               0.000000000               0.000000000              -0.000163746               0.004757962              -0.000086282              -0.000656148               0.001804688               0.001148539               0.000000000               0.000000000               0.000000000               0.000000000               0.000059117               0.004597875              -0.000076983              -0.000552564               0.001716798               0.001164234               0.000000000               0.000000000               0.000000000               0.000000000               0.000194998               0.004537880              -0.000065885              -0.000494109               0.001677315               0.001183205               0.000000000               0.000000000               0.000000000               0.000000000               0.000240790               0.004567654              -0.000046977              -0.000480659               0.001682756               0.001202097               0.000000000               0.000000000               0.000000000               0.000000000               0.000209692               0.004660636              -0.000023068              -0.000503944               0.001721511               0.001217567               0.000000000               0.000000000               0.000000000               0.000000000               0.000167542               0.004724472              -0.000009204              -0.000527729               0.001750718               0.001222989               0.000000000               0.000000000               0.000000000               0.000000000              -0.002754722               0.003779205              -0.000780940              -0.001505418               0.001761528               0.000256110               0.000000000               0.000000000               0.000000000               0.000000000              -0.003731821               0.005588793              -0.001174218              -0.002098027               0.002562255               0.000464227               0.000000000               0.000000000               0.000000000               0.000000000              -0.004610343               0.007325374              -0.001387243              -0.002644544               0.003323281               0.000678737               0.000000000               0.000000000               0.000000000               0.000000000              -0.004326716               0.007643466              -0.001233325              -0.002577946               0.003407112               0.000829166               0.000000000               0.000000000               0.000000000               0.000000000              -0.003758096               0.007476788              -0.001052658              -0.002343879               0.003273530               0.000929652               0.000000000               0.000000000               0.000000000               0.000000000              -0.003131769               0.007120340              -0.000891805              -0.002064451               0.003061573               0.000997122               0.000000000               0.000000000               0.000000000               0.000000000              -0.002514691               0.006695675              -0.000755722              -0.001779964               0.002825191               0.001045227               0.000000000               0.000000000               0.000000000               0.000000000              -0.001924113               0.006266871              -0.000640466              -0.001504897               0.002590568               0.001085671               0.000000000               0.000000000               0.000000000               0.000000000              -0.001380639               0.005874844              -0.000539447              -0.001252092               0.002375626               0.001123534               0.000000000               0.000000000               0.000000000               0.000000000              -0.000890434               0.005539026              -0.000446486              -0.001026288               0.002188420               0.001162131               0.000000000               0.000000000               0.000000000               0.000000000              -0.000467740               0.005256169              -0.000360112              -0.000832422               0.002029513               0.001197091               0.000000000               0.000000000               0.000000000               0.000000000              -0.000120753               0.005033400              -0.000288075              -0.000674456               0.001902602               0.001228146               0.000000000               0.000000000               0.000000000               0.000000000               0.000144003               0.004877161              -0.000224451              -0.000555643               0.001810918               0.001255276               0.000000000               0.000000000               0.000000000               0.000000000               0.000322220               0.004792166              -0.000158914              -0.000478187               0.001756768               0.001278581               0.000000000               0.000000000               0.000000000               0.000000000               0.000413719               0.004785989              -0.000090233              -0.000443103               0.001743015               0.001299912               0.000000000               0.000000000               0.000000000               0.000000000               0.000431151               0.004863719              -0.000032763              -0.000446282               0.001769984               0.001323702               0.000000000               0.000000000               0.000000000               0.000000000               0.000406002               0.004915269              -0.000004184              -0.000462157               0.001792459               0.001330302               0.000000000               0.000000000               0.000000000               0.000000000              -0.004599327               0.002058670               0.000092352              -0.001982078               0.001346907              -0.000635171               0.000000000               0.000000000               0.000000000               0.000000000              -0.004662046               0.004094607              -0.000965605              -0.002260088               0.002118217              -0.000141871               0.000000000               0.000000000               0.000000000               0.000000000              -0.004992367               0.006033241              -0.001778127              -0.002626287               0.002886489               0.000260202               0.000000000               0.000000000               0.000000000               0.000000000              -0.004573454               0.006707484              -0.001780262              -0.002553475               0.003086963               0.000533489               0.000000000               0.000000000               0.000000000               0.000000000              -0.003960750               0.006844688              -0.001604201              -0.002340862               0.003061827               0.000720965               0.000000000               0.000000000               0.000000000               0.000000000              -0.003315696               0.006730130              -0.001404009              -0.002084647               0.002938236               0.000853589               0.000000000               0.000000000               0.000000000               0.000000000              -0.002687654               0.006493874              -0.001224968              -0.001819600               0.002771136               0.000951536               0.000000000               0.000000000               0.000000000               0.000000000              -0.002082744               0.006208475              -0.001070633              -0.001557085               0.002588499               0.001031414               0.000000000               0.000000000               0.000000000               0.000000000              -0.001506979               0.005922097              -0.000934756              -0.001305376               0.002409138               0.001103762               0.000000000               0.000000000               0.000000000               0.000000000              -0.000976483               0.005663236              -0.000804867              -0.001074083               0.002245754               0.001171671               0.000000000               0.000000000               0.000000000               0.000000000              -0.000504758               0.005439398              -0.000675037              -0.000869207               0.002102850               0.001233643               0.000000000               0.000000000               0.000000000               0.000000000              -0.000100808               0.005251876              -0.000552935              -0.000694286               0.001982036               0.001287751               0.000000000               0.000000000               0.000000000               0.000000000               0.000230839               0.005100546              -0.000437621              -0.000551002               0.001883832               0.001332830               0.000000000               0.000000000               0.000000000               0.000000000               0.000483690               0.004990818              -0.000318970              -0.000442467               0.001811078               0.001368611               0.000000000               0.000000000               0.000000000               0.000000000               0.000648393               0.004930967              -0.000196059              -0.000373223               0.001768047               0.001394824               0.000000000               0.000000000               0.000000000               0.000000000               0.000729185               0.004938603              -0.000088116              -0.000343880               0.001760811               0.001416931               0.000000000               0.000000000               0.000000000               0.000000000               0.000734431               0.004954728              -0.000036376              -0.000343928               0.001766202               0.001422274               0.000000000               0.000000000               0.000000000               0.000000000              -0.006692809               0.000675115               0.000834068              -0.002594190               0.001089761              -0.001504429               0.000000000               0.000000000               0.000000000               0.000000000              -0.005725500               0.002692012              -0.000696631              -0.002483560               0.001725179              -0.000758381               0.000000000               0.000000000               0.000000000               0.000000000              -0.005311879               0.004556622              -0.001970389              -0.002561527               0.002372700              -0.000188827               0.000000000               0.000000000               0.000000000               0.000000000              -0.004676033               0.005465407              -0.002159926              -0.002436683               0.002634011               0.000197328               0.000000000               0.000000000               0.000000000               0.000000000              -0.004002753               0.005876830              -0.002038191              -0.002235631               0.002704133               0.000468502               0.000000000               0.000000000               0.000000000               0.000000000              -0.003338320               0.006012946              -0.001836165              -0.002003484               0.002672123               0.000668639               0.000000000               0.000000000               0.000000000               0.000000000              -0.002707155               0.005987089              -0.001636653              -0.001763565               0.002583531               0.000819966               0.000000000               0.000000000               0.000000000               0.000000000              -0.002101752               0.005873354              -0.001463290              -0.001522323               0.002465206               0.000942883               0.000000000               0.000000000               0.000000000               0.000000000              -0.001513749               0.005725181              -0.001306779              -0.001283301               0.002336141               0.001052840               0.000000000               0.000000000               0.000000000               0.000000000              -0.000957245               0.005573332              -0.001151909              -0.001055631               0.002209636               0.001154005               0.000000000               0.000000000               0.000000000               0.000000000              -0.000446276               0.005427481              -0.000994958              -0.000845787               0.002091071               0.001245284               0.000000000               0.000000000               0.000000000               0.000000000               0.000009744               0.005298463              -0.000843410              -0.000658653               0.001985687               0.001327035               0.000000000               0.000000000               0.000000000               0.000000000               0.000404906               0.005188126              -0.000692692              -0.000496675               0.001894916               0.001398241               0.000000000               0.000000000               0.000000000               0.000000000               0.000731122               0.005099820              -0.000527358              -0.000363306               0.001821025               0.001457719               0.000000000               0.000000000               0.000000000               0.000000000               0.000975036               0.005031043              -0.000349644              -0.000263241               0.001764745               0.001501503               0.000000000               0.000000000               0.000000000               0.000000000               0.001124712               0.004999106              -0.000173738              -0.000203121               0.001734059               0.001530938               0.000000000               0.000000000               0.000000000               0.000000000               0.001168058               0.004995132              -0.000086535              -0.000186369               0.001727150               0.001540781               0.000000000               0.000000000               0.000000000               0.000000000              -0.008893615              -0.000299658               0.001333752              -0.003297646               0.000999322              -0.002298324               0.000000000               0.000000000               0.000000000               0.000000000              -0.006871369               0.001456923              -0.000413949              -0.002758875               0.001405256              -0.001353619               0.000000000               0.000000000               0.000000000               0.000000000              -0.005598525               0.003022436              -0.001940295              -0.002477247               0.001833215              -0.000644032               0.000000000               0.000000000               0.000000000               0.000000000              -0.004664062               0.004029417              -0.002288148              -0.002252696               0.002094023              -0.000158673               0.000000000               0.000000000               0.000000000               0.000000000              -0.003892134               0.004648509              -0.002248586              -0.002040610               0.002229690               0.000189080               0.000000000               0.000000000               0.000000000               0.000000000              -0.003199815               0.005007205              -0.002081831              -0.001825827               0.002277660               0.000451833               0.000000000               0.000000000               0.000000000               0.000000000              -0.002561437               0.005195224              -0.001890447              -0.001609938               0.002268370               0.000658431               0.000000000               0.000000000               0.000000000               0.000000000              -0.001966190               0.005270789              -0.001715376              -0.001396167               0.002222301               0.000826134               0.000000000               0.000000000               0.000000000               0.000000000              -0.001390993               0.005279961              -0.001555012              -0.001181615               0.002153841               0.000972225               0.000000000               0.000000000               0.000000000               0.000000000              -0.000828400               0.005253922              -0.001395651              -0.000967388               0.002073752               0.001106364               0.000000000               0.000000000               0.000000000               0.000000000              -0.000285071               0.005213147              -0.001232600              -0.000758544               0.001990546               0.001232002               0.000000000               0.000000000               0.000000000               0.000000000               0.000222477               0.005173701              -0.001071215              -0.000563283               0.001912311               0.001349028               0.000000000               0.000000000               0.000000000               0.000000000               0.000681629               0.005133314              -0.000906593              -0.000386053               0.001839772               0.001453719               0.000000000               0.000000000               0.000000000               0.000000000               0.001089585               0.005091202              -0.000722671              -0.000227806               0.001772985               0.001545180               0.000000000               0.000000000               0.000000000               0.000000000               0.001436259               0.005049980              -0.000510571              -0.000092650               0.001714193               0.001621543               0.000000000               0.000000000               0.000000000               0.000000000               0.001694122               0.005019961              -0.000268790               0.000007800               0.001670703               0.001678504               0.000000000               0.000000000               0.000000000               0.000000000               0.001809314               0.005015921              -0.000145263               0.000051502               0.001654789               0.001706291               0.000000000               0.000000000               0.000000000               0.000000000              -0.010990938              -0.000887672               0.001493866              -0.004010640               0.001040982              -0.002969658               0.000000000               0.000000000               0.000000000               0.000000000              -0.008000509               0.000459903              -0.000173797              -0.003057676               0.001172518              -0.001885158               0.000000000               0.000000000               0.000000000               0.000000000              -0.005862808               0.001585701              -0.001685183              -0.002396763               0.001327478              -0.001069284               0.000000000               0.000000000               0.000000000               0.000000000              -0.004579379               0.002570948              -0.002114450              -0.002038632               0.001536515              -0.000502117               0.000000000               0.000000000               0.000000000               0.000000000              -0.003668056               0.003321473              -0.002150224              -0.001790702               0.001704046              -0.000086656               0.000000000               0.000000000               0.000000000               0.000000000              -0.002936763               0.003856956              -0.002039797              -0.001583402               0.001813439               0.000230037               0.000000000               0.000000000               0.000000000               0.000000000              -0.002293257               0.004229610              -0.001883321              -0.001388670               0.001872745               0.000484075               0.000000000               0.000000000               0.000000000               0.000000000              -0.001710739               0.004483164              -0.001727443              -0.001201920               0.001895013               0.000693092               0.000000000               0.000000000               0.000000000               0.000000000              -0.001154443               0.004653242              -0.001583031              -0.001014570               0.001889255               0.000874685               0.000000000               0.000000000               0.000000000               0.000000000              -0.000603843               0.004759771              -0.001439698              -0.000821411               0.001860378               0.001038967               0.000000000               0.000000000               0.000000000               0.000000000              -0.000051598               0.004839248              -0.001290107              -0.000624255               0.001821151               0.001196897               0.000000000               0.000000000               0.000000000               0.000000000               0.000496085               0.004909035              -0.001138299              -0.000427597               0.001778861               0.001351264               0.000000000               0.000000000               0.000000000               0.000000000               0.001026631               0.004959615              -0.000986753              -0.000234966               0.001731510               0.001496545               0.000000000               0.000000000               0.000000000               0.000000000               0.001535490               0.004990449              -0.000818644              -0.000047998               0.001679466               0.001631468               0.000000000               0.000000000               0.000000000               0.000000000               0.002011209               0.005002534              -0.000609327               0.000128885               0.001624533               0.001753418               0.000000000               0.000000000               0.000000000               0.000000000               0.002431274               0.005003212              -0.000335693               0.000286323               0.001572280               0.001858603               0.000000000               0.000000000               0.000000000               0.000000000               0.002675930               0.005023022              -0.000191811               0.000375592               0.001549127               0.001924719               0.000000000               0.000000000               0.000000000               0.000000000              -0.012748855              -0.001182007               0.001274458              -0.004633067               0.001150345              -0.003482722               0.000000000               0.000000000               0.000000000               0.000000000              -0.008973568              -0.000260890              -0.000026182              -0.003332474               0.001023854              -0.002308620               0.000000000               0.000000000               0.000000000               0.000000000              -0.006087126               0.000412163              -0.001235571              -0.002334191               0.000915445              -0.001418746               0.000000000               0.000000000               0.000000000               0.000000000              -0.004468676               0.001303629              -0.001629091              -0.001838705               0.001047437              -0.000791268               0.000000000               0.000000000               0.000000000               0.000000000              -0.003413293               0.002111622              -0.001701569              -0.001543935               0.001218510              -0.000325425               0.000000000               0.000000000               0.000000000               0.000000000              -0.002633122               0.002769220              -0.001645663              -0.001333571               0.001367587               0.000034016               0.000000000               0.000000000               0.000000000               0.000000000              -0.001986137               0.003282898              -0.001539871              -0.001155161               0.001479342               0.000324180               0.000000000               0.000000000               0.000000000               0.000000000              -0.001410426               0.003673442              -0.001426586              -0.000988088               0.001553830               0.000565742               0.000000000               0.000000000               0.000000000               0.000000000              -0.000868117               0.003970781              -0.001321310              -0.000821890               0.001597544               0.000775653               0.000000000               0.000000000               0.000000000               0.000000000              -0.000331066               0.004208994              -0.001212247              -0.000650273               0.001619741               0.000969468               0.000000000               0.000000000               0.000000000               0.000000000               0.000217034               0.004411485              -0.001096382              -0.000470048               0.001627163               0.001157115               0.000000000               0.000000000               0.000000000               0.000000000               0.000787629               0.004584034              -0.000979764              -0.000277643               0.001620544               0.001342900               0.000000000               0.000000000               0.000000000               0.000000000               0.001379290               0.004732328              -0.000863634              -0.000074308               0.001602196               0.001527888               0.000000000               0.000000000               0.000000000               0.000000000               0.001984381               0.004852085              -0.000732599               0.000137631               0.001571468               0.001709099               0.000000000               0.000000000               0.000000000               0.000000000               0.002600877               0.004934044              -0.000560955               0.000358570               0.001525142               0.001883711               0.000000000               0.000000000               0.000000000               0.000000000               0.003227631               0.004977963              -0.000319049               0.000588110               0.001463268               0.002051378               0.000000000               0.000000000               0.000000000               0.000000000               0.003660188               0.005034230              -0.000193141               0.000743284               0.001430299               0.002173583               0.000000000               0.000000000               0.000000000               0.000000000              -0.013922827              -0.001300716               0.000733149              -0.005058467               0.001252575              -0.003805892               0.000000000               0.000000000               0.000000000               0.000000000              -0.009636754              -0.000696289               0.000020828              -0.003526744               0.000943479              -0.002583265               0.000000000               0.000000000               0.000000000               0.000000000              -0.006241818              -0.000356799              -0.000651159              -0.002296080               0.000646422              -0.001649658               0.000000000               0.000000000               0.000000000               0.000000000              -0.004379083               0.000439308              -0.000886162              -0.001697068               0.000712120              -0.000984948               0.000000000               0.000000000               0.000000000               0.000000000              -0.003214547               0.001261235              -0.000941355              -0.001363107               0.000874775              -0.000488333               0.000000000               0.000000000               0.000000000               0.000000000              -0.002389778               0.001987734              -0.000921776              -0.001144631               0.001044114              -0.000100517               0.000000000               0.000000000               0.000000000               0.000000000              -0.001736707               0.002580940              -0.000870185              -0.000973880               0.001184931               0.000211051               0.000000000               0.000000000               0.000000000               0.000000000              -0.001164466               0.003054965              -0.000812261              -0.000818544               0.001291159               0.000472615               0.000000000               0.000000000               0.000000000               0.000000000              -0.000630916               0.003444430              -0.000758889              -0.000667146               0.001370514               0.000703368               0.000000000               0.000000000               0.000000000               0.000000000              -0.000103669               0.003775943              -0.000699574              -0.000510868               0.001428924               0.000918056               0.000000000               0.000000000               0.000000000               0.000000000               0.000446206               0.004062872              -0.000635309              -0.000340531               0.001467788               0.001127256               0.000000000               0.000000000               0.000000000               0.000000000               0.001033226               0.004309614              -0.000572843              -0.000151242               0.001486938               0.001335696               0.000000000               0.000000000               0.000000000               0.000000000               0.001663359               0.004525512              -0.000508472               0.000058070               0.001489132               0.001547202               0.000000000               0.000000000               0.000000000               0.000000000               0.002337870               0.004706397              -0.000434341               0.000288399               0.001472650               0.001761049               0.000000000               0.000000000               0.000000000               0.000000000               0.003068108               0.004846234              -0.000336527               0.000544756               0.001433810               0.001978566               0.000000000               0.000000000               0.000000000               0.000000000               0.003874747               0.004939504              -0.000193545               0.000835584               0.001367957               0.002203541               0.000000000               0.000000000               0.000000000               0.000000000               0.004475687               0.005035126              -0.000120407               0.001048981               0.001328698               0.002377679               0.000000000               0.000000000               0.000000000               0.000000000              -0.014334224              -0.001326494               0.000000000              -0.005209519               0.001294333              -0.003915186               0.000000000               0.000000000               0.000000000               0.000000000              -0.009872505              -0.000838477              -0.000000000              -0.003597377               0.000919627              -0.002677750               0.000000000               0.000000000               0.000000000               0.000000000              -0.006298494              -0.000622881              -0.000000000              -0.002284074               0.000553727              -0.001730346               0.000000000               0.000000000               0.000000000               0.000000000              -0.004346189               0.000132492               0.000000000              -0.001646381               0.000592954              -0.001053427               0.000000000               0.000000000               0.000000000               0.000000000              -0.003139004               0.000955205              -0.000000000              -0.001296525               0.000750572              -0.000545954               0.000000000               0.000000000               0.000000000               0.000000000              -0.002295211               0.001700980               0.000000000              -0.001073324               0.000924762              -0.000148562               0.000000000               0.000000000               0.000000000               0.000000000              -0.001638002               0.002318009               0.000000000              -0.000904000               0.001073995               0.000169995               0.000000000               0.000000000               0.000000000               0.000000000              -0.001067386               0.002823593              -0.000000000              -0.000753217               0.001192261               0.000439044               0.000000000               0.000000000               0.000000000               0.000000000              -0.000540188               0.003246390               0.000000000              -0.000608368               0.001284908               0.000676541               0.000000000               0.000000000               0.000000000               0.000000000              -0.000018409               0.003604929               0.000000000              -0.000457518               0.001354137               0.000896619               0.000000000               0.000000000               0.000000000               0.000000000               0.000535899               0.003920875              -0.000000000              -0.000289147               0.001403328               0.001114181               0.000000000               0.000000000               0.000000000               0.000000000               0.001132888               0.004198638               0.000000000              -0.000099997               0.001432864               0.001332868               0.000000000               0.000000000               0.000000000               0.000000000               0.001778960               0.004441296               0.000000000               0.000111947               0.001443101               0.001555048               0.000000000               0.000000000               0.000000000               0.000000000               0.002481968               0.004643030               0.000000000               0.000350356               0.001430876               0.001781232               0.000000000               0.000000000               0.000000000               0.000000000               0.003254886               0.004800582               0.000000000               0.000620503               0.001393344               0.002013847               0.000000000               0.000000000               0.000000000               0.000000000               0.004128675               0.004914140               0.000000000               0.000933976               0.001326705               0.002260681               0.000000000               0.000000000               0.000000000               0.000000000               0.004793498               0.005027371               0.000000000               0.001169129               0.001286064               0.002455192               0.000000000               0.000000000               0.000000000               0.000000000               0.000000000               0.000000000               0.000000000               0.000000000               0.000000000               0.000000000               0.000000000               0.000000000               0.000000000               0.000000000               0.000000000               0.000000000               0.000000000               0.000000000               0.000000000               0.000000000               0.000000000               0.000000000               0.000000000               0.000000000               0.000000000               0.000000000               0.000000000               0.000000000               0.000000000               0.000000000               0.000000000               0.000000000               0.000000000               0.000000000               0.000000000               0.000000000               0.000000000               0.000000000               0.000000000               0.000000000               0.000000000               0.000000000               0.000000000               0.000000000               0.000000000               0.000000000               0.000000000               0.000000000               0.000000000               0.000000000               0.000000000               0.000000000               0.000000000               0.000000000               0.000000000               0.000000000               0.000000000               0.000000000               0.000000000               0.000000000               0.000000000               0.000000000               0.000000000               0.000000000               0.000000000               0.000000000               0.000000000               0.000000000               0.000000000               0.000000000               0.000000000               0.000000000               0.000000000               0.000000000               0.000000000               0.000000000               0.000000000               0.000000000               0.000000000               0.000000000               0.000000000               0.000000000               0.000000000               0.000000000               0.000000000               0.000000000               0.000000000               0.000000000               0.000000000               0.000000000               0.000000000               0.000000000               0.000000000               0.000000000               0.000000000               0.000000000               0.000000000               0.000000000               0.000000000               0.000000000               0.000000000               0.000000000               0.000000000               0.000000000               0.000000000               0.000000000               0.000000000               0.000000000               0.000000000               0.000000000               0.000000000               0.000000000               0.000000000               0.000000000               0.000000000               0.000000000               0.000000000               0.000000000               0.000000000               0.000000000               0.000000000               0.000000000               0.000000000               0.000000000               0.000000000               0.000000000               0.000000000               0.000000000               0.000000000               0.000000000               0.000000000               0.000000000               0.000000000               0.000000000               0.000000000               0.000000000               0.000000000               0.000000000               0.000000000               0.000000000               0.000000000               0.000000000               0.000000000               0.000000000               0.000000000               0.000000000               0.000000000               0.000000000               0.000000000               0.000000000               0.000000000               0.000000000               0.000000000               0.000000000               0.000000000               0.000000000               0.000000000               0.000000000               0.000000000               0.000000000               0.000000000               0.000000000               0.000000000               0.000000000               0.000000000               0.000000000               0.000000000               0.000000000               0.000000000               0.000000000               0.000000000               0.000000000               0.000000000               0.000000000               0.002144858               0.021455024               0.001442766              -0.001877552               0.007777454               0.005899902               0.000000000               0.000000000               0.000000000               0.000000000               0.001935786               0.016461699               0.000633622              -0.001331789               0.005931108               0.004599319               0.000000000               0.000000000               0.000000000               0.000000000               0.002367240               0.012438868              -0.000166707              -0.000667142               0.004368628               0.003701487               0.000000000               0.000000000               0.000000000               0.000000000               0.002112960               0.010151667              -0.000492701              -0.000476597               0.003542721               0.003066124               0.000000000               0.000000000               0.000000000               0.000000000               0.001692637               0.008678279              -0.000616806              -0.000450045               0.003042746               0.002592701               0.000000000               0.000000000               0.000000000               0.000000000               0.001276541               0.007627348              -0.000653810              -0.000474715               0.002700662               0.002225947               0.000000000               0.000000000               0.000000000               0.000000000               0.000915384               0.006805073              -0.000648353              -0.000507364               0.002437456               0.001930092               0.000000000               0.000000000               0.000000000               0.000000000               0.000615236               0.006110929              -0.000626431              -0.000533151               0.002214673               0.001681522               0.000000000               0.000000000               0.000000000               0.000000000               0.000371514               0.005490047              -0.000594968              -0.000546937               0.002012309               0.001465373               0.000000000               0.000000000               0.000000000               0.000000000               0.000189207               0.004905784              -0.000556731              -0.000542269               0.001816001               0.001273732               0.000000000               0.000000000               0.000000000               0.000000000               0.000058952               0.004330566              -0.000516918              -0.000519213               0.001616578               0.001097366               0.000000000               0.000000000               0.000000000               0.000000000              -0.000035250               0.003745707              -0.000474612              -0.000481431               0.001409033               0.000927602               0.000000000               0.000000000               0.000000000               0.000000000              -0.000093426               0.003140895              -0.000427071              -0.000427646               0.001189503               0.000761857               0.000000000               0.000000000               0.000000000               0.000000000              -0.000117281               0.002508645              -0.000369660              -0.000357560               0.000955393               0.000597833               0.000000000               0.000000000               0.000000000               0.000000000              -0.000109130               0.001836879              -0.000289011              -0.000270533               0.000702464               0.000431931               0.000000000               0.000000000               0.000000000               0.000000000              -0.000063866               0.001106449              -0.000166862              -0.000162256               0.000422898               0.000260642               0.000000000               0.000000000               0.000000000               0.000000000              -0.000089267               0.000560786              -0.000104549              -0.000103573               0.000221451               0.000117878               0.000000000               0.000000000               0.000000000               0.000000000               0.002273975               0.020101866               0.002669166              -0.001659990               0.007253885               0.005593895               0.000000000               0.000000000               0.000000000               0.000000000               0.001730095               0.015609884               0.001163471              -0.001302447               0.005637392               0.004334945               0.000000000               0.000000000               0.000000000               0.000000000               0.001806622               0.012108813              -0.000307729              -0.000836116               0.004314936               0.003478820               0.000000000               0.000000000               0.000000000               0.000000000               0.001431348               0.010085044              -0.000883031              -0.000723874               0.003602939               0.002879065               0.000000000               0.000000000               0.000000000               0.000000000               0.001001941               0.008747043              -0.001089790              -0.000717651               0.003154869               0.002437217               0.000000000               0.000000000               0.000000000               0.000000000               0.000627355               0.007762750              -0.001140123              -0.000735084               0.002832585               0.002097501               0.000000000               0.000000000               0.000000000               0.000000000               0.000330880               0.006975275              -0.001118797              -0.000747828               0.002574344               0.001826516               0.000000000               0.000000000               0.000000000               0.000000000               0.000098880               0.006298153              -0.001071907              -0.000750188               0.002349426               0.001599238               0.000000000               0.000000000               0.000000000               0.000000000              -0.000075606               0.005685391              -0.001013374              -0.000739025               0.002141453               0.001402428               0.000000000               0.000000000               0.000000000               0.000000000              -0.000187037               0.005107544              -0.000943065              -0.000708580               0.001938691               0.001230111               0.000000000               0.000000000               0.000000000               0.000000000              -0.000247187               0.004540559              -0.000867791              -0.000660264               0.001733592               0.001073329               0.000000000               0.000000000               0.000000000               0.000000000              -0.000269441               0.003973231              -0.000788685              -0.000597693               0.001523628               0.000925935               0.000000000               0.000000000               0.000000000               0.000000000              -0.000260293               0.003406305              -0.000701915              -0.000523397               0.001309889               0.000786492               0.000000000               0.000000000               0.000000000               0.000000000              -0.000227812               0.002839306              -0.000599216              -0.000440342               0.001093206               0.000652864               0.000000000               0.000000000               0.000000000               0.000000000              -0.000171886               0.002270677              -0.000459585              -0.000348291               0.000872982               0.000524690               0.000000000               0.000000000               0.000000000               0.000000000              -0.000091184               0.001703049              -0.000259684              -0.000247075               0.000650036               0.000402961               0.000000000               0.000000000               0.000000000               0.000000000              -0.000086356               0.001311492              -0.000157650              -0.000196319               0.000502599               0.000306280               0.000000000               0.000000000               0.000000000               0.000000000               0.002367556               0.018053270               0.003504545              -0.001368824               0.006473971               0.005105147               0.000000000               0.000000000               0.000000000               0.000000000               0.001355955               0.014343358               0.001517956              -0.001284434               0.005209216               0.003924782               0.000000000               0.000000000               0.000000000               0.000000000               0.000942525               0.011623184              -0.000390101              -0.001099449               0.004240839               0.003141390               0.000000000               0.000000000               0.000000000               0.000000000               0.000436255               0.009974334              -0.001091626              -0.001083194               0.003685809               0.002602616               0.000000000               0.000000000               0.000000000               0.000000000               0.000026286               0.008820071              -0.001320333              -0.001092650               0.003304211               0.002211561               0.000000000               0.000000000               0.000000000               0.000000000              -0.000270113               0.007925376              -0.001359580              -0.001091962               0.003005753               0.001913791               0.000000000               0.000000000               0.000000000               0.000000000              -0.000464459               0.007178631              -0.001317182              -0.001071499               0.002750019               0.001678520               0.000000000               0.000000000               0.000000000               0.000000000              -0.000577905               0.006518337              -0.001247059              -0.001031504               0.002516592               0.001485087               0.000000000               0.000000000               0.000000000               0.000000000              -0.000632010               0.005908559              -0.001168826              -0.000975572               0.002294690               0.001319119               0.000000000               0.000000000               0.000000000               0.000000000              -0.000634518               0.005333797              -0.001077173              -0.000904667               0.002079470               0.001174803               0.000000000               0.000000000               0.000000000               0.000000000              -0.000595959               0.004781579              -0.000977745              -0.000821180               0.001867570               0.001046390               0.000000000               0.000000000               0.000000000               0.000000000              -0.000531494               0.004248318              -0.000873950              -0.000730349               0.001659541               0.000929193               0.000000000               0.000000000               0.000000000               0.000000000              -0.000446202               0.003736134              -0.000762651              -0.000634341               0.001456813               0.000822471               0.000000000               0.000000000               0.000000000               0.000000000              -0.000345626               0.003249955              -0.000632901              -0.000535853               0.001261925               0.000726072               0.000000000               0.000000000               0.000000000               0.000000000              -0.000233301               0.002797864              -0.000468072              -0.000437220               0.001078352               0.000641132               0.000000000               0.000000000               0.000000000               0.000000000              -0.000115562               0.002399848              -0.000255038              -0.000343316               0.000914380               0.000571064               0.000000000               0.000000000               0.000000000               0.000000000              -0.000082609               0.002159537              -0.000148799              -0.000300920               0.000820145               0.000519225               0.000000000               0.000000000               0.000000000               0.000000000               0.002272450               0.015556761               0.003867683              -0.001092426               0.005549677               0.004457250               0.000000000               0.000000000               0.000000000               0.000000000               0.000779276               0.012840074               0.001681922              -0.001312778               0.004717575               0.003404796               0.000000000               0.000000000               0.000000000               0.000000000              -0.000131564               0.011052154              -0.000379379              -0.001430852               0.004160965               0.002730113               0.000000000               0.000000000               0.000000000               0.000000000              -0.000708209               0.009809702              -0.001078155              -0.001491788               0.003767131               0.002275343               0.000000000               0.000000000               0.000000000               0.000000000              -0.001035736               0.008843409              -0.001276996              -0.001493824               0.003445715               0.001951891               0.000000000               0.000000000               0.000000000               0.000000000              -0.001198452               0.008036151              -0.001291840              -0.001453935               0.003163335               0.001709400               0.000000000               0.000000000               0.000000000               0.000000000              -0.001251933               0.007323745              -0.001233972              -0.001384940               0.002902870               0.001517930               0.000000000               0.000000000               0.000000000               0.000000000              -0.001223685               0.006676509              -0.001152745              -0.001293443               0.002656628               0.001363185               0.000000000               0.000000000               0.000000000               0.000000000              -0.001136549               0.006069307              -0.001069050              -0.001184866               0.002418037               0.001233171               0.000000000               0.000000000               0.000000000               0.000000000              -0.001012220               0.005502000              -0.000976484              -0.001067330               0.002189758               0.001122428               0.000000000               0.000000000               0.000000000               0.000000000              -0.000869640               0.004975117              -0.000872631              -0.000948003               0.001974356               0.001026354               0.000000000               0.000000000               0.000000000               0.000000000              -0.000724333               0.004480696              -0.000761386              -0.000831710               0.001770787               0.000939077               0.000000000               0.000000000               0.000000000               0.000000000              -0.000574152               0.004023113              -0.000644563              -0.000718195               0.001580422               0.000862228               0.000000000               0.000000000               0.000000000               0.000000000              -0.000417367               0.003614105              -0.000517188              -0.000608274               0.001407448               0.000799173               0.000000000               0.000000000               0.000000000               0.000000000              -0.000260221               0.003270406              -0.000367832              -0.000506383               0.001258919               0.000752536               0.000000000               0.000000000               0.000000000               0.000000000              -0.000121290               0.003011730              -0.000194267              -0.000421949               0.001144549               0.000722600               0.000000000               0.000000000               0.000000000               0.000000000              -0.000073085               0.002882427              -0.000110416              -0.000387709               0.001090036               0.000702326               0.000000000               0.000000000               0.000000000               0.000000000               0.001871276               0.012870631               0.003771710              -0.000907101               0.004592534               0.003685432               0.000000000               0.000000000               0.000000000               0.000000000               0.000009372               0.011262312               0.001687402              -0.001404272               0.004222157               0.002817885               0.000000000               0.000000000               0.000000000               0.000000000              -0.001298428               0.010437050              -0.000244741              -0.001791537               0.004076161               0.002284624               0.000000000               0.000000000               0.000000000               0.000000000              -0.001841274               0.009571352              -0.000843576              -0.001886892               0.003819383               0.001932491               0.000000000               0.000000000               0.000000000               0.000000000              -0.002009478               0.008766344              -0.000992821              -0.001849343               0.003538533               0.001689190               0.000000000               0.000000000               0.000000000               0.000000000              -0.001990388               0.008026178              -0.000989630              -0.001749664               0.003258587               0.001508923               0.000000000               0.000000000               0.000000000               0.000000000              -0.001869794               0.007344713              -0.000932700              -0.001619258               0.002987966               0.001368708               0.000000000               0.000000000               0.000000000               0.000000000              -0.001685888               0.006707842              -0.000861470              -0.001470685               0.002726153               0.001255468               0.000000000               0.000000000               0.000000000               0.000000000              -0.001462968               0.006109327              -0.000793841              -0.001312276               0.002473847               0.001161571               0.000000000               0.000000000               0.000000000               0.000000000              -0.001226726               0.005558550              -0.000727085              -0.001154838               0.002237778               0.001082939               0.000000000               0.000000000               0.000000000               0.000000000              -0.000998333               0.005063272              -0.000642921              -0.001007281               0.002023501               0.001016220               0.000000000               0.000000000               0.000000000               0.000000000              -0.000787707               0.004613933              -0.000546460              -0.000872130               0.001828672               0.000956542               0.000000000               0.000000000               0.000000000               0.000000000              -0.000582569               0.004221555              -0.000448061              -0.000746156               0.001655890               0.000909734               0.000000000               0.000000000               0.000000000               0.000000000              -0.000388444               0.003896788              -0.000346012              -0.000632763               0.001509837               0.000877074               0.000000000               0.000000000               0.000000000               0.000000000              -0.000220047               0.003652764              -0.000235114              -0.000539112               0.001397280               0.000858168               0.000000000               0.000000000               0.000000000               0.000000000              -0.000093841               0.003506848              -0.000119322              -0.000473545               0.001326786               0.000853241               0.000000000               0.000000000               0.000000000               0.000000000              -0.000044940               0.003460836              -0.000062510              -0.000449456               0.001303419               0.000853963               0.000000000               0.000000000               0.000000000               0.000000000               0.001102349               0.010216722               0.003301779              -0.000863710               0.003693442               0.002829732               0.000000000               0.000000000               0.000000000               0.000000000              -0.000909400               0.009728331               0.001596548              -0.001557063               0.003761765               0.002204702               0.000000000               0.000000000               0.000000000               0.000000000              -0.002422106               0.009787056               0.000026749              -0.002131667               0.003972875               0.001841208               0.000000000               0.000000000               0.000000000               0.000000000              -0.002809643               0.009236233              -0.000429675              -0.002208140               0.003814760               0.001606620               0.000000000               0.000000000               0.000000000               0.000000000              -0.002763909               0.008558586              -0.000541835              -0.002106284               0.003554928               0.001448644               0.000000000               0.000000000               0.000000000               0.000000000              -0.002541675               0.007875355              -0.000546058              -0.001937543               0.003270940               0.001333397               0.000000000               0.000000000               0.000000000               0.000000000              -0.002241553               0.007218644              -0.000519290              -0.001742909               0.002987160               0.001244252               0.000000000               0.000000000               0.000000000               0.000000000              -0.001908420               0.006593583              -0.000483959              -0.001539852               0.002711123               0.001171271               0.000000000               0.000000000               0.000000000               0.000000000              -0.001565457               0.006016607              -0.000452576              -0.001339119               0.002451888               0.001112769               0.000000000               0.000000000               0.000000000               0.000000000              -0.001239288               0.005499964              -0.000424130              -0.001152226               0.002217378               0.001065152               0.000000000               0.000000000               0.000000000               0.000000000              -0.000940779               0.005046999              -0.000376763              -0.000983665               0.002010204               0.001026540               0.000000000               0.000000000               0.000000000               0.000000000              -0.000676291               0.004657134              -0.000310023              -0.000835749               0.001830945               0.000995197               0.000000000               0.000000000               0.000000000               0.000000000              -0.000444741               0.004341241              -0.000239195              -0.000709431               0.001683543               0.000974112               0.000000000               0.000000000               0.000000000               0.000000000              -0.000250999               0.004106296              -0.000165816              -0.000607410               0.001571222               0.000963812               0.000000000               0.000000000               0.000000000               0.000000000              -0.000109222               0.003958722              -0.000094618              -0.000535797               0.001498160               0.000962363               0.000000000               0.000000000               0.000000000               0.000000000              -0.000031001               0.003902720              -0.000037594              -0.000499464               0.001467382               0.000967918               0.000000000               0.000000000               0.000000000               0.000000000              -0.000001786               0.003913594              -0.000008525              -0.000489868               0.001467808               0.000977940               0.000000000               0.000000000               0.000000000               0.000000000               0.000007088               0.007762317               0.002568563              -0.000967631               0.002909956               0.001942325               0.000000000               0.000000000               0.000000000               0.000000000              -0.001915358               0.008324410               0.001464121              -0.001758807               0.003361044               0.001602237               0.000000000               0.000000000               0.000000000               0.000000000              -0.003385156               0.009102672               0.000420642              -0.002407262               0.003836614               0.001429353               0.000000000               0.000000000               0.000000000               0.000000000              -0.003516557               0.008792290               0.000093303              -0.002417739               0.003736647               0.001318908               0.000000000               0.000000000               0.000000000               0.000000000              -0.003229796               0.008222210              -0.000019369              -0.002238944               0.003487024               0.001248080               0.000000000               0.000000000               0.000000000               0.000000000              -0.002813114               0.007594707              -0.000063723              -0.002004251               0.003199627               0.001195376               0.000000000               0.000000000               0.000000000               0.000000000              -0.002353618               0.006967315              -0.000090176              -0.001753517               0.002906921               0.001153404               0.000000000               0.000000000               0.000000000               0.000000000              -0.001896619               0.006373315              -0.000105469              -0.001507893               0.002627048               0.001119155               0.000000000               0.000000000               0.000000000               0.000000000              -0.001462328               0.005840405              -0.000117491              -0.001278420               0.002372922               0.001094502               0.000000000               0.000000000               0.000000000               0.000000000              -0.001062720               0.005377859              -0.000129497              -0.001070750               0.002149518               0.001078769               0.000000000               0.000000000               0.000000000               0.000000000              -0.000713409               0.004981550              -0.000121915              -0.000890220               0.001957240               0.001067020               0.000000000               0.000000000               0.000000000               0.000000000              -0.000419865               0.004664921              -0.000092007              -0.000740563               0.001801812               0.001061250               0.000000000               0.000000000               0.000000000               0.000000000              -0.000191366               0.004439873              -0.000054446              -0.000626745               0.001688858               0.001062113               0.000000000               0.000000000               0.000000000               0.000000000              -0.000035853               0.004306917              -0.000015903              -0.000551808               0.001619561               0.001067753               0.000000000               0.000000000               0.000000000               0.000000000               0.000044247               0.004264018               0.000012270              -0.000516408               0.001593461               0.001077053               0.000000000               0.000000000               0.000000000               0.000000000               0.000050109               0.004291259               0.000017918              -0.000517615               0.001602944               0.001085329               0.000000000               0.000000000               0.000000000               0.000000000               0.000038225               0.004337200               0.000018881              -0.000527814               0.001621657               0.001093843               0.000000000               0.000000000               0.000000000               0.000000000              -0.001277842               0.005690991               0.001692216              -0.001190563               0.002293832               0.001103269               0.000000000               0.000000000               0.000000000               0.000000000              -0.002897278               0.007061758               0.001325717              -0.001969195               0.003010294               0.001041099               0.000000000               0.000000000               0.000000000               0.000000000              -0.004144161               0.008400809               0.000895269              -0.002604155               0.003668293               0.001064138               0.000000000               0.000000000               0.000000000               0.000000000              -0.004008492               0.008339333               0.000650683              -0.002545595               0.003628282               0.001082687               0.000000000               0.000000000               0.000000000               0.000000000              -0.003519511               0.007905760               0.000504260              -0.002308031               0.003404571               0.001096540               0.000000000               0.000000000               0.000000000               0.000000000              -0.002944256               0.007357794               0.000401661              -0.002023815               0.003127179               0.001103363               0.000000000               0.000000000               0.000000000               0.000000000              -0.002362917               0.006786345               0.000318009              -0.001734383               0.002840220               0.001105837               0.000000000               0.000000000               0.000000000               0.000000000              -0.001807889               0.006244814               0.000251185              -0.001458557               0.002567769               0.001109213               0.000000000               0.000000000               0.000000000               0.000000000              -0.001302946               0.005765964               0.000194457              -0.001209347               0.002325084               0.001115737               0.000000000               0.000000000               0.000000000               0.000000000              -0.000850909               0.005359690               0.000142905              -0.000989050               0.002116229               0.001127179               0.000000000               0.000000000               0.000000000               0.000000000              -0.000468943               0.005016346               0.000104994              -0.000802895               0.001939730               0.001136835               0.000000000               0.000000000               0.000000000               0.000000000              -0.000163746               0.004757962               0.000086282              -0.000656148               0.001804688               0.001148539               0.000000000               0.000000000               0.000000000               0.000000000               0.000059117               0.004597875               0.000076983              -0.000552564               0.001716798               0.001164234               0.000000000               0.000000000               0.000000000               0.000000000               0.000194998               0.004537880               0.000065885              -0.000494109               0.001677315               0.001183205               0.000000000               0.000000000               0.000000000               0.000000000               0.000240790               0.004567654               0.000046977              -0.000480659               0.001682756               0.001202097               0.000000000               0.000000000               0.000000000               0.000000000               0.000209692               0.004660636               0.000023068              -0.000503944               0.001721511               0.001217567               0.000000000               0.000000000               0.000000000               0.000000000               0.000167542               0.004724472               0.000009204              -0.000527729               0.001750718               0.001222989               0.000000000               0.000000000               0.000000000               0.000000000              -0.002754722               0.003779205               0.000780940              -0.001505418               0.001761528               0.000256110               0.000000000               0.000000000               0.000000000               0.000000000              -0.003731821               0.005588793               0.001174218              -0.002098027               0.002562255               0.000464227               0.000000000               0.000000000               0.000000000               0.000000000              -0.004610343               0.007325374               0.001387243              -0.002644544               0.003323281               0.000678737               0.000000000               0.000000000               0.000000000               0.000000000              -0.004326716               0.007643466               0.001233325              -0.002577946               0.003407112               0.000829166               0.000000000               0.000000000               0.000000000               0.000000000              -0.003758096               0.007476788               0.001052658              -0.002343879               0.003273530               0.000929652               0.000000000               0.000000000               0.000000000               0.000000000              -0.003131769               0.007120340               0.000891805              -0.002064451               0.003061573               0.000997122               0.000000000               0.000000000               0.000000000               0.000000000              -0.002514691               0.006695675               0.000755722              -0.001779964               0.002825191               0.001045227               0.000000000               0.000000000               0.000000000               0.000000000              -0.001924113               0.006266871               0.000640466              -0.001504897               0.002590568               0.001085671               0.000000000               0.000000000               0.000000000               0.000000000              -0.001380639               0.005874844               0.000539447              -0.001252092               0.002375626               0.001123534               0.000000000               0.000000000               0.000000000               0.000000000              -0.000890434               0.005539026               0.000446486              -0.001026288               0.002188420               0.001162131               0.000000000               0.000000000               0.000000000               0.000000000              -0.000467740               0.005256169               0.000360112              -0.000832422               0.002029513               0.001197091               0.000000000               0.000000000               0.000000000               0.000000000              -0.000120753               0.005033400               0.000288075              -0.000674456               0.001902602               0.001228146               0.000000000               0.000000000               0.000000000               0.000000000               0.000144003               0.004877161               0.000224451              -0.000555643               0.001810918               0.001255276               0.000000000               0.000000000               0.000000000               0.000000000               0.000322220               0.004792166               0.000158914              -0.000478187               0.001756768               0.001278581               0.000000000               0.000000000               0.000000000               0.000000000               0.000413719               0.004785989               0.000090233              -0.000443103               0.001743015               0.001299912               0.000000000               0.000000000               0.000000000               0.000000000               0.000431151               0.004863719               0.000032763              -0.000446282               0.001769984               0.001323702               0.000000000               0.000000000               0.000000000               0.000000000               0.000406002               0.004915269               0.000004184              -0.000462157               0.001792459               0.001330302               0.000000000               0.000000000               0.000000000               0.000000000              -0.004599327               0.002058670              -0.000092352              -0.001982078               0.001346907              -0.000635171               0.000000000               0.000000000               0.000000000               0.000000000              -0.004662046               0.004094607               0.000965605              -0.002260088               0.002118217              -0.000141871               0.000000000               0.000000000               0.000000000               0.000000000              -0.004992367               0.006033241               0.001778127              -0.002626287               0.002886489               0.000260202               0.000000000               0.000000000               0.000000000               0.000000000              -0.004573454               0.006707484               0.001780262              -0.002553475               0.003086963               0.000533489               0.000000000               0.000000000               0.000000000               0.000000000              -0.003960750               0.006844688               0.001604201              -0.002340862               0.003061827               0.000720965               0.000000000               0.000000000               0.000000000               0.000000000              -0.003315696               0.006730130               0.001404009              -0.002084647               0.002938236               0.000853589               0.000000000               0.000000000               0.000000000               0.000000000              -0.002687654               0.006493874               0.001224968              -0.001819600               0.002771136               0.000951536               0.000000000               0.000000000               0.000000000               0.000000000              -0.002082744               0.006208475               0.001070633              -0.001557085               0.002588499               0.001031414               0.000000000               0.000000000               0.000000000               0.000000000              -0.001506979               0.005922097               0.000934756              -0.001305376               0.002409138               0.001103762               0.000000000               0.000000000               0.000000000               0.000000000              -0.000976483               0.005663236               0.000804867              -0.001074083               0.002245754               0.001171671               0.000000000               0.000000000               0.000000000               0.000000000              -0.000504758               0.005439398               0.000675037              -0.000869207               0.002102850               0.001233643               0.000000000               0.000000000               0.000000000               0.000000000              -0.000100808               0.005251876               0.000552935              -0.000694286               0.001982036               0.001287751               0.000000000               0.000000000               0.000000000               0.000000000               0.000230839               0.005100546               0.000437621              -0.000551002               0.001883832               0.001332830               0.000000000               0.000000000               0.000000000               0.000000000               0.000483690               0.004990818               0.000318970              -0.000442467               0.001811078               0.001368611               0.000000000               0.000000000               0.000000000               0.000000000               0.000648393               0.004930967               0.000196059              -0.000373223               0.001768047               0.001394824               0.000000000               0.000000000               0.000000000               0.000000000               0.000729185               0.004938603               0.000088116              -0.000343880               0.001760811               0.001416931               0.000000000               0.000000000               0.000000000               0.000000000               0.000734431               0.004954728               0.000036376              -0.000343928               0.001766202               0.001422274               0.000000000               0.000000000               0.000000000               0.000000000              -0.006692809               0.000675115              -0.000834068              -0.002594190               0.001089761              -0.001504429               0.000000000               0.000000000               0.000000000               0.000000000              -0.005725500               0.002692012               0.000696631              -0.002483560               0.001725179              -0.000758381               0.000000000               0.000000000               0.000000000               0.000000000              -0.005311879               0.004556622               0.001970389              -0.002561527               0.002372700              -0.000188827               0.000000000               0.000000000               0.000000000               0.000000000              -0.004676033               0.005465407               0.002159926              -0.002436683               0.002634011               0.000197328               0.000000000               0.000000000               0.000000000               0.000000000              -0.004002753               0.005876830               0.002038191              -0.002235631               0.002704133               0.000468502               0.000000000               0.000000000               0.000000000               0.000000000              -0.003338320               0.006012946               0.001836165              -0.002003484               0.002672123               0.000668639               0.000000000               0.000000000               0.000000000               0.000000000              -0.002707155               0.005987089               0.001636653              -0.001763565               0.002583531               0.000819966               0.000000000               0.000000000               0.000000000               0.000000000              -0.002101752               0.005873354               0.001463290              -0.001522323               0.002465206               0.000942883               0.000000000               0.000000000               0.000000000               0.000000000              -0.001513749               0.005725181               0.001306779              -0.001283301               0.002336141               0.001052840               0.000000000               0.000000000               0.000000000               0.000000000              -0.000957245               0.005573332               0.001151909              -0.001055631               0.002209636               0.001154005               0.000000000               0.000000000               0.000000000               0.000000000              -0.000446276               0.005427481               0.000994958              -0.000845787               0.002091071               0.001245284               0.000000000               0.000000000               0.000000000               0.000000000               0.000009744               0.005298463               0.000843410              -0.000658653               0.001985687               0.001327035               0.000000000               0.000000000               0.000000000               0.000000000               0.000404906               0.005188126               0.000692692              -0.000496675               0.001894916               0.001398241               0.000000000               0.000000000               0.000000000               0.000000000               0.000731122               0.005099820               0.000527358              -0.000363306               0.001821025               0.001457719               0.000000000               0.000000000               0.000000000               0.000000000               0.000975036               0.005031043               0.000349644              -0.000263241               0.001764745               0.001501503               0.000000000               0.000000000               0.000000000               0.000000000               0.001124712               0.004999106               0.000173738              -0.000203121               0.001734059               0.001530938               0.000000000               0.000000000               0.000000000               0.000000000               0.001168058               0.004995132               0.000086535              -0.000186369               0.001727150               0.001540781               0.000000000               0.000000000               0.000000000               0.000000000              -0.008893615              -0.000299658              -0.001333752              -0.003297646               0.000999322              -0.002298324               0.000000000               0.000000000               0.000000000               0.000000000              -0.006871369               0.001456923               0.000413949              -0.002758875               0.001405256              -0.001353619               0.000000000               0.000000000               0.000000000               0.000000000              -0.005598525               0.003022436               0.001940295              -0.002477247               0.001833215              -0.000644032               0.000000000               0.000000000               0.000000000               0.000000000              -0.004664062               0.004029417               0.002288148              -0.002252696               0.002094023              -0.000158673               0.000000000               0.000000000               0.000000000               0.000000000              -0.003892134               0.004648509               0.002248586              -0.002040610               0.002229690               0.000189080               0.000000000               0.000000000               0.000000000               0.000000000              -0.003199815               0.005007205               0.002081831              -0.001825827               0.002277660               0.000451833               0.000000000               0.000000000               0.000000000               0.000000000              -0.002561437               0.005195224               0.001890447              -0.001609938               0.002268370               0.000658431               0.000000000               0.000000000               0.000000000               0.000000000              -0.001966190               0.005270789               0.001715376              -0.001396167               0.002222301               0.000826134               0.000000000               0.000000000               0.000000000               0.000000000              -0.001390993               0.005279961               0.001555012              -0.001181615               0.002153841               0.000972225               0.000000000               0.000000000               0.000000000               0.000000000              -0.000828400               0.005253922               0.001395651              -0.000967388               0.002073752               0.001106364               0.000000000               0.000000000               0.000000000               0.000000000              -0.000285071               0.005213147               0.001232600              -0.000758544               0.001990546               0.001232002               0.000000000               0.000000000               0.000000000               0.000000000               0.000222477               0.005173701               0.001071215              -0.000563283               0.001912311               0.001349028               0.000000000               0.000000000               0.000000000               0.000000000               0.000681629               0.005133314               0.000906593              -0.000386053               0.001839772               0.001453719               0.000000000               0.000000000               0.000000000               0.000000000               0.001089585               0.005091202               0.000722671              -0.000227806               0.001772985               0.001545180               0.000000000               0.000000000               0.000000000               0.000000000               0.001436259               0.005049980               0.000510571              -0.000092650               0.001714193               0.001621543               0.000000000               0.000000000               0.000000000               0.000000000               0.001694122               0.005019961               0.000268790               0.000007800               0.001670703               0.001678504               0.000000000               0.000000000               0.000000000               0.000000000               0.001809314               0.005015921               0.000145263               0.000051502               0.001654789               0.001706291               0.000000000               0.000000000               0.000000000               0.000000000              -0.010990938              -0.000887672              -0.001493866              -0.004010640               0.001040982              -0.002969658               0.000000000               0.000000000               0.000000000               0.000000000              -0.008000509               0.000459903               0.000173797              -0.003057676               0.001172518              -0.001885158               0.000000000               0.000000000               0.000000000               0.000000000              -0.005862808               0.001585701               0.001685183              -0.002396763               0.001327478              -0.001069284               0.000000000               0.000000000               0.000000000               0.000000000              -0.004579379               0.002570948               0.002114450              -0.002038632               0.001536515              -0.000502117               0.000000000               0.000000000               0.000000000               0.000000000              -0.003668056               0.003321473               0.002150224              -0.001790702               0.001704046              -0.000086656               0.000000000               0.000000000               0.000000000               0.000000000              -0.002936763               0.003856956               0.002039797              -0.001583402               0.001813439               0.000230037               0.000000000               0.000000000               0.000000000               0.000000000              -0.002293257               0.004229610               0.001883321              -0.001388670               0.001872745               0.000484075               0.000000000               0.000000000               0.000000000               0.000000000              -0.001710739               0.004483164               0.001727443              -0.001201920               0.001895013               0.000693092               0.000000000               0.000000000               0.000000000               0.000000000              -0.001154443               0.004653242               0.001583031              -0.001014570               0.001889255               0.000874685               0.000000000               0.000000000               0.000000000               0.000000000              -0.000603843               0.004759771               0.001439698              -0.000821411               0.001860378               0.001038967               0.000000000               0.000000000               0.000000000               0.000000000              -0.000051598               0.004839248               0.001290107              -0.000624255               0.001821151               0.001196897               0.000000000               0.000000000               0.000000000               0.000000000               0.000496085               0.004909035               0.001138299              -0.000427597               0.001778861               0.001351264               0.000000000               0.000000000               0.000000000               0.000000000               0.001026631               0.004959615               0.000986753              -0.000234966               0.001731510               0.001496545               0.000000000               0.000000000               0.000000000               0.000000000               0.001535490               0.004990449               0.000818644              -0.000047998               0.001679466               0.001631468               0.000000000               0.000000000               0.000000000               0.000000000               0.002011209               0.005002534               0.000609327               0.000128885               0.001624533               0.001753418               0.000000000               0.000000000               0.000000000               0.000000000               0.002431274               0.005003212               0.000335693               0.000286323               0.001572280               0.001858603               0.000000000               0.000000000               0.000000000               0.000000000               0.002675930               0.005023022               0.000191811               0.000375592               0.001549127               0.001924719               0.000000000               0.000000000               0.000000000               0.000000000              -0.012748855              -0.001182007              -0.001274458              -0.004633067               0.001150345              -0.003482722               0.000000000               0.000000000               0.000000000               0.000000000              -0.008973568              -0.000260890               0.000026182              -0.003332474               0.001023854              -0.002308620               0.000000000               0.000000000               0.000000000               0.000000000              -0.006087126               0.000412163               0.001235571              -0.002334191               0.000915445              -0.001418746               0.000000000               0.000000000               0.000000000               0.000000000              -0.004468676               0.001303629               0.001629091              -0.001838705               0.001047437              -0.000791268               0.000000000               0.000000000               0.000000000               0.000000000              -0.003413293               0.002111622               0.001701569              -0.001543935               0.001218510              -0.000325425               0.000000000               0.000000000               0.000000000               0.000000000              -0.002633122               0.002769220               0.001645663              -0.001333571               0.001367587               0.000034016               0.000000000               0.000000000               0.000000000               0.000000000              -0.001986137               0.003282898               0.001539871              -0.001155161               0.001479342               0.000324180               0.000000000               0.000000000               0.000000000               0.000000000              -0.001410426               0.003673442               0.001426586              -0.000988088               0.001553830               0.000565742               0.000000000               0.000000000               0.000000000               0.000000000              -0.000868117               0.003970781               0.001321310              -0.000821890               0.001597544               0.000775653               0.000000000               0.000000000               0.000000000               0.000000000              -0.000331066               0.004208994               0.001212247              -0.000650273               0.001619741               0.000969468               0.000000000               0.000000000               0.000000000               0.000000000               0.000217034               0.004411485               0.001096382              -0.000470048               0.001627163               0.001157115               0.000000000               0.000000000               0.000000000               0.000000000               0.000787629               0.004584034               0.000979764              -0.000277643               0.001620544               0.001342900               0.000000000               0.000000000               0.000000000               0.000000000               0.001379290               0.004732328               0.000863634              -0.000074308               0.001602196               0.001527888               0.000000000               0.000000000               0.000000000               0.000000000               0.001984381               0.004852085               0.000732599               0.000137631               0.001571468               0.001709099               0.000000000               0.000000000               0.000000000               0.000000000               0.002600877               0.004934044               0.000560955               0.000358570               0.001525142               0.001883711               0.000000000               0.000000000               0.000000000               0.000000000               0.003227631               0.004977963               0.000319049               0.000588110               0.001463268               0.002051378               0.000000000               0.000000000               0.000000000               0.000000000               0.003660188               0.005034230               0.000193141               0.000743284               0.001430299               0.002173583               0.000000000               0.000000000               0.000000000               0.000000000              -0.013922827              -0.001300716              -0.000733149              -0.005058467               0.001252575              -0.003805892               0.000000000               0.000000000               0.000000000               0.000000000              -0.009636754              -0.000696289              -0.000020828              -0.003526744               0.000943479              -0.002583265               0.000000000               0.000000000               0.000000000               0.000000000              -0.006241818              -0.000356799               0.000651159              -0.002296080               0.000646422              -0.001649658               0.000000000               0.000000000               0.000000000               0.000000000              -0.004379083               0.000439308               0.000886162              -0.001697068               0.000712120              -0.000984948               0.000000000               0.000000000               0.000000000               0.000000000              -0.003214547               0.001261235               0.000941355              -0.001363107               0.000874775              -0.000488333               0.000000000               0.000000000               0.000000000               0.000000000              -0.002389778               0.001987734               0.000921776              -0.001144631               0.001044114              -0.000100517               0.000000000               0.000000000               0.000000000               0.000000000              -0.001736707               0.002580940               0.000870185              -0.000973880               0.001184931               0.000211051               0.000000000               0.000000000               0.000000000               0.000000000              -0.001164466               0.003054965               0.000812261              -0.000818544               0.001291159               0.000472615               0.000000000               0.000000000               0.000000000               0.000000000              -0.000630916               0.003444430               0.000758889              -0.000667146               0.001370514               0.000703368               0.000000000               0.000000000               0.000000000               0.000000000              -0.000103669               0.003775943               0.000699574              -0.000510868               0.001428924               0.000918056               0.000000000               0.000000000               0.000000000               0.000000000               0.000446206               0.004062872               0.000635309              -0.000340531               0.001467788               0.001127256               0.000000000               0.000000000               0.000000000               0.000000000               0.001033226               0.004309614               0.000572843              -0.000151242               0.001486938               0.001335696               0.000000000               0.000000000               0.000000000               0.000000000               0.001663359               0.004525512               0.000508472               0.000058070               0.001489132               0.001547202               0.000000000               0.000000000               0.000000000               0.000000000               0.002337870               0.004706397               0.000434341               0.000288399               0.001472650               0.001761049               0.000000000               0.000000000               0.000000000               0.000000000               0.003068108               0.004846234               0.000336527               0.000544756               0.001433810               0.001978566               0.000000000               0.000000000               0.000000000               0.000000000               0.003874747               0.004939504               0.000193545               0.000835584               0.001367957               0.002203541               0.000000000               0.000000000               0.000000000               0.000000000               0.004475687               0.005035126               0.000120407               0.001048981               0.001328698               0.002377679               0.000000000               0.000000000               0.000000000               0.000000000              -0.014334224              -0.001326494              -0.000000000              -0.005209519               0.001294333              -0.003915186               0.000000000               0.000000000               0.000000000               0.000000000              -0.009872505              -0.000838477              -0.000000000              -0.003597377               0.000919627              -0.002677750               0.000000000               0.000000000               0.000000000               0.000000000              -0.006298494              -0.000622881               0.000000000              -0.002284074               0.000553727              -0.001730346               0.000000000               0.000000000               0.000000000               0.000000000              -0.004346189               0.000132492               0.000000000              -0.001646381               0.000592954              -0.001053427               0.000000000               0.000000000               0.000000000               0.000000000              -0.003139004               0.000955205              -0.000000000              -0.001296525               0.000750572              -0.000545954               0.000000000               0.000000000               0.000000000               0.000000000              -0.002295211               0.001700980               0.000000000              -0.001073324               0.000924762              -0.000148562               0.000000000               0.000000000               0.000000000               0.000000000              -0.001638002               0.002318009              -0.000000000              -0.000904000               0.001073995               0.000169995               0.000000000               0.000000000               0.000000000               0.000000000              -0.001067386               0.002823593               0.000000000              -0.000753217               0.001192261               0.000439044               0.000000000               0.000000000               0.000000000               0.000000000              -0.000540188               0.003246390               0.000000000              -0.000608368               0.001284908               0.000676541               0.000000000               0.000000000               0.000000000               0.000000000              -0.000018409               0.003604929              -0.000000000              -0.000457518               0.001354137               0.000896619               0.000000000               0.000000000               0.000000000               0.000000000               0.000535899               0.003920875              -0.000000000              -0.000289147               0.001403328               0.001114181               0.000000000               0.000000000               0.000000000               0.000000000               0.001132888               0.004198638               0.000000000              -0.000099997               0.001432864               0.001332868               0.000000000               0.000000000               0.000000000               0.000000000               0.001778960               0.004441296              -0.000000000               0.000111947               0.001443101               0.001555048               0.000000000               0.000000000               0.000000000               0.000000000               0.002481968               0.004643030              -0.000000000               0.000350356               0.001430876               0.001781232               0.000000000               0.000000000               0.000000000               0.000000000               0.003254886               0.004800582               0.000000000               0.000620503               0.001393344               0.002013847               0.000000000               0.000000000               0.000000000               0.000000000               0.004128675               0.004914140               0.000000000               0.000933976               0.001326705               0.002260681               0.000000000               0.000000000               0.000000000               0.000000000               0.004793498               0.005027371              -0.000000000               0.001169129               0.001286064               0.002455192               0.000000000               0.000000000               0.000000000               0.000000000               0.002090280               0.021928849               0.000000000              -0.001957246               0.007961959               0.006004712               0.000000000               0.000000000               0.000000000               0.000000000               0.002001827               0.016762484               0.000000000              -0.001344622               0.006035646               0.004691024               0.000000000               0.000000000               0.000000000               0.000000000               0.002561696               0.012557114               0.000000000              -0.000609002               0.004388663               0.003779661               0.000000000               0.000000000               0.000000000               0.000000000               0.002354878               0.010175366               0.000000000              -0.000388841               0.003521368               0.003132528               0.000000000               0.000000000               0.000000000               0.000000000               0.001940470               0.008650544               0.000000000              -0.000353641               0.003001366               0.002647725               0.000000000               0.000000000               0.000000000               0.000000000               0.001512297               0.007574511              -0.000000000              -0.000379701               0.002651379               0.002271677               0.000000000               0.000000000               0.000000000               0.000000000               0.001131638               0.006741010              -0.000000000              -0.000418261               0.002386401               0.001968140               0.000000000               0.000000000               0.000000000               0.000000000               0.000812204               0.006038786              -0.000000000              -0.000450271               0.002162999               0.001712728               0.000000000               0.000000000               0.000000000               0.000000000               0.000547563               0.005412126               0.000000000              -0.000471179               0.001961083               0.001489905               0.000000000               0.000000000               0.000000000               0.000000000               0.000338343               0.004821550              -0.000000000              -0.000475814               0.001765772               0.001289958               0.000000000               0.000000000               0.000000000               0.000000000               0.000180206               0.004242167              -0.000000000              -0.000462693               0.001568272               0.001105580               0.000000000               0.000000000               0.000000000               0.000000000               0.000058355               0.003653031              -0.000000000              -0.000434745               0.001362580               0.000927835               0.000000000               0.000000000               0.000000000               0.000000000              -0.000027969               0.003037689               0.000000000              -0.000390199               0.001142619               0.000752420               0.000000000               0.000000000               0.000000000               0.000000000              -0.000077033               0.002381572               0.000000000              -0.000326583               0.000902710               0.000576127               0.000000000               0.000000000               0.000000000               0.000000000              -0.000085220               0.001667959              -0.000000000              -0.000240452               0.000636131               0.000395679               0.000000000               0.000000000               0.000000000               0.000000000              -0.000052403               0.000867426              -0.000000000              -0.000128079               0.000331832               0.000203753               0.000000000               0.000000000               0.000000000               0.000000000              -0.000091980               0.000253438               0.000000000              -0.000066172               0.000106536               0.000040363               0.000000000               0.000000000               0.000000000               0.000000000               0.002144858               0.021455024              -0.001442766              -0.001877552               0.007777454               0.005899902               0.000000000               0.000000000               0.000000000               0.000000000               0.001935786               0.016461699              -0.000633622              -0.001331789               0.005931108               0.004599319               0.000000000               0.000000000               0.000000000               0.000000000               0.002367240               0.012438868               0.000166707              -0.000667142               0.004368628               0.003701487               0.000000000               0.000000000               0.000000000               0.000000000               0.002112960               0.010151667               0.000492701              -0.000476597               0.003542721               0.003066124               0.000000000               0.000000000               0.000000000               0.000000000               0.001692637               0.008678279               0.000616806              -0.000450045               0.003042746               0.002592701               0.000000000               0.000000000               0.000000000               0.000000000               0.001276541               0.007627348               0.000653810              -0.000474715               0.002700662               0.002225947               0.000000000               0.000000000               0.000000000               0.000000000               0.000915384               0.006805073               0.000648353              -0.000507364               0.002437456               0.001930092               0.000000000               0.000000000               0.000000000               0.000000000               0.000615236               0.006110929               0.000626431              -0.000533151               0.002214673               0.001681522               0.000000000               0.000000000               0.000000000               0.000000000               0.000371514               0.005490047               0.000594968              -0.000546937               0.002012309               0.001465373               0.000000000               0.000000000               0.000000000               0.000000000               0.000189207               0.004905784               0.000556731              -0.000542269               0.001816001               0.001273732               0.000000000               0.000000000               0.000000000               0.000000000               0.000058952               0.004330566               0.000516918              -0.000519213               0.001616578               0.001097366               0.000000000               0.000000000               0.000000000               0.000000000              -0.000035250               0.003745707               0.000474612              -0.000481431               0.001409033               0.000927602               0.000000000               0.000000000               0.000000000               0.000000000              -0.000093426               0.003140895               0.000427071              -0.000427646               0.001189503               0.000761857               0.000000000               0.000000000               0.000000000               0.000000000              -0.000117281               0.002508645               0.000369660              -0.000357560               0.000955393               0.000597833               0.000000000               0.000000000               0.000000000               0.000000000              -0.000109130               0.001836879               0.000289011              -0.000270533               0.000702464               0.000431931               0.000000000               0.000000000               0.000000000               0.000000000              -0.000063866               0.001106449               0.000166862              -0.000162256               0.000422898               0.000260642               0.000000000               0.000000000               0.000000000               0.000000000              -0.000089267               0.000560786               0.000104549              -0.000103573               0.000221451               0.000117878               0.000000000               0.000000000               0.000000000               0.000000000               0.002273975               0.020101866              -0.002669166              -0.001659990               0.007253885               0.005593895               0.000000000               0.000000000               0.000000000               0.000000000               0.001730095               0.015609884              -0.001163471              -0.001302447               0.005637392               0.004334945               0.000000000               0.000000000               0.000000000               0.000000000               0.001806622               0.012108813               0.000307729              -0.000836116               0.004314936               0.003478820               0.000000000               0.000000000               0.000000000               0.000000000               0.001431348               0.010085044               0.000883031              -0.000723874               0.003602939               0.002879065               0.000000000               0.000000000               0.000000000               0.000000000               0.001001941               0.008747043               0.001089790              -0.000717651               0.003154869               0.002437217               0.000000000               0.000000000               0.000000000               0.000000000               0.000627355               0.007762750               0.001140123              -0.000735084               0.002832585               0.002097501               0.000000000               0.000000000               0.000000000               0.000000000               0.000330880               0.006975275               0.001118797              -0.000747828               0.002574344               0.001826516               0.000000000               0.000000000               0.000000000               0.000000000               0.000098880               0.006298153               0.001071907              -0.000750188               0.002349426               0.001599238               0.000000000               0.000000000               0.000000000               0.000000000              -0.000075606               0.005685391               0.001013374              -0.000739025               0.002141453               0.001402428               0.000000000               0.000000000               0.000000000               0.000000000              -0.000187037               0.005107544               0.000943065              -0.000708580               0.001938691               0.001230111               0.000000000               0.000000000               0.000000000               0.000000000              -0.000247187               0.004540559               0.000867791              -0.000660264               0.001733592               0.001073329               0.000000000               0.000000000               0.000000000               0.000000000              -0.000269441               0.003973231               0.000788685              -0.000597693               0.001523628               0.000925935               0.000000000               0.000000000               0.000000000               0.000000000              -0.000260293               0.003406305               0.000701915              -0.000523397               0.001309889               0.000786492               0.000000000               0.000000000               0.000000000               0.000000000              -0.000227812               0.002839306               0.000599216              -0.000440342               0.001093206               0.000652864               0.000000000               0.000000000               0.000000000               0.000000000              -0.000171886               0.002270677               0.000459585              -0.000348291               0.000872982               0.000524690               0.000000000               0.000000000               0.000000000               0.000000000              -0.000091184               0.001703049               0.000259684              -0.000247075               0.000650036               0.000402961               0.000000000               0.000000000               0.000000000               0.000000000              -0.000086356               0.001311492               0.000157650              -0.000196319               0.000502599               0.000306280               0.000000000               0.000000000               0.000000000               0.000000000               0.002367556               0.018053270              -0.003504545              -0.001368824               0.006473971               0.005105147               0.000000000               0.000000000               0.000000000               0.000000000               0.001355955               0.014343358              -0.001517956              -0.001284434               0.005209216               0.003924782               0.000000000               0.000000000               0.000000000               0.000000000               0.000942525               0.011623184               0.000390101              -0.001099449               0.004240839               0.003141390               0.000000000               0.000000000               0.000000000               0.000000000               0.000436255               0.009974334               0.001091626              -0.001083194               0.003685809               0.002602616               0.000000000               0.000000000               0.000000000               0.000000000               0.000026286               0.008820071               0.001320333              -0.001092650               0.003304211               0.002211561               0.000000000               0.000000000               0.000000000               0.000000000              -0.000270113               0.007925376               0.001359580              -0.001091962               0.003005753               0.001913791               0.000000000               0.000000000               0.000000000               0.000000000              -0.000464459               0.007178631               0.001317182              -0.001071499               0.002750019               0.001678520               0.000000000               0.000000000               0.000000000               0.000000000              -0.000577905               0.006518337               0.001247059              -0.001031504               0.002516592               0.001485087               0.000000000               0.000000000               0.000000000               0.000000000              -0.000632010               0.005908559               0.001168826              -0.000975572               0.002294690               0.001319119               0.000000000               0.000000000               0.000000000               0.000000000              -0.000634518               0.005333797               0.001077173              -0.000904667               0.002079470               0.001174803               0.000000000               0.000000000               0.000000000               0.000000000              -0.000595959               0.004781579               0.000977745              -0.000821180               0.001867570               0.001046390               0.000000000               0.000000000               0.000000000               0.000000000              -0.000531494               0.004248318               0.000873950              -0.000730349               0.001659541               0.000929193               0.000000000               0.000000000               0.000000000               0.000000000              -0.000446202               0.003736134               0.000762651              -0.000634341               0.001456813               0.000822471               0.000000000               0.000000000               0.000000000               0.000000000              -0.000345626               0.003249955               0.000632901              -0.000535853               0.001261925               0.000726072               0.000000000               0.000000000               0.000000000               0.000000000              -0.000233301               0.002797864               0.000468072              -0.000437220               0.001078352               0.000641132               0.000000000               0.000000000               0.000000000               0.000000000              -0.000115562               0.002399848               0.000255038              -0.000343316               0.000914380               0.000571064               0.000000000               0.000000000               0.000000000               0.000000000              -0.000082609               0.002159537               0.000148799              -0.000300920               0.000820145               0.000519225               0.000000000               0.000000000               0.000000000               0.000000000               0.002272450               0.015556761              -0.003867683              -0.001092426               0.005549677               0.004457250               0.000000000               0.000000000               0.000000000               0.000000000               0.000779276               0.012840074              -0.001681922              -0.001312778               0.004717575               0.003404796               0.000000000               0.000000000               0.000000000               0.000000000              -0.000131564               0.011052154               0.000379379              -0.001430852               0.004160965               0.002730113               0.000000000               0.000000000               0.000000000               0.000000000              -0.000708209               0.009809702               0.001078155              -0.001491788               0.003767131               0.002275343               0.000000000               0.000000000               0.000000000               0.000000000              -0.001035736               0.008843409               0.001276996              -0.001493824               0.003445715               0.001951891               0.000000000               0.000000000               0.000000000               0.000000000              -0.001198452               0.008036151               0.001291840              -0.001453935               0.003163335               0.001709400               0.000000000               0.000000000               0.000000000               0.000000000              -0.001251933               0.007323745               0.001233972              -0.001384940               0.002902870               0.001517930               0.000000000               0.000000000               0.000000000               0.000000000              -0.001223685               0.006676509               0.001152745              -0.001293443               0.002656628               0.001363185               0.000000000               0.000000000               0.000000000               0.000000000              -0.001136549               0.006069307               0.001069050              -0.001184866               0.002418037               0.001233171               0.000000000               0.000000000               0.000000000               0.000000000              -0.001012220               0.005502000               0.000976484              -0.001067330               0.002189758               0.001122428               0.000000000               0.000000000               0.000000000               0.000000000              -0.000869640               0.004975117               0.000872631              -0.000948003               0.001974356               0.001026354               0.000000000               0.000000000               0.000000000               0.000000000              -0.000724333               0.004480696               0.000761386              -0.000831710               0.001770787               0.000939077               0.000000000               0.000000000               0.000000000               0.000000000              -0.000574152               0.004023113               0.000644563              -0.000718195               0.001580422               0.000862228               0.000000000               0.000000000               0.000000000               0.000000000              -0.000417367               0.003614105               0.000517188              -0.000608274               0.001407448               0.000799173               0.000000000               0.000000000               0.000000000               0.000000000              -0.000260221               0.003270406               0.000367832              -0.000506383               0.001258919               0.000752536               0.000000000               0.000000000               0.000000000               0.000000000              -0.000121290               0.003011730               0.000194267              -0.000421949               0.001144549               0.000722600               0.000000000               0.000000000               0.000000000               0.000000000              -0.000073085               0.002882427               0.000110416              -0.000387709               0.001090036               0.000702326               0.000000000               0.000000000               0.000000000               0.000000000               0.001871276               0.012870631              -0.003771710              -0.000907101               0.004592534               0.003685432               0.000000000               0.000000000               0.000000000               0.000000000               0.000009372               0.011262312              -0.001687402              -0.001404272               0.004222157               0.002817885               0.000000000               0.000000000               0.000000000               0.000000000              -0.001298428               0.010437050               0.000244741              -0.001791537               0.004076161               0.002284624               0.000000000               0.000000000               0.000000000               0.000000000              -0.001841274               0.009571352               0.000843576              -0.001886892               0.003819383               0.001932491               0.000000000               0.000000000               0.000000000               0.000000000              -0.002009478               0.008766344               0.000992821              -0.001849343               0.003538533               0.001689190               0.000000000               0.000000000               0.000000000               0.000000000              -0.001990388               0.008026178               0.000989630              -0.001749664               0.003258587               0.001508923               0.000000000               0.000000000               0.000000000               0.000000000              -0.001869794               0.007344713               0.000932700              -0.001619258               0.002987966               0.001368708               0.000000000               0.000000000               0.000000000               0.000000000              -0.001685888               0.006707842               0.000861470              -0.001470685               0.002726153               0.001255468               0.000000000               0.000000000               0.000000000               0.000000000              -0.001462968               0.006109327               0.000793841              -0.001312276               0.002473847               0.001161571               0.000000000               0.000000000               0.000000000               0.000000000              -0.001226726               0.005558550               0.000727085              -0.001154838               0.002237778               0.001082939               0.000000000               0.000000000               0.000000000               0.000000000              -0.000998333               0.005063272               0.000642921              -0.001007281               0.002023501               0.001016220               0.000000000               0.000000000               0.000000000               0.000000000              -0.000787707               0.004613933               0.000546460              -0.000872130               0.001828672               0.000956542               0.000000000               0.000000000               0.000000000               0.000000000              -0.000582569               0.004221555               0.000448061              -0.000746156               0.001655890               0.000909734               0.000000000               0.000000000               0.000000000               0.000000000              -0.000388444               0.003896788               0.000346012              -0.000632763               0.001509837               0.000877074               0.000000000               0.000000000               0.000000000               0.000000000              -0.000220047               0.003652764               0.000235114              -0.000539112               0.001397280               0.000858168               0.000000000               0.000000000               0.000000000               0.000000000              -0.000093841               0.003506848               0.000119322              -0.000473545               0.001326786               0.000853241               0.000000000               0.000000000               0.000000000               0.000000000              -0.000044940               0.003460836               0.000062510              -0.000449456               0.001303419               0.000853963               0.000000000               0.000000000               0.000000000               0.000000000               0.001102349               0.010216722              -0.003301779              -0.000863710               0.003693442               0.002829732               0.000000000               0.000000000               0.000000000               0.000000000              -0.000909400               0.009728331              -0.001596548              -0.001557063               0.003761765               0.002204702               0.000000000               0.000000000               0.000000000               0.000000000              -0.002422106               0.009787056              -0.000026749              -0.002131667               0.003972875               0.001841208               0.000000000               0.000000000               0.000000000               0.000000000              -0.002809643               0.009236233               0.000429675              -0.002208140               0.003814760               0.001606620               0.000000000               0.000000000               0.000000000               0.000000000              -0.002763909               0.008558586               0.000541835              -0.002106284               0.003554928               0.001448644               0.000000000               0.000000000               0.000000000               0.000000000              -0.002541675               0.007875355               0.000546058              -0.001937543               0.003270940               0.001333397               0.000000000               0.000000000               0.000000000               0.000000000              -0.002241553               0.007218644               0.000519290              -0.001742909               0.002987160               0.001244252               0.000000000               0.000000000               0.000000000               0.000000000              -0.001908420               0.006593583               0.000483959              -0.001539852               0.002711123               0.001171271               0.000000000               0.000000000               0.000000000               0.000000000              -0.001565457               0.006016607               0.000452576              -0.001339119               0.002451888               0.001112769               0.000000000               0.000000000               0.000000000               0.000000000              -0.001239288               0.005499964               0.000424130              -0.001152226               0.002217378               0.001065152               0.000000000               0.000000000               0.000000000               0.000000000              -0.000940779               0.005046999               0.000376763              -0.000983665               0.002010204               0.001026540               0.000000000               0.000000000               0.000000000               0.000000000              -0.000676291               0.004657134               0.000310023              -0.000835749               0.001830945               0.000995197               0.000000000               0.000000000               0.000000000               0.000000000              -0.000444741               0.004341241               0.000239195              -0.000709431               0.001683543               0.000974112               0.000000000               0.000000000               0.000000000               0.000000000              -0.000250999               0.004106296               0.000165816              -0.000607410               0.001571222               0.000963812               0.000000000               0.000000000               0.000000000               0.000000000              -0.000109222               0.003958722               0.000094618              -0.000535797               0.001498160               0.000962363               0.000000000               0.000000000               0.000000000               0.000000000              -0.000031001               0.003902720               0.000037594              -0.000499464               0.001467382               0.000967918               0.000000000               0.000000000               0.000000000               0.000000000              -0.000001786               0.003913594               0.000008525              -0.000489868               0.001467808               0.000977940               0.000000000               0.000000000               0.000000000               0.000000000               0.000007088               0.007762317              -0.002568563              -0.000967631               0.002909956               0.001942325               0.000000000               0.000000000               0.000000000               0.000000000              -0.001915358               0.008324410              -0.001464121              -0.001758807               0.003361044               0.001602237               0.000000000               0.000000000               0.000000000               0.000000000              -0.003385156               0.009102672              -0.000420642              -0.002407262               0.003836614               0.001429353               0.000000000               0.000000000               0.000000000               0.000000000              -0.003516557               0.008792290              -0.000093303              -0.002417739               0.003736647               0.001318908               0.000000000               0.000000000               0.000000000               0.000000000              -0.003229796               0.008222210               0.000019369              -0.002238944               0.003487024               0.001248080               0.000000000               0.000000000               0.000000000               0.000000000              -0.002813114               0.007594707               0.000063723              -0.002004251               0.003199627               0.001195376               0.000000000               0.000000000               0.000000000               0.000000000              -0.002353618               0.006967315               0.000090176              -0.001753517               0.002906921               0.001153404               0.000000000               0.000000000               0.000000000               0.000000000              -0.001896619               0.006373315               0.000105469              -0.001507893               0.002627048               0.001119155               0.000000000               0.000000000               0.000000000               0.000000000              -0.001462328               0.005840405               0.000117491              -0.001278420               0.002372922               0.001094502               0.000000000               0.000000000               0.000000000               0.000000000              -0.001062720               0.005377859               0.000129497              -0.001070750               0.002149518               0.001078769               0.000000000               0.000000000               0.000000000               0.000000000              -0.000713409               0.004981550               0.000121915              -0.000890220               0.001957240               0.001067020               0.000000000               0.000000000               0.000000000               0.000000000              -0.000419865               0.004664921               0.000092007              -0.000740563               0.001801812               0.001061250               0.000000000               0.000000000               0.000000000               0.000000000              -0.000191366               0.004439873               0.000054446              -0.000626745               0.001688858               0.001062113               0.000000000               0.000000000               0.000000000               0.000000000              -0.000035853               0.004306917               0.000015903              -0.000551808               0.001619561               0.001067753               0.000000000               0.000000000               0.000000000               0.000000000               0.000044247               0.004264018              -0.000012270              -0.000516408               0.001593461               0.001077053               0.000000000               0.000000000               0.000000000               0.000000000               0.000050109               0.004291259              -0.000017918              -0.000517615               0.001602944               0.001085329               0.000000000               0.000000000               0.000000000               0.000000000               0.000038225               0.004337200              -0.000018881              -0.000527814               0.001621657               0.001093843               0.000000000               0.000000000               0.000000000               0.000000000              -0.001277842               0.005690991              -0.001692216              -0.001190563               0.002293832               0.001103269               0.000000000               0.000000000               0.000000000               0.000000000              -0.002897278               0.007061758              -0.001325717              -0.001969195               0.003010294               0.001041099               0.000000000               0.000000000               0.000000000               0.000000000              -0.004144161               0.008400809              -0.000895269              -0.002604155               0.003668293               0.001064138               0.000000000               0.000000000               0.000000000               0.000000000              -0.004008492               0.008339333              -0.000650683              -0.002545595               0.003628282               0.001082687               0.000000000               0.000000000               0.000000000               0.000000000              -0.003519511               0.007905760              -0.000504260              -0.002308031               0.003404571               0.001096540               0.000000000               0.000000000               0.000000000               0.000000000              -0.002944256               0.007357794              -0.000401661              -0.002023815               0.003127179               0.001103363               0.000000000               0.000000000               0.000000000               0.000000000              -0.002362917               0.006786345              -0.000318009              -0.001734383               0.002840220               0.001105837               0.000000000               0.000000000               0.000000000               0.000000000              -0.001807889               0.006244814              -0.000251185              -0.001458557               0.002567769               0.001109213               0.000000000               0.000000000               0.000000000               0.000000000              -0.001302946               0.005765964              -0.000194457              -0.001209347               0.002325084               0.001115737               0.000000000               0.000000000               0.000000000               0.000000000              -0.000850909               0.005359690              -0.000142905              -0.000989050               0.002116229               0.001127179               0.000000000               0.000000000               0.000000000               0.000000000              -0.000468943               0.005016346              -0.000104994              -0.000802895               0.001939730               0.001136835               0.000000000               0.000000000               0.000000000               0.000000000              -0.000163746               0.004757962              -0.000086282              -0.000656148               0.001804688               0.001148539               0.000000000               0.000000000               0.000000000               0.000000000               0.000059117               0.004597875              -0.000076983              -0.000552564               0.001716798               0.001164234               0.000000000               0.000000000               0.000000000               0.000000000               0.000194998               0.004537880              -0.000065885              -0.000494109               0.001677315               0.001183205               0.000000000               0.000000000               0.000000000               0.000000000               0.000240790               0.004567654              -0.000046977              -0.000480659               0.001682756               0.001202097               0.000000000               0.000000000               0.000000000               0.000000000               0.000209692               0.004660636              -0.000023068              -0.000503944               0.001721511               0.001217567               0.000000000               0.000000000               0.000000000               0.000000000               0.000167542               0.004724472              -0.000009204              -0.000527729               0.001750718               0.001222989               0.000000000               0.000000000               0.000000000               0.000000000              -0.002754722               0.003779205              -0.000780940              -0.001505418               0.001761528               0.000256110               0.000000000               0.000000000               0.000000000               0.000000000              -0.003731821               0.005588793              -0.001174218              -0.002098027               0.002562255               0.000464227               0.000000000               0.000000000               0.000000000               0.000000000              -0.004610343               0.007325374              -0.001387243              -0.002644544               0.003323281               0.000678737               0.000000000               0.000000000               0.000000000               0.000000000              -0.004326716               0.007643466              -0.001233325              -0.002577946               0.003407112               0.000829166               0.000000000               0.000000000               0.000000000               0.000000000              -0.003758096               0.007476788              -0.001052658              -0.002343879               0.003273530               0.000929652               0.000000000               0.000000000               0.000000000               0.000000000              -0.003131769               0.007120340              -0.000891805              -0.002064451               0.003061573               0.000997122               0.000000000               0.000000000               0.000000000               0.000000000              -0.002514691               0.006695675              -0.000755722              -0.001779964               0.002825191               0.001045227               0.000000000               0.000000000               0.000000000               0.000000000              -0.001924113               0.006266871              -0.000640466              -0.001504897               0.002590568               0.001085671               0.000000000               0.000000000               0.000000000               0.000000000              -0.001380639               0.005874844              -0.000539447              -0.001252092               0.002375626               0.001123534               0.000000000               0.000000000               0.000000000               0.000000000              -0.000890434               0.005539026              -0.000446486              -0.001026288               0.002188420               0.001162131               0.000000000               0.000000000               0.000000000               0.000000000              -0.000467740               0.005256169              -0.000360112              -0.000832422               0.002029513               0.001197091               0.000000000               0.000000000               0.000000000               0.000000000              -0.000120753               0.005033400              -0.000288075              -0.000674456               0.001902602               0.001228146               0.000000000               0.000000000               0.000000000               0.000000000               0.000144003               0.004877161              -0.000224451              -0.000555643               0.001810918               0.001255276               0.000000000               0.000000000               0.000000000               0.000000000               0.000322220               0.004792166              -0.000158914              -0.000478187               0.001756768               0.001278581               0.000000000               0.000000000               0.000000000               0.000000000               0.000413719               0.004785989              -0.000090233              -0.000443103               0.001743015               0.001299912               0.000000000               0.000000000               0.000000000               0.000000000               0.000431151               0.004863719              -0.000032763              -0.000446282               0.001769984               0.001323702               0.000000000               0.000000000               0.000000000               0.000000000               0.000406002               0.004915269              -0.000004184              -0.000462157               0.001792459               0.001330302               0.000000000               0.000000000               0.000000000               0.000000000              -0.004599327               0.002058670               0.000092352              -0.001982078               0.001346907              -0.000635171               0.000000000               0.000000000               0.000000000               0.000000000              -0.004662046               0.004094607              -0.000965605              -0.002260088               0.002118217              -0.000141871               0.000000000               0.000000000               0.000000000               0.000000000              -0.004992367               0.006033241              -0.001778127              -0.002626287               0.002886489               0.000260202               0.000000000               0.000000000               0.000000000               0.000000000              -0.004573454               0.006707484              -0.001780262              -0.002553475               0.003086963               0.000533489               0.000000000               0.000000000               0.000000000               0.000000000              -0.003960750               0.006844688              -0.001604201              -0.002340862               0.003061827               0.000720965               0.000000000               0.000000000               0.000000000               0.000000000              -0.003315696               0.006730130              -0.001404009              -0.002084647               0.002938236               0.000853589               0.000000000               0.000000000               0.000000000               0.000000000              -0.002687654               0.006493874              -0.001224968              -0.001819600               0.002771136               0.000951536               0.000000000               0.000000000               0.000000000               0.000000000              -0.002082744               0.006208475              -0.001070633              -0.001557085               0.002588499               0.001031414               0.000000000               0.000000000               0.000000000               0.000000000              -0.001506979               0.005922097              -0.000934756              -0.001305376               0.002409138               0.001103762               0.000000000               0.000000000               0.000000000               0.000000000              -0.000976483               0.005663236              -0.000804867              -0.001074083               0.002245754               0.001171671               0.000000000               0.000000000               0.000000000               0.000000000              -0.000504758               0.005439398              -0.000675037              -0.000869207               0.002102850               0.001233643               0.000000000               0.000000000               0.000000000               0.000000000              -0.000100808               0.005251876              -0.000552935              -0.000694286               0.001982036               0.001287751               0.000000000               0.000000000               0.000000000               0.000000000               0.000230839               0.005100546              -0.000437621              -0.000551002               0.001883832               0.001332830               0.000000000               0.000000000               0.000000000               0.000000000               0.000483690               0.004990818              -0.000318970              -0.000442467               0.001811078               0.001368611               0.000000000               0.000000000               0.000000000               0.000000000               0.000648393               0.004930967              -0.000196059              -0.000373223               0.001768047               0.001394824               0.000000000               0.000000000               0.000000000               0.000000000               0.000729185               0.004938603              -0.000088116              -0.000343880               0.001760811               0.001416931               0.000000000               0.000000000               0.000000000               0.000000000               0.000734431               0.004954728              -0.000036376              -0.000343928               0.001766202               0.001422274               0.000000000               0.000000000               0.000000000               0.000000000              -0.006692809               0.000675115               0.000834068              -0.002594190               0.001089761              -0.001504429               0.000000000               0.000000000               0.000000000               0.000000000              -0.005725500               0.002692012              -0.000696631              -0.002483560               0.001725179              -0.000758381               0.000000000               0.000000000               0.000000000               0.000000000              -0.005311879               0.004556622              -0.001970389              -0.002561527               0.002372700              -0.000188827               0.000000000               0.000000000               0.000000000               0.000000000              -0.004676033               0.005465407              -0.002159926              -0.002436683               0.002634011               0.000197328               0.000000000               0.000000000               0.000000000               0.000000000              -0.004002753               0.005876830              -0.002038191              -0.002235631               0.002704133               0.000468502               0.000000000               0.000000000               0.000000000               0.000000000              -0.003338320               0.006012946              -0.001836165              -0.002003484               0.002672123               0.000668639               0.000000000               0.000000000               0.000000000               0.000000000              -0.002707155               0.005987089              -0.001636653              -0.001763565               0.002583531               0.000819966               0.000000000               0.000000000               0.000000000               0.000000000              -0.002101752               0.005873354              -0.001463290              -0.001522323               0.002465206               0.000942883               0.000000000               0.000000000               0.000000000               0.000000000              -0.001513749               0.005725181              -0.001306779              -0.001283301               0.002336141               0.001052840               0.000000000               0.000000000               0.000000000               0.000000000              -0.000957245               0.005573332              -0.001151909              -0.001055631               0.002209636               0.001154005               0.000000000               0.000000000               0.000000000               0.000000000              -0.000446276               0.005427481              -0.000994958              -0.000845787               0.002091071               0.001245284               0.000000000               0.000000000               0.000000000               0.000000000               0.000009744               0.005298463              -0.000843410              -0.000658653               0.001985687               0.001327035               0.000000000               0.000000000               0.000000000               0.000000000               0.000404906               0.005188126              -0.000692692              -0.000496675               0.001894916               0.001398241               0.000000000               0.000000000               0.000000000               0.000000000               0.000731122               0.005099820              -0.000527358              -0.000363306               0.001821025               0.001457719               0.000000000               0.000000000               0.000000000               0.000000000               0.000975036               0.005031043              -0.000349644              -0.000263241               0.001764745               0.001501503               0.000000000               0.000000000               0.000000000               0.000000000               0.001124712               0.004999106              -0.000173738              -0.000203121               0.001734059               0.001530938               0.000000000               0.000000000               0.000000000               0.000000000               0.001168058               0.004995132              -0.000086535              -0.000186369               0.001727150               0.001540781               0.000000000               0.000000000               0.000000000               0.000000000              -0.008893615              -0.000299658               0.001333752              -0.003297646               0.000999322              -0.002298324               0.000000000               0.000000000               0.000000000               0.000000000              -0.006871369               0.001456923              -0.000413949              -0.002758875               0.001405256              -0.001353619               0.000000000               0.000000000               0.000000000               0.000000000              -0.005598525               0.003022436              -0.001940295              -0.002477247               0.001833215              -0.000644032               0.000000000               0.000000000               0.000000000               0.000000000              -0.004664062               0.004029417              -0.002288148              -0.002252696               0.002094023              -0.000158673               0.000000000               0.000000000               0.000000000               0.000000000              -0.003892134               0.004648509              -0.002248586              -0.002040610               0.002229690               0.000189080               0.000000000               0.000000000               0.000000000               0.000000000              -0.003199815               0.005007205              -0.002081831              -0.001825827               0.002277660               0.000451833               0.000000000               0.000000000               0.000000000               0.000000000              -0.002561437               0.005195224              -0.001890447              -0.001609938               0.002268370               0.000658431               0.000000000               0.000000000               0.000000000               0.000000000              -0.001966190               0.005270789              -0.001715376              -0.001396167               0.002222301               0.000826134               0.000000000               0.000000000               0.000000000               0.000000000              -0.001390993               0.005279961              -0.001555012              -0.001181615               0.002153841               0.000972225               0.000000000               0.000000000               0.000000000               0.000000000              -0.000828400               0.005253922              -0.001395651              -0.000967388               0.002073752               0.001106364               0.000000000               0.000000000               0.000000000               0.000000000              -0.000285071               0.005213147              -0.001232600              -0.000758544               0.001990546               0.001232002               0.000000000               0.000000000               0.000000000               0.000000000               0.000222477               0.005173701              -0.001071215              -0.000563283               0.001912311               0.001349028               0.000000000               0.000000000               0.000000000               0.000000000               0.000681629               0.005133314              -0.000906593              -0.000386053               0.001839772               0.001453719               0.000000000               0.000000000               0.000000000               0.000000000               0.001089585               0.005091202              -0.000722671              -0.000227806               0.001772985               0.001545180               0.000000000               0.000000000               0.000000000               0.000000000               0.001436259               0.005049980              -0.000510571              -0.000092650               0.001714193               0.001621543               0.000000000               0.000000000               0.000000000               0.000000000               0.001694122               0.005019961              -0.000268790               0.000007800               0.001670703               0.001678504               0.000000000               0.000000000               0.000000000               0.000000000               0.001809314               0.005015921              -0.000145263               0.000051502               0.001654789               0.001706291               0.000000000               0.000000000               0.000000000               0.000000000              -0.010990938              -0.000887672               0.001493866              -0.004010640               0.001040982              -0.002969658               0.000000000               0.000000000               0.000000000               0.000000000              -0.008000509               0.000459903              -0.000173797              -0.003057676               0.001172518              -0.001885158               0.000000000               0.000000000               0.000000000               0.000000000              -0.005862808               0.001585701              -0.001685183              -0.002396763               0.001327478              -0.001069284               0.000000000               0.000000000               0.000000000               0.000000000              -0.004579379               0.002570948              -0.002114450              -0.002038632               0.001536515              -0.000502117               0.000000000               0.000000000               0.000000000               0.000000000              -0.003668056               0.003321473              -0.002150224              -0.001790702               0.001704046              -0.000086656               0.000000000               0.000000000               0.000000000               0.000000000              -0.002936763               0.003856956              -0.002039797              -0.001583402               0.001813439               0.000230037               0.000000000               0.000000000               0.000000000               0.000000000              -0.002293257               0.004229610              -0.001883321              -0.001388670               0.001872745               0.000484075               0.000000000               0.000000000               0.000000000               0.000000000              -0.001710739               0.004483164              -0.001727443              -0.001201920               0.001895013               0.000693092               0.000000000               0.000000000               0.000000000               0.000000000              -0.001154443               0.004653242              -0.001583031              -0.001014570               0.001889255               0.000874685               0.000000000               0.000000000               0.000000000               0.000000000              -0.000603843               0.004759771              -0.001439698              -0.000821411               0.001860378               0.001038967               0.000000000               0.000000000               0.000000000               0.000000000              -0.000051598               0.004839248              -0.001290107              -0.000624255               0.001821151               0.001196897               0.000000000               0.000000000               0.000000000               0.000000000               0.000496085               0.004909035              -0.001138299              -0.000427597               0.001778861               0.001351264               0.000000000               0.000000000               0.000000000               0.000000000               0.001026631               0.004959615              -0.000986753              -0.000234966               0.001731510               0.001496545               0.000000000               0.000000000               0.000000000               0.000000000               0.001535490               0.004990449              -0.000818644              -0.000047998               0.001679466               0.001631468               0.000000000               0.000000000               0.000000000               0.000000000               0.002011209               0.005002534              -0.000609327               0.000128885               0.001624533               0.001753418               0.000000000               0.000000000               0.000000000               0.000000000               0.002431274               0.005003212              -0.000335693               0.000286323               0.001572280               0.001858603               0.000000000               0.000000000               0.000000000               0.000000000               0.002675930               0.005023022              -0.000191811               0.000375592               0.001549127               0.001924719               0.000000000               0.000000000               0.000000000               0.000000000              -0.012748855              -0.001182007               0.001274458              -0.004633067               0.001150345              -0.003482722               0.000000000               0.000000000               0.000000000               0.000000000              -0.008973568              -0.000260890              -0.000026182              -0.003332474               0.001023854              -0.002308620               0.000000000               0.000000000               0.000000000               0.000000000              -0.006087126               0.000412163              -0.001235571              -0.002334191               0.000915445              -0.001418746               0.000000000               0.000000000               0.000000000               0.000000000              -0.004468676               0.001303629              -0.001629091              -0.001838705               0.001047437              -0.000791268               0.000000000               0.000000000               0.000000000               0.000000000              -0.003413293               0.002111622              -0.001701569              -0.001543935               0.001218510              -0.000325425               0.000000000               0.000000000               0.000000000               0.000000000              -0.002633122               0.002769220              -0.001645663              -0.001333571               0.001367587               0.000034016               0.000000000               0.000000000               0.000000000               0.000000000              -0.001986137               0.003282898              -0.001539871              -0.001155161               0.001479342               0.000324180               0.000000000               0.000000000               0.000000000               0.000000000              -0.001410426               0.003673442              -0.001426586              -0.000988088               0.001553830               0.000565742               0.000000000               0.000000000               0.000000000               0.000000000              -0.000868117               0.003970781              -0.001321310              -0.000821890               0.001597544               0.000775653               0.000000000               0.000000000               0.000000000               0.000000000              -0.000331066               0.004208994              -0.001212247              -0.000650273               0.001619741               0.000969468               0.000000000               0.000000000               0.000000000               0.000000000               0.000217034               0.004411485              -0.001096382              -0.000470048               0.001627163               0.001157115               0.000000000               0.000000000               0.000000000               0.000000000               0.000787629               0.004584034              -0.000979764              -0.000277643               0.001620544               0.001342900               0.000000000               0.000000000               0.000000000               0.000000000               0.001379290               0.004732328              -0.000863634              -0.000074308               0.001602196               0.001527888               0.000000000               0.000000000               0.000000000               0.000000000               0.001984381               0.004852085              -0.000732599               0.000137631               0.001571468               0.001709099               0.000000000               0.000000000               0.000000000               0.000000000               0.002600877               0.004934044              -0.000560955               0.000358570               0.001525142               0.001883711               0.000000000               0.000000000               0.000000000               0.000000000               0.003227631               0.004977963              -0.000319049               0.000588110               0.001463268               0.002051378               0.000000000               0.000000000               0.000000000               0.000000000               0.003660188               0.005034230              -0.000193141               0.000743284               0.001430299               0.002173583               0.000000000               0.000000000               0.000000000               0.000000000              -0.013922827              -0.001300716               0.000733149              -0.005058467               0.001252575              -0.003805892               0.000000000               0.000000000               0.000000000               0.000000000              -0.009636754              -0.000696289               0.000020828              -0.003526744               0.000943479              -0.002583265               0.000000000               0.000000000               0.000000000               0.000000000              -0.006241818              -0.000356799              -0.000651159              -0.002296080               0.000646422              -0.001649658               0.000000000               0.000000000               0.000000000               0.000000000              -0.004379083               0.000439308              -0.000886162              -0.001697068               0.000712120              -0.000984948               0.000000000               0.000000000               0.000000000               0.000000000              -0.003214547               0.001261235              -0.000941355              -0.001363107               0.000874775              -0.000488333               0.000000000               0.000000000               0.000000000               0.000000000              -0.002389778               0.001987734              -0.000921776              -0.001144631               0.001044114              -0.000100517               0.000000000               0.000000000               0.000000000               0.000000000              -0.001736707               0.002580940              -0.000870185              -0.000973880               0.001184931               0.000211051               0.000000000               0.000000000               0.000000000               0.000000000              -0.001164466               0.003054965              -0.000812261              -0.000818544               0.001291159               0.000472615               0.000000000               0.000000000               0.000000000               0.000000000              -0.000630916               0.003444430              -0.000758889              -0.000667146               0.001370514               0.000703368               0.000000000               0.000000000               0.000000000               0.000000000              -0.000103669               0.003775943              -0.000699574              -0.000510868               0.001428924               0.000918056               0.000000000               0.000000000               0.000000000               0.000000000               0.000446206               0.004062872              -0.000635309              -0.000340531               0.001467788               0.001127256               0.000000000               0.000000000               0.000000000               0.000000000               0.001033226               0.004309614              -0.000572843              -0.000151242               0.001486938               0.001335696               0.000000000               0.000000000               0.000000000               0.000000000               0.001663359               0.004525512              -0.000508472               0.000058070               0.001489132               0.001547202               0.000000000               0.000000000               0.000000000               0.000000000               0.002337870               0.004706397              -0.000434341               0.000288399               0.001472650               0.001761049               0.000000000               0.000000000               0.000000000               0.000000000               0.003068108               0.004846234              -0.000336527               0.000544756               0.001433810               0.001978566               0.000000000               0.000000000               0.000000000               0.000000000               0.003874747               0.004939504              -0.000193545               0.000835584               0.001367957               0.002203541               0.000000000               0.000000000               0.000000000               0.000000000               0.004475687               0.005035126              -0.000120407               0.001048981               0.001328698               0.002377679               0.000000000               0.000000000               0.000000000               0.000000000               0.000000000               0.000000000               0.000000000               0.000000000               0.000000000               0.000000000               0.000000000               0.000000000               0.000000000               0.000000000               0.000000000               0.000000000               0.000000000               0.000000000               0.000000000               0.000000000               0.000000000               0.000000000               0.000000000               0.000000000               0.000000000               0.000000000               0.000000000               0.000000000               0.000000000               0.000000000               0.000000000               0.000000000               0.000000000               0.000000000               0.000000000               0.000000000               0.000000000               0.000000000               0.000000000               0.000000000               0.000000000               0.000000000               0.000000000               0.000000000               0.000000000               0.000000000               0.000000000               0.000000000               0.000000000               0.000000000               0.000000000               0.000000000               0.000000000               0.000000000               0.000000000               0.000000000               0.000000000               0.000000000               0.000000000               0.000000000               0.000000000               0.000000000               0.000000000               0.000000000               0.000000000               0.000000000               0.000000000               0.000000000               0.000000000               0.000000000               0.000000000               0.000000000               0.000000000               0.000000000               0.000000000               0.000000000               0.000000000               0.000000000               0.000000000               0.000000000               0.000000000               0.000000000               0.000000000               0.000000000               0.000000000               0.000000000               0.000000000               0.000000000               0.000000000               0.000000000               0.000000000               0.000000000               0.000000000               0.000000000               0.000000000               0.000000000               0.000000000               0.000000000               0.000000000               0.000000000               0.000000000               0.000000000               0.000000000               0.000000000               0.000000000               0.000000000               0.000000000               0.000000000               0.000000000               0.000000000               0.000000000               0.000000000               0.000000000               0.000000000               0.000000000               0.000000000               0.000000000               0.000000000               0.000000000               0.000000000               0.000000000               0.000000000               0.000000000               0.000000000               0.000000000               0.000000000               0.000000000               0.000000000               0.000000000               0.000000000               0.000000000               0.000000000               0.000000000               0.000000000               0.000000000               0.000000000               0.000000000               0.000000000               0.000000000               0.000000000               0.000000000               0.000000000               0.000000000               0.000000000               0.000000000               0.000000000               0.000000000               0.000000000               0.000000000               0.000000000               0.000000000               0.000000000               0.000000000               0.000000000               0.000000000               0.000000000               0.000000000               0.000000000               0.000000000               0.000000000               0.000000000               0.000000000               0.000000000               0.000000000               0.000000000               0.000000000               0.000000000               0.000000000               0.000000000               0.000000000               0.000000000               0.000000000               0.000000000               0.000000000               0.000000000               0.000000000               0.000000000               0.000000000               0.000000000               0.000000000               0.000000000               0.000000000               0.000000000               0.000000000               0.000000000               0.000000000               0.000000000               0.000000000               0.000000000               0.000000000               0.000000000               0.000000000               0.000000000               0.000000000               0.000000000               0.000000000               0.000000000               0.000000000               0.000000000               0.000000000               0.000000000               0.000000000               0.000000000               0.000000000               0.000000000               0.000000000               0.000000000               0.000000000               0.000000000               0.000000000               0.000000000               0.000000000               0.000000000               0.000000000               0.000000000               0.000000000               0.000000000               0.000000000               0.000000000               0.000000000               0.000000000               0.000000000               0.000000000               0.000000000               0.000000000               0.000000000               0.000000000               0.000000000               0.000000000               0.000000000               0.000000000               0.000000000               0.000000000               0.000000000               0.000000000               0.000000000               0.000000000               0.000000000               0.000000000               0.000000000               0.000000000               0.000000000               0.000000000               0.000000000               0.000000000               0.000000000               0.000000000               0.000000000               0.000000000               0.000000000               0.000000000               0.000000000               0.000000000               0.000000000               0.000000000               0.000000000               0.000000000               0.000000000               0.000000000               0.000000000               0.000000000               0.000000000               0.000000000               0.000000000               0.000000000               0.000000000               0.000000000               0.000000000               0.000000000               0.000000000               0.000000000               0.000000000               0.000000000               0.000000000               0.000000000               0.000000000               0.000000000               0.000000000               0.000000000               0.000000000               0.000000000               0.000000000               0.000000000               0.000000000               0.000000000               0.000000000               0.000000000               0.000000000               0.000000000               0.000000000               0.000000000               0.000000000               0.000000000               0.000000000               0.000000000               0.000000000               0.000000000               0.000000000               0.000000000               0.000000000               0.000000000               0.000000000               0.000000000               0.000000000               0.000000000               0.000000000               0.000000000               0.000000000               0.000000000               0.000000000               0.000000000               0.000000000               0.000000000               0.000000000               0.000000000               0.000000000               0.000000000               0.000000000               0.000000000               0.000000000               0.000000000               0.000000000               0.000000000               0.000000000               0.000000000               0.000000000               0.000000000               0.000000000               0.000000000               0.000000000               0.000000000               0.000000000               0.000000000               0.000000000               0.000000000               0.000000000               0.000000000               0.000000000               0.000000000               0.000000000               0.000000000               0.000000000               0.000000000               0.000000000               0.002144858               0.021455024               0.001442766              -0.001877552               0.007777454               0.005899902               0.000000000               0.000000000               0.000000000               0.000000000               0.001935786               0.016461699               0.000633622              -0.001331789               0.005931108               0.004599319               0.000000000               0.000000000               0.000000000               0.000000000               0.002367240               0.012438868              -0.000166707              -0.000667142               0.004368628               0.003701487               0.000000000               0.000000000               0.000000000               0.000000000               0.002112960               0.010151667              -0.000492701              -0.000476597               0.003542721               0.003066124               0.000000000               0.000000000               0.000000000               0.000000000               0.001692637               0.008678279              -0.000616806              -0.000450045               0.003042746               0.002592701               0.000000000               0.000000000               0.000000000               0.000000000               0.001276541               0.007627348              -0.000653810              -0.000474715               0.002700662               0.002225947               0.000000000               0.000000000               0.000000000               0.000000000               0.000915384               0.006805073              -0.000648353              -0.000507364               0.002437456               0.001930092               0.000000000               0.000000000               0.000000000               0.000000000               0.000615236               0.006110929              -0.000626431              -0.000533151               0.002214673               0.001681522               0.000000000               0.000000000               0.000000000               0.000000000               0.000371514               0.005490047              -0.000594968              -0.000546937               0.002012309               0.001465373               0.000000000               0.000000000               0.000000000               0.000000000               0.000189207               0.004905784              -0.000556731              -0.000542269               0.001816001               0.001273732               0.000000000               0.000000000               0.000000000               0.000000000               0.000058952               0.004330566              -0.000516918              -0.000519213               0.001616578               0.001097366               0.000000000               0.000000000               0.000000000               0.000000000              -0.000035250               0.003745707              -0.000474612              -0.000481431               0.001409033               0.000927602               0.000000000               0.000000000               0.000000000               0.000000000              -0.000093426               0.003140895              -0.000427071              -0.000427646               0.001189503               0.000761857               0.000000000               0.000000000               0.000000000               0.000000000              -0.000117281               0.002508645              -0.000369660              -0.000357560               0.000955393               0.000597833               0.000000000               0.000000000               0.000000000               0.000000000              -0.000109130               0.001836879              -0.000289011              -0.000270533               0.000702464               0.000431931               0.000000000               0.000000000               0.000000000               0.000000000              -0.000063866               0.001106449              -0.000166862              -0.000162256               0.000422898               0.000260642               0.000000000               0.000000000               0.000000000               0.000000000              -0.000089267               0.000560786              -0.000104549              -0.000103573               0.000221451               0.000117878               0.000000000               0.000000000               0.000000000               0.000000000               0.002273975               0.020101866               0.002669166              -0.001659990               0.007253885               0.005593895               0.000000000               0.000000000               0.000000000               0.000000000               0.001730095               0.015609884               0.001163471              -0.001302447               0.005637392               0.004334945               0.000000000               0.000000000               0.000000000               0.000000000               0.001806622               0.012108813              -0.000307729              -0.000836116               0.004314936               0.003478820               0.000000000               0.000000000               0.000000000               0.000000000               0.001431348               0.010085044              -0.000883031              -0.000723874               0.003602939               0.002879065               0.000000000               0.000000000               0.000000000               0.000000000               0.001001941               0.008747043              -0.001089790              -0.000717651               0.003154869               0.002437217               0.000000000               0.000000000               0.000000000               0.000000000               0.000627355               0.007762750              -0.001140123              -0.000735084               0.002832585               0.002097501               0.000000000               0.000000000               0.000000000               0.000000000               0.000330880               0.006975275              -0.001118797              -0.000747828               0.002574344               0.001826516               0.000000000               0.000000000               0.000000000               0.000000000               0.000098880               0.006298153              -0.001071907              -0.000750188               0.002349426               0.001599238               0.000000000               0.000000000               0.000000000               0.000000000              -0.000075606               0.005685391              -0.001013374              -0.000739025               0.002141453               0.001402428               0.000000000               0.000000000               0.000000000               0.000000000              -0.000187037               0.005107544              -0.000943065              -0.000708580               0.001938691               0.001230111               0.000000000               0.000000000               0.000000000               0.000000000              -0.000247187               0.004540559              -0.000867791              -0.000660264               0.001733592               0.001073329               0.000000000               0.000000000               0.000000000               0.000000000              -0.000269441               0.003973231              -0.000788685              -0.000597693               0.001523628               0.000925935               0.000000000               0.000000000               0.000000000               0.000000000              -0.000260293               0.003406305              -0.000701915              -0.000523397               0.001309889               0.000786492               0.000000000               0.000000000               0.000000000               0.000000000              -0.000227812               0.002839306              -0.000599216              -0.000440342               0.001093206               0.000652864               0.000000000               0.000000000               0.000000000               0.000000000              -0.000171886               0.002270677              -0.000459585              -0.000348291               0.000872982               0.000524690               0.000000000               0.000000000               0.000000000               0.000000000              -0.000091184               0.001703049              -0.000259684              -0.000247075               0.000650036               0.000402961               0.000000000               0.000000000               0.000000000               0.000000000              -0.000086356               0.001311492              -0.000157650              -0.000196319               0.000502599               0.000306280               0.000000000               0.000000000               0.000000000               0.000000000               0.002367556               0.018053270               0.003504545              -0.001368824               0.006473971               0.005105147               0.000000000               0.000000000               0.000000000               0.000000000               0.001355955               0.014343358               0.001517956              -0.001284434               0.005209216               0.003924782               0.000000000               0.000000000               0.000000000               0.000000000               0.000942525               0.011623184              -0.000390101              -0.001099449               0.004240839               0.003141390               0.000000000               0.000000000               0.000000000               0.000000000               0.000436255               0.009974334              -0.001091626              -0.001083194               0.003685809               0.002602616               0.000000000               0.000000000               0.000000000               0.000000000               0.000026286               0.008820071              -0.001320333              -0.001092650               0.003304211               0.002211561               0.000000000               0.000000000               0.000000000               0.000000000              -0.000270113               0.007925376              -0.001359580              -0.001091962               0.003005753               0.001913791               0.000000000               0.000000000               0.000000000               0.000000000              -0.000464459               0.007178631              -0.001317182              -0.001071499               0.002750019               0.001678520               0.000000000               0.000000000               0.000000000               0.000000000              -0.000577905               0.006518337              -0.001247059              -0.001031504               0.002516592               0.001485087               0.000000000               0.000000000               0.000000000               0.000000000              -0.000632010               0.005908559              -0.001168826              -0.000975572               0.002294690               0.001319119               0.000000000               0.000000000               0.000000000               0.000000000              -0.000634518               0.005333797              -0.001077173              -0.000904667               0.002079470               0.001174803               0.000000000               0.000000000               0.000000000               0.000000000              -0.000595959               0.004781579              -0.000977745              -0.000821180               0.001867570               0.001046390               0.000000000               0.000000000               0.000000000               0.000000000              -0.000531494               0.004248318              -0.000873950              -0.000730349               0.001659541               0.000929193               0.000000000               0.000000000               0.000000000               0.000000000              -0.000446202               0.003736134              -0.000762651              -0.000634341               0.001456813               0.000822471               0.000000000               0.000000000               0.000000000               0.000000000              -0.000345626               0.003249955              -0.000632901              -0.000535853               0.001261925               0.000726072               0.000000000               0.000000000               0.000000000               0.000000000              -0.000233301               0.002797864              -0.000468072              -0.000437220               0.001078352               0.000641132               0.000000000               0.000000000               0.000000000               0.000000000              -0.000115562               0.002399848              -0.000255038              -0.000343316               0.000914380               0.000571064               0.000000000               0.000000000               0.000000000               0.000000000              -0.000082609               0.002159537              -0.000148799              -0.000300920               0.000820145               0.000519225               0.000000000               0.000000000               0.000000000               0.000000000               0.002272450               0.015556761               0.003867683              -0.001092426               0.005549677               0.004457250               0.000000000               0.000000000               0.000000000               0.000000000               0.000779276               0.012840074               0.001681922              -0.001312778               0.004717575               0.003404796               0.000000000               0.000000000               0.000000000               0.000000000              -0.000131564               0.011052154              -0.000379379              -0.001430852               0.004160965               0.002730113               0.000000000               0.000000000               0.000000000               0.000000000              -0.000708209               0.009809702              -0.001078155              -0.001491788               0.003767131               0.002275343               0.000000000               0.000000000               0.000000000               0.000000000              -0.001035736               0.008843409              -0.001276996              -0.001493824               0.003445715               0.001951891               0.000000000               0.000000000               0.000000000               0.000000000              -0.001198452               0.008036151              -0.001291840              -0.001453935               0.003163335               0.001709400               0.000000000               0.000000000               0.000000000               0.000000000              -0.001251933               0.007323745              -0.001233972              -0.001384940               0.002902870               0.001517930               0.000000000               0.000000000               0.000000000               0.000000000              -0.001223685               0.006676509              -0.001152745              -0.001293443               0.002656628               0.001363185               0.000000000               0.000000000               0.000000000               0.000000000              -0.001136549               0.006069307              -0.001069050              -0.001184866               0.002418037               0.001233171               0.000000000               0.000000000               0.000000000               0.000000000              -0.001012220               0.005502000              -0.000976484              -0.001067330               0.002189758               0.001122428               0.000000000               0.000000000               0.000000000               0.000000000              -0.000869640               0.004975117              -0.000872631              -0.000948003               0.001974356               0.001026354               0.000000000               0.000000000               0.000000000               0.000000000              -0.000724333               0.004480696              -0.000761386              -0.000831710               0.001770787               0.000939077               0.000000000               0.000000000               0.000000000               0.000000000              -0.000574152               0.004023113              -0.000644563              -0.000718195               0.001580422               0.000862228               0.000000000               0.000000000               0.000000000               0.000000000              -0.000417367               0.003614105              -0.000517188              -0.000608274               0.001407448               0.000799173               0.000000000               0.000000000               0.000000000               0.000000000              -0.000260221               0.003270406              -0.000367832              -0.000506383               0.001258919               0.000752536               0.000000000               0.000000000               0.000000000               0.000000000              -0.000121290               0.003011730              -0.000194267              -0.000421949               0.001144549               0.000722600               0.000000000               0.000000000               0.000000000               0.000000000              -0.000073085               0.002882427              -0.000110416              -0.000387709               0.001090036               0.000702326               0.000000000               0.000000000               0.000000000               0.000000000               0.001871276               0.012870631               0.003771710              -0.000907101               0.004592534               0.003685432               0.000000000               0.000000000               0.000000000               0.000000000               0.000009372               0.011262312               0.001687402              -0.001404272               0.004222157               0.002817885               0.000000000               0.000000000               0.000000000               0.000000000              -0.001298428               0.010437050              -0.000244741              -0.001791537               0.004076161               0.002284624               0.000000000               0.000000000               0.000000000               0.000000000              -0.001841274               0.009571352              -0.000843576              -0.001886892               0.003819383               0.001932491               0.000000000               0.000000000               0.000000000               0.000000000              -0.002009478               0.008766344              -0.000992821              -0.001849343               0.003538533               0.001689190               0.000000000               0.000000000               0.000000000               0.000000000              -0.001990388               0.008026178              -0.000989630              -0.001749664               0.003258587               0.001508923               0.000000000               0.000000000               0.000000000               0.000000000              -0.001869794               0.007344713              -0.000932700              -0.001619258               0.002987966               0.001368708               0.000000000               0.000000000               0.000000000               0.000000000              -0.001685888               0.006707842              -0.000861470              -0.001470685               0.002726153               0.001255468               0.000000000               0.000000000               0.000000000               0.000000000              -0.001462968               0.006109327              -0.000793841              -0.001312276               0.002473847               0.001161571               0.000000000               0.000000000               0.000000000               0.000000000              -0.001226726               0.005558550              -0.000727085              -0.001154838               0.002237778               0.001082939               0.000000000               0.000000000               0.000000000               0.000000000              -0.000998333               0.005063272              -0.000642921              -0.001007281               0.002023501               0.001016220               0.000000000               0.000000000               0.000000000               0.000000000              -0.000787707               0.004613933              -0.000546460              -0.000872130               0.001828672               0.000956542               0.000000000               0.000000000               0.000000000               0.000000000              -0.000582569               0.004221555              -0.000448061              -0.000746156               0.001655890               0.000909734               0.000000000               0.000000000               0.000000000               0.000000000              -0.000388444               0.003896788              -0.000346012              -0.000632763               0.001509837               0.000877074               0.000000000               0.000000000               0.000000000               0.000000000              -0.000220047               0.003652764              -0.000235114              -0.000539112               0.001397280               0.000858168               0.000000000               0.000000000               0.000000000               0.000000000              -0.000093841               0.003506848              -0.000119322              -0.000473545               0.001326786               0.000853241               0.000000000               0.000000000               0.000000000               0.000000000              -0.000044940               0.003460836              -0.000062510              -0.000449456               0.001303419               0.000853963               0.000000000               0.000000000               0.000000000               0.000000000               0.001102349               0.010216722               0.003301779              -0.000863710               0.003693442               0.002829732               0.000000000               0.000000000               0.000000000               0.000000000              -0.000909400               0.009728331               0.001596548              -0.001557063               0.003761765               0.002204702               0.000000000               0.000000000               0.000000000               0.000000000              -0.002422106               0.009787056               0.000026749              -0.002131667               0.003972875               0.001841208               0.000000000               0.000000000               0.000000000               0.000000000              -0.002809643               0.009236233              -0.000429675              -0.002208140               0.003814760               0.001606620               0.000000000               0.000000000               0.000000000               0.000000000              -0.002763909               0.008558586              -0.000541835              -0.002106284               0.003554928               0.001448644               0.000000000               0.000000000               0.000000000               0.000000000              -0.002541675               0.007875355              -0.000546058              -0.001937543               0.003270940               0.001333397               0.000000000               0.000000000               0.000000000               0.000000000              -0.002241553               0.007218644              -0.000519290              -0.001742909               0.002987160               0.001244252               0.000000000               0.000000000               0.000000000               0.000000000              -0.001908420               0.006593583              -0.000483959              -0.001539852               0.002711123               0.001171271               0.000000000               0.000000000               0.000000000               0.000000000              -0.001565457               0.006016607              -0.000452576              -0.001339119               0.002451888               0.001112769               0.000000000               0.000000000               0.000000000               0.000000000              -0.001239288               0.005499964              -0.000424130              -0.001152226               0.002217378               0.001065152               0.000000000               0.000000000               0.000000000               0.000000000              -0.000940779               0.005046999              -0.000376763              -0.000983665               0.002010204               0.001026540               0.000000000               0.000000000               0.000000000               0.000000000              -0.000676291               0.004657134              -0.000310023              -0.000835749               0.001830945               0.000995197               0.000000000               0.000000000               0.000000000               0.000000000              -0.000444741               0.004341241              -0.000239195              -0.000709431               0.001683543               0.000974112               0.000000000               0.000000000               0.000000000               0.000000000              -0.000250999               0.004106296              -0.000165816              -0.000607410               0.001571222               0.000963812               0.000000000               0.000000000               0.000000000               0.000000000              -0.000109222               0.003958722              -0.000094618              -0.000535797               0.001498160               0.000962363               0.000000000               0.000000000               0.000000000               0.000000000              -0.000031001               0.003902720              -0.000037594              -0.000499464               0.001467382               0.000967918               0.000000000               0.000000000               0.000000000               0.000000000              -0.000001786               0.003913594              -0.000008525              -0.000489868               0.001467808               0.000977940               0.000000000               0.000000000               0.000000000               0.000000000               0.000007088               0.007762317               0.002568563              -0.000967631               0.002909956               0.001942325               0.000000000               0.000000000               0.000000000               0.000000000              -0.001915358               0.008324410               0.001464121              -0.001758807               0.003361044               0.001602237               0.000000000               0.000000000               0.000000000               0.000000000              -0.003385156               0.009102672               0.000420642              -0.002407262               0.003836614               0.001429353               0.000000000               0.000000000               0.000000000               0.000000000              -0.003516557               0.008792290               0.000093303              -0.002417739               0.003736647               0.001318908               0.000000000               0.000000000               0.000000000               0.000000000              -0.003229796               0.008222210              -0.000019369              -0.002238944               0.003487024               0.001248080               0.000000000               0.000000000               0.000000000               0.000000000              -0.002813114               0.007594707              -0.000063723              -0.002004251               0.003199627               0.001195376               0.000000000               0.000000000               0.000000000               0.000000000              -0.002353618               0.006967315              -0.000090176              -0.001753517               0.002906921               0.001153404               0.000000000               0.000000000               0.000000000               0.000000000              -0.001896619               0.006373315              -0.000105469              -0.001507893               0.002627048               0.001119155               0.000000000               0.000000000               0.000000000               0.000000000              -0.001462328               0.005840405              -0.000117491              -0.001278420               0.002372922               0.001094502               0.000000000               0.000000000               0.000000000               0.000000000              -0.001062720               0.005377859              -0.000129497              -0.001070750               0.002149518               0.001078769               0.000000000               0.000000000               0.000000000               0.000000000              -0.000713409               0.004981550              -0.000121915              -0.000890220               0.001957240               0.001067020               0.000000000               0.000000000               0.000000000               0.000000000              -0.000419865               0.004664921              -0.000092007              -0.000740563               0.001801812               0.001061250               0.000000000               0.000000000               0.000000000               0.000000000              -0.000191366               0.004439873              -0.000054446              -0.000626745               0.001688858               0.001062113               0.000000000               0.000000000               0.000000000               0.000000000              -0.000035853               0.004306917              -0.000015903              -0.000551808               0.001619561               0.001067753               0.000000000               0.000000000               0.000000000               0.000000000               0.000044247               0.004264018               0.000012270              -0.000516408               0.001593461               0.001077053               0.000000000               0.000000000               0.000000000               0.000000000               0.000050109               0.004291259               0.000017918              -0.000517615               0.001602944               0.001085329               0.000000000               0.000000000               0.000000000               0.000000000               0.000038225               0.004337200               0.000018881              -0.000527814               0.001621657               0.001093843               0.000000000               0.000000000               0.000000000               0.000000000              -0.001277842               0.005690991               0.001692216              -0.001190563               0.002293832               0.001103269               0.000000000               0.000000000               0.000000000               0.000000000              -0.002897278               0.007061758               0.001325717              -0.001969195               0.003010294               0.001041099               0.000000000               0.000000000               0.000000000               0.000000000              -0.004144161               0.008400809               0.000895269              -0.002604155               0.003668293               0.001064138               0.000000000               0.000000000               0.000000000               0.000000000              -0.004008492               0.008339333               0.000650683              -0.002545595               0.003628282               0.001082687               0.000000000               0.000000000               0.000000000               0.000000000              -0.003519511               0.007905760               0.000504260              -0.002308031               0.003404571               0.001096540               0.000000000               0.000000000               0.000000000               0.000000000              -0.002944256               0.007357794               0.000401661              -0.002023815               0.003127179               0.001103363               0.000000000               0.000000000               0.000000000               0.000000000              -0.002362917               0.006786345               0.000318009              -0.001734383               0.002840220               0.001105837               0.000000000               0.000000000               0.000000000               0.000000000              -0.001807889               0.006244814               0.000251185              -0.001458557               0.002567769               0.001109213               0.000000000               0.000000000               0.000000000               0.000000000              -0.001302946               0.005765964               0.000194457              -0.001209347               0.002325084               0.001115737               0.000000000               0.000000000               0.000000000               0.000000000              -0.000850909               0.005359690               0.000142905              -0.000989050               0.002116229               0.001127179               0.000000000               0.000000000               0.000000000               0.000000000              -0.000468943               0.005016346               0.000104994              -0.000802895               0.001939730               0.001136835               0.000000000               0.000000000               0.000000000               0.000000000              -0.000163746               0.004757962               0.000086282              -0.000656148               0.001804688               0.001148539               0.000000000               0.000000000               0.000000000               0.000000000               0.000059117               0.004597875               0.000076983              -0.000552564               0.001716798               0.001164234               0.000000000               0.000000000               0.000000000               0.000000000               0.000194998               0.004537880               0.000065885              -0.000494109               0.001677315               0.001183205               0.000000000               0.000000000               0.000000000               0.000000000               0.000240790               0.004567654               0.000046977              -0.000480659               0.001682756               0.001202097               0.000000000               0.000000000               0.000000000               0.000000000               0.000209692               0.004660636               0.000023068              -0.000503944               0.001721511               0.001217567               0.000000000               0.000000000               0.000000000               0.000000000               0.000167542               0.004724472               0.000009204              -0.000527729               0.001750718               0.001222989               0.000000000               0.000000000               0.000000000               0.000000000              -0.002754722               0.003779205               0.000780940              -0.001505418               0.001761528               0.000256110               0.000000000               0.000000000               0.000000000               0.000000000              -0.003731821               0.005588793               0.001174218              -0.002098027               0.002562255               0.000464227               0.000000000               0.000000000               0.000000000               0.000000000              -0.004610343               0.007325374               0.001387243              -0.002644544               0.003323281               0.000678737               0.000000000               0.000000000               0.000000000               0.000000000              -0.004326716               0.007643466               0.001233325              -0.002577946               0.003407112               0.000829166               0.000000000               0.000000000               0.000000000               0.000000000              -0.003758096               0.007476788               0.001052658              -0.002343879               0.003273530               0.000929652               0.000000000               0.000000000               0.000000000               0.000000000              -0.003131769               0.007120340               0.000891805              -0.002064451               0.003061573               0.000997122               0.000000000               0.000000000               0.000000000               0.000000000              -0.002514691               0.006695675               0.000755722              -0.001779964               0.002825191               0.001045227               0.000000000               0.000000000               0.000000000               0.000000000              -0.001924113               0.006266871               0.000640466              -0.001504897               0.002590568               0.001085671               0.000000000               0.000000000               0.000000000               0.000000000              -0.001380639               0.005874844               0.000539447              -0.001252092               0.002375626               0.001123534               0.000000000               0.000000000               0.000000000               0.000000000              -0.000890434               0.005539026               0.000446486              -0.001026288               0.002188420               0.001162131               0.000000000               0.000000000               0.000000000               0.000000000              -0.000467740               0.005256169               0.000360112              -0.000832422               0.002029513               0.001197091               0.000000000               0.000000000               0.000000000               0.000000000              -0.000120753               0.005033400               0.000288075              -0.000674456               0.001902602               0.001228146               0.000000000               0.000000000               0.000000000               0.000000000               0.000144003               0.004877161               0.000224451              -0.000555643               0.001810918               0.001255276               0.000000000               0.000000000               0.000000000               0.000000000               0.000322220               0.004792166               0.000158914              -0.000478187               0.001756768               0.001278581               0.000000000               0.000000000               0.000000000               0.000000000               0.000413719               0.004785989               0.000090233              -0.000443103               0.001743015               0.001299912               0.000000000               0.000000000               0.000000000               0.000000000               0.000431151               0.004863719               0.000032763              -0.000446282               0.001769984               0.001323702               0.000000000               0.000000000               0.000000000               0.000000000               0.000406002               0.004915269               0.000004184              -0.000462157               0.001792459               0.001330302               0.000000000               0.000000000               0.000000000               0.000000000              -0.004599327               0.002058670              -0.000092352              -0.001982078               0.001346907              -0.000635171               0.000000000               0.000000000               0.000000000               0.000000000              -0.004662046               0.004094607               0.000965605              -0.002260088               0.002118217              -0.000141871               0.000000000               0.000000000               0.000000000               0.000000000              -0.004992367               0.006033241               0.001778127              -0.002626287               0.002886489               0.000260202               0.000000000               0.000000000               0.000000000               0.000000000              -0.004573454               0.006707484               0.001780262              -0.002553475               0.003086963               0.000533489               0.000000000               0.000000000               0.000000000               0.000000000              -0.003960750               0.006844688               0.001604201              -0.002340862               0.003061827               0.000720965               0.000000000               0.000000000               0.000000000               0.000000000              -0.003315696               0.006730130               0.001404009              -0.002084647               0.002938236               0.000853589               0.000000000               0.000000000               0.000000000               0.000000000              -0.002687654               0.006493874               0.001224968              -0.001819600               0.002771136               0.000951536               0.000000000               0.000000000               0.000000000               0.000000000              -0.002082744               0.006208475               0.001070633              -0.001557085               0.002588499               0.001031414               0.000000000               0.000000000               0.000000000               0.000000000              -0.001506979               0.005922097               0.000934756              -0.001305376               0.002409138               0.001103762               0.000000000               0.000000000               0.000000000               0.000000000              -0.000976483               0.005663236               0.000804867              -0.001074083               0.002245754               0.001171671               0.000000000               0.000000000               0.000000000               0.000000000              -0.000504758               0.005439398               0.000675037              -0.000869207               0.002102850               0.001233643               0.000000000               0.000000000               0.000000000               0.000000000              -0.000100808               0.005251876               0.000552935              -0.000694286               0.001982036               0.001287751               0.000000000               0.000000000               0.000000000               0.000000000               0.000230839               0.005100546               0.000437621              -0.000551002               0.001883832               0.001332830               0.000000000               0.000000000               0.000000000               0.000000000               0.000483690               0.004990818               0.000318970              -0.000442467               0.001811078               0.001368611               0.000000000               0.000000000               0.000000000               0.000000000               0.000648393               0.004930967               0.000196059              -0.000373223               0.001768047               0.001394824               0.000000000               0.000000000               0.000000000               0.000000000               0.000729185               0.004938603               0.000088116              -0.000343880               0.001760811               0.001416931               0.000000000               0.000000000               0.000000000               0.000000000               0.000734431               0.004954728               0.000036376              -0.000343928               0.001766202               0.001422274               0.000000000               0.000000000               0.000000000               0.000000000              -0.006692809               0.000675115              -0.000834068              -0.002594190               0.001089761              -0.001504429               0.000000000               0.000000000               0.000000000               0.000000000              -0.005725500               0.002692012               0.000696631              -0.002483560               0.001725179              -0.000758381               0.000000000               0.000000000               0.000000000               0.000000000              -0.005311879               0.004556622               0.001970389              -0.002561527               0.002372700              -0.000188827               0.000000000               0.000000000               0.000000000               0.000000000              -0.004676033               0.005465407               0.002159926              -0.002436683               0.002634011               0.000197328               0.000000000               0.000000000               0.000000000               0.000000000              -0.004002753               0.005876830               0.002038191              -0.002235631               0.002704133               0.000468502               0.000000000               0.000000000               0.000000000               0.000000000              -0.003338320               0.006012946               0.001836165              -0.002003484               0.002672123               0.000668639               0.000000000               0.000000000               0.000000000               0.000000000              -0.002707155               0.005987089               0.001636653              -0.001763565               0.002583531               0.000819966               0.000000000               0.000000000               0.000000000               0.000000000              -0.002101752               0.005873354               0.001463290              -0.001522323               0.002465206               0.000942883               0.000000000               0.000000000               0.000000000               0.000000000              -0.001513749               0.005725181               0.001306779              -0.001283301               0.002336141               0.001052840               0.000000000               0.000000000               0.000000000               0.000000000              -0.000957245               0.005573332               0.001151909              -0.001055631               0.002209636               0.001154005               0.000000000               0.000000000               0.000000000               0.000000000              -0.000446276               0.005427481               0.000994958              -0.000845787               0.002091071               0.001245284               0.000000000               0.000000000               0.000000000               0.000000000               0.000009744               0.005298463               0.000843410              -0.000658653               0.001985687               0.001327035               0.000000000               0.000000000               0.000000000               0.000000000               0.000404906               0.005188126               0.000692692              -0.000496675               0.001894916               0.001398241               0.000000000               0.000000000               0.000000000               0.000000000               0.000731122               0.005099820               0.000527358              -0.000363306               0.001821025               0.001457719               0.000000000               0.000000000               0.000000000               0.000000000               0.000975036               0.005031043               0.000349644              -0.000263241               0.001764745               0.001501503               0.000000000               0.000000000               0.000000000               0.000000000               0.001124712               0.004999106               0.000173738              -0.000203121               0.001734059               0.001530938               0.000000000               0.000000000               0.000000000               0.000000000               0.001168058               0.004995132               0.000086535              -0.000186369               0.001727150               0.001540781               0.000000000               0.000000000               0.000000000               0.000000000              -0.008893615              -0.000299658              -0.001333752              -0.003297646               0.000999322              -0.002298324               0.000000000               0.000000000               0.000000000               0.000000000              -0.006871369               0.001456923               0.000413949              -0.002758875               0.001405256              -0.001353619               0.000000000               0.000000000               0.000000000               0.000000000              -0.005598525               0.003022436               0.001940295              -0.002477247               0.001833215              -0.000644032               0.000000000               0.000000000               0.000000000               0.000000000              -0.004664062               0.004029417               0.002288148              -0.002252696               0.002094023              -0.000158673               0.000000000               0.000000000               0.000000000               0.000000000              -0.003892134               0.004648509               0.002248586              -0.002040610               0.002229690               0.000189080               0.000000000               0.000000000               0.000000000               0.000000000              -0.003199815               0.005007205               0.002081831              -0.001825827               0.002277660               0.000451833               0.000000000               0.000000000               0.000000000               0.000000000              -0.002561437               0.005195224               0.001890447              -0.001609938               0.002268370               0.000658431               0.000000000               0.000000000               0.000000000               0.000000000              -0.001966190               0.005270789               0.001715376              -0.001396167               0.002222301               0.000826134               0.000000000               0.000000000               0.000000000               0.000000000              -0.001390993               0.005279961               0.001555012              -0.001181615               0.002153841               0.000972225               0.000000000               0.000000000               0.000000000               0.000000000              -0.000828400               0.005253922               0.001395651              -0.000967388               0.002073752               0.001106364               0.000000000               0.000000000               0.000000000               0.000000000              -0.000285071               0.005213147               0.001232600              -0.000758544               0.001990546               0.001232002               0.000000000               0.000000000               0.000000000               0.000000000               0.000222477               0.005173701               0.001071215              -0.000563283               0.001912311               0.001349028               0.000000000               0.000000000               0.000000000               0.000000000               0.000681629               0.005133314               0.000906593              -0.000386053               0.001839772               0.001453719               0.000000000               0.000000000               0.000000000               0.000000000               0.001089585               0.005091202               0.000722671              -0.000227806               0.001772985               0.001545180               0.000000000               0.000000000               0.000000000               0.000000000               0.001436259               0.005049980               0.000510571              -0.000092650               0.001714193               0.001621543               0.000000000               0.000000000               0.000000000               0.000000000               0.001694122               0.005019961               0.000268790               0.000007800               0.001670703               0.001678504               0.000000000               0.000000000               0.000000000               0.000000000               0.001809314               0.005015921               0.000145263               0.000051502               0.001654789               0.001706291               0.000000000               0.000000000               0.000000000               0.000000000              -0.010990938              -0.000887672              -0.001493866              -0.004010640               0.001040982              -0.002969658               0.000000000               0.000000000               0.000000000               0.000000000              -0.008000509               0.000459903               0.000173797              -0.003057676               0.001172518              -0.001885158               0.000000000               0.000000000               0.000000000               0.000000000              -0.005862808               0.001585701               0.001685183              -0.002396763               0.001327478              -0.001069284               0.000000000               0.000000000               0.000000000               0.000000000              -0.004579379               0.002570948               0.002114450              -0.002038632               0.001536515              -0.000502117               0.000000000               0.000000000               0.000000000               0.000000000              -0.003668056               0.003321473               0.002150224              -0.001790702               0.001704046              -0.000086656               0.000000000               0.000000000               0.000000000               0.000000000              -0.002936763               0.003856956               0.002039797              -0.001583402               0.001813439               0.000230037               0.000000000               0.000000000               0.000000000               0.000000000              -0.002293257               0.004229610               0.001883321              -0.001388670               0.001872745               0.000484075               0.000000000               0.000000000               0.000000000               0.000000000              -0.001710739               0.004483164               0.001727443              -0.001201920               0.001895013               0.000693092               0.000000000               0.000000000               0.000000000               0.000000000              -0.001154443               0.004653242               0.001583031              -0.001014570               0.001889255               0.000874685               0.000000000               0.000000000               0.000000000               0.000000000              -0.000603843               0.004759771               0.001439698              -0.000821411               0.001860378               0.001038967               0.000000000               0.000000000               0.000000000               0.000000000              -0.000051598               0.004839248               0.001290107              -0.000624255               0.001821151               0.001196897               0.000000000               0.000000000               0.000000000               0.000000000               0.000496085               0.004909035               0.001138299              -0.000427597               0.001778861               0.001351264               0.000000000               0.000000000               0.000000000               0.000000000               0.001026631               0.004959615               0.000986753              -0.000234966               0.001731510               0.001496545               0.000000000               0.000000000               0.000000000               0.000000000               0.001535490               0.004990449               0.000818644              -0.000047998               0.001679466               0.001631468               0.000000000               0.000000000               0.000000000               0.000000000               0.002011209               0.005002534               0.000609327               0.000128885               0.001624533               0.001753418               0.000000000               0.000000000               0.000000000               0.000000000               0.002431274               0.005003212               0.000335693               0.000286323               0.001572280               0.001858603               0.000000000               0.000000000               0.000000000               0.000000000               0.002675930               0.005023022               0.000191811               0.000375592               0.001549127               0.001924719               0.000000000               0.000000000               0.000000000               0.000000000              -0.012748855              -0.001182007              -0.001274458              -0.004633067               0.001150345              -0.003482722               0.000000000               0.000000000               0.000000000               0.000000000              -0.008973568              -0.000260890               0.000026182              -0.003332474               0.001023854              -0.002308620               0.000000000               0.000000000               0.000000000               0.000000000              -0.006087126               0.000412163               0.001235571              -0.002334191               0.000915445              -0.001418746               0.000000000               0.000000000               0.000000000               0.000000000              -0.004468676               0.001303629               0.001629091              -0.001838705               0.001047437              -0.000791268               0.000000000               0.000000000               0.000000000               0.000000000              -0.003413293               0.002111622               0.001701569              -0.001543935               0.001218510              -0.000325425               0.000000000               0.000000000               0.000000000               0.000000000              -0.002633122               0.002769220               0.001645663              -0.001333571               0.001367587               0.000034016               0.000000000               0.000000000               0.000000000               0.000000000              -0.001986137               0.003282898               0.001539871              -0.001155161               0.001479342               0.000324180               0.000000000               0.000000000               0.000000000               0.000000000              -0.001410426               0.003673442               0.001426586              -0.000988088               0.001553830               0.000565742               0.000000000               0.000000000               0.000000000               0.000000000              -0.000868117               0.003970781               0.001321310              -0.000821890               0.001597544               0.000775653               0.000000000               0.000000000               0.000000000               0.000000000              -0.000331066               0.004208994               0.001212247              -0.000650273               0.001619741               0.000969468               0.000000000               0.000000000               0.000000000               0.000000000               0.000217034               0.004411485               0.001096382              -0.000470048               0.001627163               0.001157115               0.000000000               0.000000000               0.000000000               0.000000000               0.000787629               0.004584034               0.000979764              -0.000277643               0.001620544               0.001342900               0.000000000               0.000000000               0.000000000               0.000000000               0.001379290               0.004732328               0.000863634              -0.000074308               0.001602196               0.001527888               0.000000000               0.000000000               0.000000000               0.000000000               0.001984381               0.004852085               0.000732599               0.000137631               0.001571468               0.001709099               0.000000000               0.000000000               0.000000000               0.000000000               0.002600877               0.004934044               0.000560955               0.000358570               0.001525142               0.001883711               0.000000000               0.000000000               0.000000000               0.000000000               0.003227631               0.004977963               0.000319049               0.000588110               0.001463268               0.002051378               0.000000000               0.000000000               0.000000000               0.000000000               0.003660188               0.005034230               0.000193141               0.000743284               0.001430299               0.002173583               0.000000000               0.000000000               0.000000000               0.000000000              -0.013922827              -0.001300716              -0.000733149              -0.005058467               0.001252575              -0.003805892               0.000000000               0.000000000               0.000000000               0.000000000              -0.009636754              -0.000696289              -0.000020828              -0.003526744               0.000943479              -0.002583265               0.000000000               0.000000000               0.000000000               0.000000000              -0.006241818              -0.000356799               0.000651159              -0.002296080               0.000646422              -0.001649658               0.000000000               0.000000000               0.000000000               0.000000000              -0.004379083               0.000439308               0.000886162              -0.001697068               0.000712120              -0.000984948               0.000000000               0.000000000               0.000000000               0.000000000              -0.003214547               0.001261235               0.000941355              -0.001363107               0.000874775              -0.000488333               0.000000000               0.000000000               0.000000000               0.000000000              -0.002389778               0.001987734               0.000921776              -0.001144631               0.001044114              -0.000100517               0.000000000               0.000000000               0.000000000               0.000000000              -0.001736707               0.002580940               0.000870185              -0.000973880               0.001184931               0.000211051               0.000000000               0.000000000               0.000000000               0.000000000              -0.001164466               0.003054965               0.000812261              -0.000818544               0.001291159               0.000472615               0.000000000               0.000000000               0.000000000               0.000000000              -0.000630916               0.003444430               0.000758889              -0.000667146               0.001370514               0.000703368               0.000000000               0.000000000               0.000000000               0.000000000              -0.000103669               0.003775943               0.000699574              -0.000510868               0.001428924               0.000918056               0.000000000               0.000000000               0.000000000               0.000000000               0.000446206               0.004062872               0.000635309              -0.000340531               0.001467788               0.001127256               0.000000000               0.000000000               0.000000000               0.000000000               0.001033226               0.004309614               0.000572843              -0.000151242               0.001486938               0.001335696               0.000000000               0.000000000               0.000000000               0.000000000               0.001663359               0.004525512               0.000508472               0.000058070               0.001489132               0.001547202               0.000000000               0.000000000               0.000000000               0.000000000               0.002337870               0.004706397               0.000434341               0.000288399               0.001472650               0.001761049               0.000000000               0.000000000               0.000000000               0.000000000               0.003068108               0.004846234               0.000336527               0.000544756               0.001433810               0.001978566               0.000000000               0.000000000               0.000000000               0.000000000               0.003874747               0.004939504               0.000193545               0.000835584               0.001367957               0.002203541               0.000000000               0.000000000               0.000000000               0.000000000               0.004475687               0.005035126               0.000120407               0.001048981               0.001328698               0.002377679               0.000000000               0.000000000               0.000000000               0.000000000               0.000000000               0.000000000               0.000000000               0.000000000               0.000000000               0.000000000               0.000000000               0.000000000               0.000000000               0.000000000               0.000000000               0.000000000               0.000000000               0.000000000               0.000000000               0.000000000               0.000000000               0.000000000               0.000000000               0.000000000               0.000000000               0.000000000               0.000000000               0.000000000               0.000000000               0.000000000               0.000000000               0.000000000               0.000000000               0.000000000               0.000000000               0.000000000               0.000000000               0.000000000               0.000000000               0.000000000               0.000000000               0.000000000               0.000000000               0.000000000               0.000000000               0.000000000               0.000000000               0.000000000               0.000000000               0.000000000               0.000000000               0.000000000               0.000000000               0.000000000               0.000000000               0.000000000               0.000000000               0.000000000               0.000000000               0.000000000               0.000000000               0.000000000               0.000000000               0.000000000               0.000000000               0.000000000               0.000000000               0.000000000               0.000000000               0.000000000               0.000000000               0.000000000               0.000000000               0.000000000               0.000000000               0.000000000               0.000000000               0.000000000               0.000000000               0.000000000               0.000000000               0.000000000               0.000000000               0.000000000               0.000000000               0.000000000               0.000000000               0.000000000               0.000000000               0.000000000               0.000000000               0.000000000               0.000000000               0.000000000               0.000000000               0.000000000               0.000000000               0.000000000               0.000000000               0.000000000               0.000000000               0.000000000               0.000000000               0.000000000               0.000000000               0.000000000               0.000000000               0.000000000               0.000000000               0.000000000               0.000000000               0.000000000               0.000000000               0.000000000               0.000000000               0.000000000               0.000000000               0.000000000               0.000000000               0.000000000               0.000000000               0.000000000               0.000000000               0.000000000               0.000000000               0.000000000               0.000000000               0.000000000               0.000000000               0.000000000               0.000000000               0.000000000               0.000000000               0.000000000               0.000000000               0.000000000               0.000000000               0.000000000               0.000000000               0.000000000               0.000000000               0.000000000               0.000000000               0.000000000               0.000000000               0.000000000               0.000000000               0.000000000               0.000000000               0.000000000               0.000000000               0.000000000               0.000000000               0.000000000               0.000000000               0.000000000               0.000000000               0.000000000               0.000000000               0.000000000               0.000000000               0.000000000               0.000000000               0.000000000               0.000000000               0.000000000               0.000000000               0.000000000               0.000000000               0.000000000               0.000000000               0.000000000               0.000000000               0.000000000 </DataArray>
</PointData>
</Piece>
</UnstructuredGrid> </VTKFile>
