<?xml version="1.0"?>
<VTKFile type="UnstructuredGrid" version="0.1">
<UnstructuredGrid>
<Piece NumberOfPoints="      1156" NumberOfCells="      1024">
<Points>
<DataArray type="Float64"                                    Name="coordinates"                                                      NumberOfComponents=" 3" format="ascii">
              0.133000000               0.000000000               0.000000000               0.155937500               0.000000000               0.000000000               0.178875000               0.000000000               0.000000000               0.201812500               0.000000000               0.000000000               0.224750000               0.000000000               0.000000000               0.247687500               0.000000000               0.000000000               0.270625000               0.000000000               0.000000000               0.293562500               0.000000000               0.000000000               0.316500000               0.000000000               0.000000000               0.339437500               0.000000000               0.000000000               0.362375000               0.000000000               0.000000000               0.385312500               0.000000000               0.000000000               0.408250000               0.000000000               0.000000000               0.431187500               0.000000000               0.000000000               0.454125000               0.000000000               0.000000000               0.477062500               0.000000000               0.000000000               0.500000000               0.000000000               0.000000000               0.132359569               0.013036280               0.000000000               0.155337096               0.016127762               0.000000000               0.178314623               0.019219245               0.000000000               0.201292150               0.022310727               0.000000000               0.224269676               0.025402210               0.000000000               0.247247203               0.028493692               0.000000000               0.270224730               0.031585175               0.000000000               0.293202257               0.034676657               0.000000000               0.316179784               0.037768140               0.000000000               0.339157311               0.040859622               0.000000000               0.362134838               0.043951105               0.000000000               0.385112365               0.047042587               0.000000000               0.408089892               0.050134070               0.000000000               0.431067419               0.053225552               0.000000000               0.454044946               0.056317035               0.000000000               0.477022473               0.059408517               0.000000000               0.500000000               0.062500000               0.000000000               0.130444442               0.025947013               0.000000000               0.153541665               0.032137825               0.000000000               0.176638887               0.038328636               0.000000000               0.199736109               0.044519448               0.000000000               0.222833332               0.050710260               0.000000000               0.245930554               0.056901071               0.000000000               0.269027776               0.063091883               0.000000000               0.292124999               0.069282695               0.000000000               0.315222221               0.075473506               0.000000000               0.338319444               0.081664318               0.000000000               0.361416666               0.087855130               0.000000000               0.384513888               0.094045942               0.000000000               0.407611111               0.100236753               0.000000000               0.430708333               0.106427565               0.000000000               0.453805555               0.112618377               0.000000000               0.476902778               0.118809188               0.000000000               0.500000000               0.125000000               0.000000000               0.127273065               0.038607862               0.000000000               0.150568498               0.047913621               0.000000000               0.173863932               0.057219379               0.000000000               0.197159365               0.066525138               0.000000000               0.220454798               0.075830897               0.000000000               0.243750232               0.085136655               0.000000000               0.267045665               0.094442414               0.000000000               0.290341099               0.103748172               0.000000000               0.313636532               0.113053931               0.000000000               0.336931966               0.122359690               0.000000000               0.360227399               0.131665448               0.000000000               0.383522833               0.140971207               0.000000000               0.406818266               0.150276966               0.000000000               0.430113700               0.159582724               0.000000000               0.453409133               0.168888483               0.000000000               0.476704567               0.178194241               0.000000000               0.500000000               0.187500000               0.000000000               0.122875978               0.050896897               0.000000000               0.146446229               0.063340840               0.000000000               0.170016481               0.075784784               0.000000000               0.193586732               0.088228728               0.000000000               0.217156983               0.100672672               0.000000000               0.240727235               0.113116616               0.000000000               0.264297486               0.125560560               0.000000000               0.287867738               0.138004504               0.000000000               0.311437989               0.150448448               0.000000000               0.335008240               0.162892392               0.000000000               0.358578492               0.175336336               0.000000000               0.382148743               0.187780280               0.000000000               0.405718994               0.200224224               0.000000000               0.429289246               0.212668168               0.000000000               0.452859497               0.225112112               0.000000000               0.476429749               0.237556056               0.000000000               0.500000000               0.250000000               0.000000000               0.117295528               0.062695766               0.000000000               0.141214558               0.078308531               0.000000000               0.165133587               0.093921295               0.000000000               0.189052617               0.109534060               0.000000000               0.212971646               0.125146824               0.000000000               0.236890676               0.140759589               0.000000000               0.260809705               0.156372354               0.000000000               0.284728735               0.171985118               0.000000000               0.308647764               0.187597883               0.000000000               0.332566794               0.203210648               0.000000000               0.356485823               0.218823412               0.000000000               0.380404853               0.234436177               0.000000000               0.404323882               0.250048941               0.000000000               0.428242912               0.265661706               0.000000000               0.452161941               0.281274471               0.000000000               0.476080971               0.296887235               0.000000000               0.500000000               0.312500000               0.000000000               0.110585458               0.073890841               0.000000000               0.134923867               0.092710163               0.000000000               0.159262276               0.111529486               0.000000000               0.183600685               0.130348808               0.000000000               0.207939094               0.149168131               0.000000000               0.232277503               0.167987453               0.000000000               0.256615912               0.186806776               0.000000000               0.280954320               0.205626098               0.000000000               0.305292729               0.224445420               0.000000000               0.329631138               0.243264743               0.000000000               0.353969547               0.262084065               0.000000000               0.378307956               0.280903388               0.000000000               0.402646365               0.299722710               0.000000000               0.426984773               0.318542033               0.000000000               0.451323182               0.337361355               0.000000000               0.475661591               0.356180678               0.000000000               0.500000000               0.375000000               0.000000000               0.102810390               0.084374307               0.000000000               0.127634741               0.106444663               0.000000000               0.152459092               0.128515018               0.000000000               0.177283442               0.150585374               0.000000000               0.202107793               0.172655730               0.000000000               0.226932143               0.194726086               0.000000000               0.251756494               0.216796442               0.000000000               0.276580845               0.238866798               0.000000000               0.301405195               0.260937153               0.000000000               0.326229546               0.283007509               0.000000000               0.351053896               0.305077865               0.000000000               0.375878247               0.327148221               0.000000000               0.400702598               0.349218577               0.000000000               0.425526948               0.371288933               0.000000000               0.450351299               0.393359288               0.000000000               0.475175649               0.415429644               0.000000000               0.500000000               0.437500000               0.000000000               0.094045202               0.094045202               0.000000000               0.119417377               0.119417377               0.000000000               0.144789552               0.144789552               0.000000000               0.170161727               0.170161727               0.000000000               0.195533901               0.195533901               0.000000000               0.220906076               0.220906076               0.000000000               0.246278251               0.246278251               0.000000000               0.271650426               0.271650426               0.000000000               0.297022601               0.297022601               0.000000000               0.322394776               0.322394776               0.000000000               0.347766951               0.347766951               0.000000000               0.373139126               0.373139126               0.000000000               0.398511300               0.398511300               0.000000000               0.423883475               0.423883475               0.000000000               0.449255650               0.449255650               0.000000000               0.474627825               0.474627825               0.000000000               0.500000000               0.500000000               0.000000000               0.084374307               0.102810390               0.000000000               0.106444663               0.127634741               0.000000000               0.128515018               0.152459092               0.000000000               0.150585374               0.177283442               0.000000000               0.172655730               0.202107793               0.000000000               0.194726086               0.226932143               0.000000000               0.216796442               0.251756494               0.000000000               0.238866798               0.276580845               0.000000000               0.260937153               0.301405195               0.000000000               0.283007509               0.326229546               0.000000000               0.305077865               0.351053896               0.000000000               0.327148221               0.375878247               0.000000000               0.349218577               0.400702598               0.000000000               0.371288933               0.425526948               0.000000000               0.393359288               0.450351299               0.000000000               0.415429644               0.475175649               0.000000000               0.437500000               0.500000000               0.000000000               0.073890841               0.110585458               0.000000000               0.092710163               0.134923867               0.000000000               0.111529486               0.159262276               0.000000000               0.130348808               0.183600685               0.000000000               0.149168131               0.207939094               0.000000000               0.167987453               0.232277503               0.000000000               0.186806776               0.256615912               0.000000000               0.205626098               0.280954320               0.000000000               0.224445420               0.305292729               0.000000000               0.243264743               0.329631138               0.000000000               0.262084065               0.353969547               0.000000000               0.280903388               0.378307956               0.000000000               0.299722710               0.402646365               0.000000000               0.318542033               0.426984773               0.000000000               0.337361355               0.451323182               0.000000000               0.356180678               0.475661591               0.000000000               0.375000000               0.500000000               0.000000000               0.062695766               0.117295528               0.000000000               0.078308531               0.141214558               0.000000000               0.093921295               0.165133587               0.000000000               0.109534060               0.189052617               0.000000000               0.125146824               0.212971646               0.000000000               0.140759589               0.236890676               0.000000000               0.156372354               0.260809705               0.000000000               0.171985118               0.284728735               0.000000000               0.187597883               0.308647764               0.000000000               0.203210648               0.332566794               0.000000000               0.218823412               0.356485823               0.000000000               0.234436177               0.380404853               0.000000000               0.250048941               0.404323882               0.000000000               0.265661706               0.428242912               0.000000000               0.281274471               0.452161941               0.000000000               0.296887235               0.476080971               0.000000000               0.312500000               0.500000000               0.000000000               0.050896897               0.122875978               0.000000000               0.063340840               0.146446229               0.000000000               0.075784784               0.170016481               0.000000000               0.088228728               0.193586732               0.000000000               0.100672672               0.217156983               0.000000000               0.113116616               0.240727235               0.000000000               0.125560560               0.264297486               0.000000000               0.138004504               0.287867738               0.000000000               0.150448448               0.311437989               0.000000000               0.162892392               0.335008240               0.000000000               0.175336336               0.358578492               0.000000000               0.187780280               0.382148743               0.000000000               0.200224224               0.405718994               0.000000000               0.212668168               0.429289246               0.000000000               0.225112112               0.452859497               0.000000000               0.237556056               0.476429749               0.000000000               0.250000000               0.500000000               0.000000000               0.038607862               0.127273065               0.000000000               0.047913621               0.150568498               0.000000000               0.057219379               0.173863932               0.000000000               0.066525138               0.197159365               0.000000000               0.075830897               0.220454798               0.000000000               0.085136655               0.243750232               0.000000000               0.094442414               0.267045665               0.000000000               0.103748172               0.290341099               0.000000000               0.113053931               0.313636532               0.000000000               0.122359690               0.336931966               0.000000000               0.131665448               0.360227399               0.000000000               0.140971207               0.383522833               0.000000000               0.150276966               0.406818266               0.000000000               0.159582724               0.430113700               0.000000000               0.168888483               0.453409133               0.000000000               0.178194241               0.476704567               0.000000000               0.187500000               0.500000000               0.000000000               0.025947013               0.130444442               0.000000000               0.032137825               0.153541665               0.000000000               0.038328636               0.176638887               0.000000000               0.044519448               0.199736109               0.000000000               0.050710260               0.222833332               0.000000000               0.056901071               0.245930554               0.000000000               0.063091883               0.269027776               0.000000000               0.069282695               0.292124999               0.000000000               0.075473506               0.315222221               0.000000000               0.081664318               0.338319444               0.000000000               0.087855130               0.361416666               0.000000000               0.094045942               0.384513888               0.000000000               0.100236753               0.407611111               0.000000000               0.106427565               0.430708333               0.000000000               0.112618377               0.453805555               0.000000000               0.118809188               0.476902778               0.000000000               0.125000000               0.500000000               0.000000000               0.013036280               0.132359569               0.000000000               0.016127762               0.155337096               0.000000000               0.019219245               0.178314623               0.000000000               0.022310727               0.201292150               0.000000000               0.025402210               0.224269676               0.000000000               0.028493692               0.247247203               0.000000000               0.031585175               0.270224730               0.000000000               0.034676657               0.293202257               0.000000000               0.037768140               0.316179784               0.000000000               0.040859622               0.339157311               0.000000000               0.043951105               0.362134838               0.000000000               0.047042587               0.385112365               0.000000000               0.050134070               0.408089892               0.000000000               0.053225552               0.431067419               0.000000000               0.056317035               0.454044946               0.000000000               0.059408517               0.477022473               0.000000000               0.062500000               0.500000000               0.000000000               0.000000000               0.133000000               0.000000000               0.000000000               0.155937500               0.000000000               0.000000000               0.178875000               0.000000000               0.000000000               0.201812500               0.000000000               0.000000000               0.224750000               0.000000000               0.000000000               0.247687500               0.000000000               0.000000000               0.270625000               0.000000000               0.000000000               0.293562500               0.000000000               0.000000000               0.316500000               0.000000000               0.000000000               0.339437500               0.000000000               0.000000000               0.362375000               0.000000000               0.000000000               0.385312500               0.000000000               0.000000000               0.408250000               0.000000000               0.000000000               0.431187500               0.000000000               0.000000000               0.454125000               0.000000000               0.000000000               0.477062500               0.000000000               0.000000000               0.500000000               0.000000000               0.133000000               0.000000000               0.000000000               0.155937500               0.000000000               0.000000000               0.178875000               0.000000000               0.000000000               0.201812500               0.000000000               0.000000000               0.224750000               0.000000000               0.000000000               0.247687500               0.000000000               0.000000000               0.270625000               0.000000000               0.000000000               0.293562500               0.000000000               0.000000000               0.316500000               0.000000000               0.000000000               0.339437500               0.000000000               0.000000000               0.362375000               0.000000000               0.000000000               0.385312500               0.000000000               0.000000000               0.408250000               0.000000000               0.000000000               0.431187500               0.000000000               0.000000000               0.454125000               0.000000000               0.000000000               0.477062500               0.000000000               0.000000000               0.500000000               0.000000000               0.000000000               0.132359569              -0.013036280               0.000000000               0.155337096              -0.016127762               0.000000000               0.178314623              -0.019219245               0.000000000               0.201292150              -0.022310727               0.000000000               0.224269676              -0.025402210               0.000000000               0.247247203              -0.028493692               0.000000000               0.270224730              -0.031585175               0.000000000               0.293202257              -0.034676657               0.000000000               0.316179784              -0.037768140               0.000000000               0.339157311              -0.040859622               0.000000000               0.362134838              -0.043951105               0.000000000               0.385112365              -0.047042587               0.000000000               0.408089892              -0.050134070               0.000000000               0.431067419              -0.053225552               0.000000000               0.454044946              -0.056317035               0.000000000               0.477022473              -0.059408517               0.000000000               0.500000000              -0.062500000               0.000000000               0.130444442              -0.025947013               0.000000000               0.153541665              -0.032137825               0.000000000               0.176638887              -0.038328636               0.000000000               0.199736109              -0.044519448               0.000000000               0.222833332              -0.050710260               0.000000000               0.245930554              -0.056901071               0.000000000               0.269027776              -0.063091883               0.000000000               0.292124999              -0.069282695               0.000000000               0.315222221              -0.075473506               0.000000000               0.338319444              -0.081664318               0.000000000               0.361416666              -0.087855130               0.000000000               0.384513888              -0.094045942               0.000000000               0.407611111              -0.100236753               0.000000000               0.430708333              -0.106427565               0.000000000               0.453805555              -0.112618377               0.000000000               0.476902778              -0.118809188               0.000000000               0.500000000              -0.125000000               0.000000000               0.127273065              -0.038607862               0.000000000               0.150568498              -0.047913621               0.000000000               0.173863932              -0.057219379               0.000000000               0.197159365              -0.066525138               0.000000000               0.220454798              -0.075830897               0.000000000               0.243750232              -0.085136655               0.000000000               0.267045665              -0.094442414               0.000000000               0.290341099              -0.103748172               0.000000000               0.313636532              -0.113053931               0.000000000               0.336931966              -0.122359690               0.000000000               0.360227399              -0.131665448               0.000000000               0.383522833              -0.140971207               0.000000000               0.406818266              -0.150276966               0.000000000               0.430113700              -0.159582724               0.000000000               0.453409133              -0.168888483               0.000000000               0.476704567              -0.178194241               0.000000000               0.500000000              -0.187500000               0.000000000               0.122875978              -0.050896897               0.000000000               0.146446229              -0.063340840               0.000000000               0.170016481              -0.075784784               0.000000000               0.193586732              -0.088228728               0.000000000               0.217156983              -0.100672672               0.000000000               0.240727235              -0.113116616               0.000000000               0.264297486              -0.125560560               0.000000000               0.287867738              -0.138004504               0.000000000               0.311437989              -0.150448448               0.000000000               0.335008240              -0.162892392               0.000000000               0.358578492              -0.175336336               0.000000000               0.382148743              -0.187780280               0.000000000               0.405718994              -0.200224224               0.000000000               0.429289246              -0.212668168               0.000000000               0.452859497              -0.225112112               0.000000000               0.476429749              -0.237556056               0.000000000               0.500000000              -0.250000000               0.000000000               0.117295528              -0.062695766               0.000000000               0.141214558              -0.078308531               0.000000000               0.165133587              -0.093921295               0.000000000               0.189052617              -0.109534060               0.000000000               0.212971646              -0.125146824               0.000000000               0.236890676              -0.140759589               0.000000000               0.260809705              -0.156372354               0.000000000               0.284728735              -0.171985118               0.000000000               0.308647764              -0.187597883               0.000000000               0.332566794              -0.203210648               0.000000000               0.356485823              -0.218823412               0.000000000               0.380404853              -0.234436177               0.000000000               0.404323882              -0.250048941               0.000000000               0.428242912              -0.265661706               0.000000000               0.452161941              -0.281274471               0.000000000               0.476080971              -0.296887235               0.000000000               0.500000000              -0.312500000               0.000000000               0.110585458              -0.073890841               0.000000000               0.134923867              -0.092710163               0.000000000               0.159262276              -0.111529486               0.000000000               0.183600685              -0.130348808               0.000000000               0.207939094              -0.149168131               0.000000000               0.232277503              -0.167987453               0.000000000               0.256615912              -0.186806776               0.000000000               0.280954320              -0.205626098               0.000000000               0.305292729              -0.224445420               0.000000000               0.329631138              -0.243264743               0.000000000               0.353969547              -0.262084065               0.000000000               0.378307956              -0.280903388               0.000000000               0.402646365              -0.299722710               0.000000000               0.426984773              -0.318542033               0.000000000               0.451323182              -0.337361355               0.000000000               0.475661591              -0.356180678               0.000000000               0.500000000              -0.375000000               0.000000000               0.102810390              -0.084374307               0.000000000               0.127634741              -0.106444663               0.000000000               0.152459092              -0.128515018               0.000000000               0.177283442              -0.150585374               0.000000000               0.202107793              -0.172655730               0.000000000               0.226932143              -0.194726086               0.000000000               0.251756494              -0.216796442               0.000000000               0.276580845              -0.238866798               0.000000000               0.301405195              -0.260937153               0.000000000               0.326229546              -0.283007509               0.000000000               0.351053896              -0.305077865               0.000000000               0.375878247              -0.327148221               0.000000000               0.400702598              -0.349218577               0.000000000               0.425526948              -0.371288933               0.000000000               0.450351299              -0.393359288               0.000000000               0.475175649              -0.415429644               0.000000000               0.500000000              -0.437500000               0.000000000               0.094045202              -0.094045202               0.000000000               0.119417377              -0.119417377               0.000000000               0.144789552              -0.144789552               0.000000000               0.170161727              -0.170161727               0.000000000               0.195533901              -0.195533901               0.000000000               0.220906076              -0.220906076               0.000000000               0.246278251              -0.246278251               0.000000000               0.271650426              -0.271650426               0.000000000               0.297022601              -0.297022601               0.000000000               0.322394776              -0.322394776               0.000000000               0.347766951              -0.347766951               0.000000000               0.373139126              -0.373139126               0.000000000               0.398511300              -0.398511300               0.000000000               0.423883475              -0.423883475               0.000000000               0.449255650              -0.449255650               0.000000000               0.474627825              -0.474627825               0.000000000               0.500000000              -0.500000000               0.000000000               0.084374307              -0.102810390               0.000000000               0.106444663              -0.127634741               0.000000000               0.128515018              -0.152459092               0.000000000               0.150585374              -0.177283442               0.000000000               0.172655730              -0.202107793               0.000000000               0.194726086              -0.226932143               0.000000000               0.216796442              -0.251756494               0.000000000               0.238866798              -0.276580845               0.000000000               0.260937153              -0.301405195               0.000000000               0.283007509              -0.326229546               0.000000000               0.305077865              -0.351053896               0.000000000               0.327148221              -0.375878247               0.000000000               0.349218577              -0.400702598               0.000000000               0.371288933              -0.425526948               0.000000000               0.393359288              -0.450351299               0.000000000               0.415429644              -0.475175649               0.000000000               0.437500000              -0.500000000               0.000000000               0.073890841              -0.110585458               0.000000000               0.092710163              -0.134923867               0.000000000               0.111529486              -0.159262276               0.000000000               0.130348808              -0.183600685               0.000000000               0.149168131              -0.207939094               0.000000000               0.167987453              -0.232277503               0.000000000               0.186806776              -0.256615912               0.000000000               0.205626098              -0.280954320               0.000000000               0.224445420              -0.305292729               0.000000000               0.243264743              -0.329631138               0.000000000               0.262084065              -0.353969547               0.000000000               0.280903388              -0.378307956               0.000000000               0.299722710              -0.402646365               0.000000000               0.318542033              -0.426984773               0.000000000               0.337361355              -0.451323182               0.000000000               0.356180678              -0.475661591               0.000000000               0.375000000              -0.500000000               0.000000000               0.062695766              -0.117295528               0.000000000               0.078308531              -0.141214558               0.000000000               0.093921295              -0.165133587               0.000000000               0.109534060              -0.189052617               0.000000000               0.125146824              -0.212971646               0.000000000               0.140759589              -0.236890676               0.000000000               0.156372354              -0.260809705               0.000000000               0.171985118              -0.284728735               0.000000000               0.187597883              -0.308647764               0.000000000               0.203210648              -0.332566794               0.000000000               0.218823412              -0.356485823               0.000000000               0.234436177              -0.380404853               0.000000000               0.250048941              -0.404323882               0.000000000               0.265661706              -0.428242912               0.000000000               0.281274471              -0.452161941               0.000000000               0.296887235              -0.476080971               0.000000000               0.312500000              -0.500000000               0.000000000               0.050896897              -0.122875978               0.000000000               0.063340840              -0.146446229               0.000000000               0.075784784              -0.170016481               0.000000000               0.088228728              -0.193586732               0.000000000               0.100672672              -0.217156983               0.000000000               0.113116616              -0.240727235               0.000000000               0.125560560              -0.264297486               0.000000000               0.138004504              -0.287867738               0.000000000               0.150448448              -0.311437989               0.000000000               0.162892392              -0.335008240               0.000000000               0.175336336              -0.358578492               0.000000000               0.187780280              -0.382148743               0.000000000               0.200224224              -0.405718994               0.000000000               0.212668168              -0.429289246               0.000000000               0.225112112              -0.452859497               0.000000000               0.237556056              -0.476429749               0.000000000               0.250000000              -0.500000000               0.000000000               0.038607862              -0.127273065               0.000000000               0.047913621              -0.150568498               0.000000000               0.057219379              -0.173863932               0.000000000               0.066525138              -0.197159365               0.000000000               0.075830897              -0.220454798               0.000000000               0.085136655              -0.243750232               0.000000000               0.094442414              -0.267045665               0.000000000               0.103748172              -0.290341099               0.000000000               0.113053931              -0.313636532               0.000000000               0.122359690              -0.336931966               0.000000000               0.131665448              -0.360227399               0.000000000               0.140971207              -0.383522833               0.000000000               0.150276966              -0.406818266               0.000000000               0.159582724              -0.430113700               0.000000000               0.168888483              -0.453409133               0.000000000               0.178194241              -0.476704567               0.000000000               0.187500000              -0.500000000               0.000000000               0.025947013              -0.130444442               0.000000000               0.032137825              -0.153541665               0.000000000               0.038328636              -0.176638887               0.000000000               0.044519448              -0.199736109               0.000000000               0.050710260              -0.222833332               0.000000000               0.056901071              -0.245930554               0.000000000               0.063091883              -0.269027776               0.000000000               0.069282695              -0.292124999               0.000000000               0.075473506              -0.315222221               0.000000000               0.081664318              -0.338319444               0.000000000               0.087855130              -0.361416666               0.000000000               0.094045942              -0.384513888               0.000000000               0.100236753              -0.407611111               0.000000000               0.106427565              -0.430708333               0.000000000               0.112618377              -0.453805555               0.000000000               0.118809188              -0.476902778               0.000000000               0.125000000              -0.500000000               0.000000000               0.013036280              -0.132359569               0.000000000               0.016127762              -0.155337096               0.000000000               0.019219245              -0.178314623               0.000000000               0.022310727              -0.201292150               0.000000000               0.025402210              -0.224269676               0.000000000               0.028493692              -0.247247203               0.000000000               0.031585175              -0.270224730               0.000000000               0.034676657              -0.293202257               0.000000000               0.037768140              -0.316179784               0.000000000               0.040859622              -0.339157311               0.000000000               0.043951105              -0.362134838               0.000000000               0.047042587              -0.385112365               0.000000000               0.050134070              -0.408089892               0.000000000               0.053225552              -0.431067419               0.000000000               0.056317035              -0.454044946               0.000000000               0.059408517              -0.477022473               0.000000000               0.062500000              -0.500000000               0.000000000               0.000000000              -0.133000000               0.000000000               0.000000000              -0.155937500               0.000000000               0.000000000              -0.178875000               0.000000000               0.000000000              -0.201812500               0.000000000               0.000000000              -0.224750000               0.000000000               0.000000000              -0.247687500               0.000000000               0.000000000              -0.270625000               0.000000000               0.000000000              -0.293562500               0.000000000               0.000000000              -0.316500000               0.000000000               0.000000000              -0.339437500               0.000000000               0.000000000              -0.362375000               0.000000000               0.000000000              -0.385312500               0.000000000               0.000000000              -0.408250000               0.000000000               0.000000000              -0.431187500               0.000000000               0.000000000              -0.454125000               0.000000000               0.000000000              -0.477062500               0.000000000               0.000000000              -0.500000000               0.000000000              -0.133000000               0.000000000               0.000000000              -0.155937500               0.000000000               0.000000000              -0.178875000               0.000000000               0.000000000              -0.201812500               0.000000000               0.000000000              -0.224750000               0.000000000               0.000000000              -0.247687500               0.000000000               0.000000000              -0.270625000               0.000000000               0.000000000              -0.293562500               0.000000000               0.000000000              -0.316500000               0.000000000               0.000000000              -0.339437500               0.000000000               0.000000000              -0.362375000               0.000000000               0.000000000              -0.385312500               0.000000000               0.000000000              -0.408250000               0.000000000               0.000000000              -0.431187500               0.000000000               0.000000000              -0.454125000               0.000000000               0.000000000              -0.477062500               0.000000000               0.000000000              -0.500000000               0.000000000               0.000000000              -0.132359569              -0.013036280               0.000000000              -0.155337096              -0.016127762               0.000000000              -0.178314623              -0.019219245               0.000000000              -0.201292150              -0.022310727               0.000000000              -0.224269676              -0.025402210               0.000000000              -0.247247203              -0.028493692               0.000000000              -0.270224730              -0.031585175               0.000000000              -0.293202257              -0.034676657               0.000000000              -0.316179784              -0.037768140               0.000000000              -0.339157311              -0.040859622               0.000000000              -0.362134838              -0.043951105               0.000000000              -0.385112365              -0.047042587               0.000000000              -0.408089892              -0.050134070               0.000000000              -0.431067419              -0.053225552               0.000000000              -0.454044946              -0.056317035               0.000000000              -0.477022473              -0.059408517               0.000000000              -0.500000000              -0.062500000               0.000000000              -0.130444442              -0.025947013               0.000000000              -0.153541665              -0.032137825               0.000000000              -0.176638887              -0.038328636               0.000000000              -0.199736109              -0.044519448               0.000000000              -0.222833332              -0.050710260               0.000000000              -0.245930554              -0.056901071               0.000000000              -0.269027776              -0.063091883               0.000000000              -0.292124999              -0.069282695               0.000000000              -0.315222221              -0.075473506               0.000000000              -0.338319444              -0.081664318               0.000000000              -0.361416666              -0.087855130               0.000000000              -0.384513888              -0.094045942               0.000000000              -0.407611111              -0.100236753               0.000000000              -0.430708333              -0.106427565               0.000000000              -0.453805555              -0.112618377               0.000000000              -0.476902778              -0.118809188               0.000000000              -0.500000000              -0.125000000               0.000000000              -0.127273065              -0.038607862               0.000000000              -0.150568498              -0.047913621               0.000000000              -0.173863932              -0.057219379               0.000000000              -0.197159365              -0.066525138               0.000000000              -0.220454798              -0.075830897               0.000000000              -0.243750232              -0.085136655               0.000000000              -0.267045665              -0.094442414               0.000000000              -0.290341099              -0.103748172               0.000000000              -0.313636532              -0.113053931               0.000000000              -0.336931966              -0.122359690               0.000000000              -0.360227399              -0.131665448               0.000000000              -0.383522833              -0.140971207               0.000000000              -0.406818266              -0.150276966               0.000000000              -0.430113700              -0.159582724               0.000000000              -0.453409133              -0.168888483               0.000000000              -0.476704567              -0.178194241               0.000000000              -0.500000000              -0.187500000               0.000000000              -0.122875978              -0.050896897               0.000000000              -0.146446229              -0.063340840               0.000000000              -0.170016481              -0.075784784               0.000000000              -0.193586732              -0.088228728               0.000000000              -0.217156983              -0.100672672               0.000000000              -0.240727235              -0.113116616               0.000000000              -0.264297486              -0.125560560               0.000000000              -0.287867738              -0.138004504               0.000000000              -0.311437989              -0.150448448               0.000000000              -0.335008240              -0.162892392               0.000000000              -0.358578492              -0.175336336               0.000000000              -0.382148743              -0.187780280               0.000000000              -0.405718994              -0.200224224               0.000000000              -0.429289246              -0.212668168               0.000000000              -0.452859497              -0.225112112               0.000000000              -0.476429749              -0.237556056               0.000000000              -0.500000000              -0.250000000               0.000000000              -0.117295528              -0.062695766               0.000000000              -0.141214558              -0.078308531               0.000000000              -0.165133587              -0.093921295               0.000000000              -0.189052617              -0.109534060               0.000000000              -0.212971646              -0.125146824               0.000000000              -0.236890676              -0.140759589               0.000000000              -0.260809705              -0.156372354               0.000000000              -0.284728735              -0.171985118               0.000000000              -0.308647764              -0.187597883               0.000000000              -0.332566794              -0.203210648               0.000000000              -0.356485823              -0.218823412               0.000000000              -0.380404853              -0.234436177               0.000000000              -0.404323882              -0.250048941               0.000000000              -0.428242912              -0.265661706               0.000000000              -0.452161941              -0.281274471               0.000000000              -0.476080971              -0.296887235               0.000000000              -0.500000000              -0.312500000               0.000000000              -0.110585458              -0.073890841               0.000000000              -0.134923867              -0.092710163               0.000000000              -0.159262276              -0.111529486               0.000000000              -0.183600685              -0.130348808               0.000000000              -0.207939094              -0.149168131               0.000000000              -0.232277503              -0.167987453               0.000000000              -0.256615912              -0.186806776               0.000000000              -0.280954320              -0.205626098               0.000000000              -0.305292729              -0.224445420               0.000000000              -0.329631138              -0.243264743               0.000000000              -0.353969547              -0.262084065               0.000000000              -0.378307956              -0.280903388               0.000000000              -0.402646365              -0.299722710               0.000000000              -0.426984773              -0.318542033               0.000000000              -0.451323182              -0.337361355               0.000000000              -0.475661591              -0.356180678               0.000000000              -0.500000000              -0.375000000               0.000000000              -0.102810390              -0.084374307               0.000000000              -0.127634741              -0.106444663               0.000000000              -0.152459092              -0.128515018               0.000000000              -0.177283442              -0.150585374               0.000000000              -0.202107793              -0.172655730               0.000000000              -0.226932143              -0.194726086               0.000000000              -0.251756494              -0.216796442               0.000000000              -0.276580845              -0.238866798               0.000000000              -0.301405195              -0.260937153               0.000000000              -0.326229546              -0.283007509               0.000000000              -0.351053896              -0.305077865               0.000000000              -0.375878247              -0.327148221               0.000000000              -0.400702598              -0.349218577               0.000000000              -0.425526948              -0.371288933               0.000000000              -0.450351299              -0.393359288               0.000000000              -0.475175649              -0.415429644               0.000000000              -0.500000000              -0.437500000               0.000000000              -0.094045202              -0.094045202               0.000000000              -0.119417377              -0.119417377               0.000000000              -0.144789552              -0.144789552               0.000000000              -0.170161727              -0.170161727               0.000000000              -0.195533901              -0.195533901               0.000000000              -0.220906076              -0.220906076               0.000000000              -0.246278251              -0.246278251               0.000000000              -0.271650426              -0.271650426               0.000000000              -0.297022601              -0.297022601               0.000000000              -0.322394776              -0.322394776               0.000000000              -0.347766951              -0.347766951               0.000000000              -0.373139126              -0.373139126               0.000000000              -0.398511300              -0.398511300               0.000000000              -0.423883475              -0.423883475               0.000000000              -0.449255650              -0.449255650               0.000000000              -0.474627825              -0.474627825               0.000000000              -0.500000000              -0.500000000               0.000000000              -0.084374307              -0.102810390               0.000000000              -0.106444663              -0.127634741               0.000000000              -0.128515018              -0.152459092               0.000000000              -0.150585374              -0.177283442               0.000000000              -0.172655730              -0.202107793               0.000000000              -0.194726086              -0.226932143               0.000000000              -0.216796442              -0.251756494               0.000000000              -0.238866798              -0.276580845               0.000000000              -0.260937153              -0.301405195               0.000000000              -0.283007509              -0.326229546               0.000000000              -0.305077865              -0.351053896               0.000000000              -0.327148221              -0.375878247               0.000000000              -0.349218577              -0.400702598               0.000000000              -0.371288933              -0.425526948               0.000000000              -0.393359288              -0.450351299               0.000000000              -0.415429644              -0.475175649               0.000000000              -0.437500000              -0.500000000               0.000000000              -0.073890841              -0.110585458               0.000000000              -0.092710163              -0.134923867               0.000000000              -0.111529486              -0.159262276               0.000000000              -0.130348808              -0.183600685               0.000000000              -0.149168131              -0.207939094               0.000000000              -0.167987453              -0.232277503               0.000000000              -0.186806776              -0.256615912               0.000000000              -0.205626098              -0.280954320               0.000000000              -0.224445420              -0.305292729               0.000000000              -0.243264743              -0.329631138               0.000000000              -0.262084065              -0.353969547               0.000000000              -0.280903388              -0.378307956               0.000000000              -0.299722710              -0.402646365               0.000000000              -0.318542033              -0.426984773               0.000000000              -0.337361355              -0.451323182               0.000000000              -0.356180678              -0.475661591               0.000000000              -0.375000000              -0.500000000               0.000000000              -0.062695766              -0.117295528               0.000000000              -0.078308531              -0.141214558               0.000000000              -0.093921295              -0.165133587               0.000000000              -0.109534060              -0.189052617               0.000000000              -0.125146824              -0.212971646               0.000000000              -0.140759589              -0.236890676               0.000000000              -0.156372354              -0.260809705               0.000000000              -0.171985118              -0.284728735               0.000000000              -0.187597883              -0.308647764               0.000000000              -0.203210648              -0.332566794               0.000000000              -0.218823412              -0.356485823               0.000000000              -0.234436177              -0.380404853               0.000000000              -0.250048941              -0.404323882               0.000000000              -0.265661706              -0.428242912               0.000000000              -0.281274471              -0.452161941               0.000000000              -0.296887235              -0.476080971               0.000000000              -0.312500000              -0.500000000               0.000000000              -0.050896897              -0.122875978               0.000000000              -0.063340840              -0.146446229               0.000000000              -0.075784784              -0.170016481               0.000000000              -0.088228728              -0.193586732               0.000000000              -0.100672672              -0.217156983               0.000000000              -0.113116616              -0.240727235               0.000000000              -0.125560560              -0.264297486               0.000000000              -0.138004504              -0.287867738               0.000000000              -0.150448448              -0.311437989               0.000000000              -0.162892392              -0.335008240               0.000000000              -0.175336336              -0.358578492               0.000000000              -0.187780280              -0.382148743               0.000000000              -0.200224224              -0.405718994               0.000000000              -0.212668168              -0.429289246               0.000000000              -0.225112112              -0.452859497               0.000000000              -0.237556056              -0.476429749               0.000000000              -0.250000000              -0.500000000               0.000000000              -0.038607862              -0.127273065               0.000000000              -0.047913621              -0.150568498               0.000000000              -0.057219379              -0.173863932               0.000000000              -0.066525138              -0.197159365               0.000000000              -0.075830897              -0.220454798               0.000000000              -0.085136655              -0.243750232               0.000000000              -0.094442414              -0.267045665               0.000000000              -0.103748172              -0.290341099               0.000000000              -0.113053931              -0.313636532               0.000000000              -0.122359690              -0.336931966               0.000000000              -0.131665448              -0.360227399               0.000000000              -0.140971207              -0.383522833               0.000000000              -0.150276966              -0.406818266               0.000000000              -0.159582724              -0.430113700               0.000000000              -0.168888483              -0.453409133               0.000000000              -0.178194241              -0.476704567               0.000000000              -0.187500000              -0.500000000               0.000000000              -0.025947013              -0.130444442               0.000000000              -0.032137825              -0.153541665               0.000000000              -0.038328636              -0.176638887               0.000000000              -0.044519448              -0.199736109               0.000000000              -0.050710260              -0.222833332               0.000000000              -0.056901071              -0.245930554               0.000000000              -0.063091883              -0.269027776               0.000000000              -0.069282695              -0.292124999               0.000000000              -0.075473506              -0.315222221               0.000000000              -0.081664318              -0.338319444               0.000000000              -0.087855130              -0.361416666               0.000000000              -0.094045942              -0.384513888               0.000000000              -0.100236753              -0.407611111               0.000000000              -0.106427565              -0.430708333               0.000000000              -0.112618377              -0.453805555               0.000000000              -0.118809188              -0.476902778               0.000000000              -0.125000000              -0.500000000               0.000000000              -0.013036280              -0.132359569               0.000000000              -0.016127762              -0.155337096               0.000000000              -0.019219245              -0.178314623               0.000000000              -0.022310727              -0.201292150               0.000000000              -0.025402210              -0.224269676               0.000000000              -0.028493692              -0.247247203               0.000000000              -0.031585175              -0.270224730               0.000000000              -0.034676657              -0.293202257               0.000000000              -0.037768140              -0.316179784               0.000000000              -0.040859622              -0.339157311               0.000000000              -0.043951105              -0.362134838               0.000000000              -0.047042587              -0.385112365               0.000000000              -0.050134070              -0.408089892               0.000000000              -0.053225552              -0.431067419               0.000000000              -0.056317035              -0.454044946               0.000000000              -0.059408517              -0.477022473               0.000000000              -0.062500000              -0.500000000               0.000000000               0.000000000              -0.133000000               0.000000000               0.000000000              -0.155937500               0.000000000               0.000000000              -0.178875000               0.000000000               0.000000000              -0.201812500               0.000000000               0.000000000              -0.224750000               0.000000000               0.000000000              -0.247687500               0.000000000               0.000000000              -0.270625000               0.000000000               0.000000000              -0.293562500               0.000000000               0.000000000              -0.316500000               0.000000000               0.000000000              -0.339437500               0.000000000               0.000000000              -0.362375000               0.000000000               0.000000000              -0.385312500               0.000000000               0.000000000              -0.408250000               0.000000000               0.000000000              -0.431187500               0.000000000               0.000000000              -0.454125000               0.000000000               0.000000000              -0.477062500               0.000000000               0.000000000              -0.500000000               0.000000000              -0.133000000               0.000000000               0.000000000              -0.155937500               0.000000000               0.000000000              -0.178875000               0.000000000               0.000000000              -0.201812500               0.000000000               0.000000000              -0.224750000               0.000000000               0.000000000              -0.247687500               0.000000000               0.000000000              -0.270625000               0.000000000               0.000000000              -0.293562500               0.000000000               0.000000000              -0.316500000               0.000000000               0.000000000              -0.339437500               0.000000000               0.000000000              -0.362375000               0.000000000               0.000000000              -0.385312500               0.000000000               0.000000000              -0.408250000               0.000000000               0.000000000              -0.431187500               0.000000000               0.000000000              -0.454125000               0.000000000               0.000000000              -0.477062500               0.000000000               0.000000000              -0.500000000               0.000000000               0.000000000              -0.132359569               0.013036280               0.000000000              -0.155337096               0.016127762               0.000000000              -0.178314623               0.019219245               0.000000000              -0.201292150               0.022310727               0.000000000              -0.224269676               0.025402210               0.000000000              -0.247247203               0.028493692               0.000000000              -0.270224730               0.031585175               0.000000000              -0.293202257               0.034676657               0.000000000              -0.316179784               0.037768140               0.000000000              -0.339157311               0.040859622               0.000000000              -0.362134838               0.043951105               0.000000000              -0.385112365               0.047042587               0.000000000              -0.408089892               0.050134070               0.000000000              -0.431067419               0.053225552               0.000000000              -0.454044946               0.056317035               0.000000000              -0.477022473               0.059408517               0.000000000              -0.500000000               0.062500000               0.000000000              -0.130444442               0.025947013               0.000000000              -0.153541665               0.032137825               0.000000000              -0.176638887               0.038328636               0.000000000              -0.199736109               0.044519448               0.000000000              -0.222833332               0.050710260               0.000000000              -0.245930554               0.056901071               0.000000000              -0.269027776               0.063091883               0.000000000              -0.292124999               0.069282695               0.000000000              -0.315222221               0.075473506               0.000000000              -0.338319444               0.081664318               0.000000000              -0.361416666               0.087855130               0.000000000              -0.384513888               0.094045942               0.000000000              -0.407611111               0.100236753               0.000000000              -0.430708333               0.106427565               0.000000000              -0.453805555               0.112618377               0.000000000              -0.476902778               0.118809188               0.000000000              -0.500000000               0.125000000               0.000000000              -0.127273065               0.038607862               0.000000000              -0.150568498               0.047913621               0.000000000              -0.173863932               0.057219379               0.000000000              -0.197159365               0.066525138               0.000000000              -0.220454798               0.075830897               0.000000000              -0.243750232               0.085136655               0.000000000              -0.267045665               0.094442414               0.000000000              -0.290341099               0.103748172               0.000000000              -0.313636532               0.113053931               0.000000000              -0.336931966               0.122359690               0.000000000              -0.360227399               0.131665448               0.000000000              -0.383522833               0.140971207               0.000000000              -0.406818266               0.150276966               0.000000000              -0.430113700               0.159582724               0.000000000              -0.453409133               0.168888483               0.000000000              -0.476704567               0.178194241               0.000000000              -0.500000000               0.187500000               0.000000000              -0.122875978               0.050896897               0.000000000              -0.146446229               0.063340840               0.000000000              -0.170016481               0.075784784               0.000000000              -0.193586732               0.088228728               0.000000000              -0.217156983               0.100672672               0.000000000              -0.240727235               0.113116616               0.000000000              -0.264297486               0.125560560               0.000000000              -0.287867738               0.138004504               0.000000000              -0.311437989               0.150448448               0.000000000              -0.335008240               0.162892392               0.000000000              -0.358578492               0.175336336               0.000000000              -0.382148743               0.187780280               0.000000000              -0.405718994               0.200224224               0.000000000              -0.429289246               0.212668168               0.000000000              -0.452859497               0.225112112               0.000000000              -0.476429749               0.237556056               0.000000000              -0.500000000               0.250000000               0.000000000              -0.117295528               0.062695766               0.000000000              -0.141214558               0.078308531               0.000000000              -0.165133587               0.093921295               0.000000000              -0.189052617               0.109534060               0.000000000              -0.212971646               0.125146824               0.000000000              -0.236890676               0.140759589               0.000000000              -0.260809705               0.156372354               0.000000000              -0.284728735               0.171985118               0.000000000              -0.308647764               0.187597883               0.000000000              -0.332566794               0.203210648               0.000000000              -0.356485823               0.218823412               0.000000000              -0.380404853               0.234436177               0.000000000              -0.404323882               0.250048941               0.000000000              -0.428242912               0.265661706               0.000000000              -0.452161941               0.281274471               0.000000000              -0.476080971               0.296887235               0.000000000              -0.500000000               0.312500000               0.000000000              -0.110585458               0.073890841               0.000000000              -0.134923867               0.092710163               0.000000000              -0.159262276               0.111529486               0.000000000              -0.183600685               0.130348808               0.000000000              -0.207939094               0.149168131               0.000000000              -0.232277503               0.167987453               0.000000000              -0.256615912               0.186806776               0.000000000              -0.280954320               0.205626098               0.000000000              -0.305292729               0.224445420               0.000000000              -0.329631138               0.243264743               0.000000000              -0.353969547               0.262084065               0.000000000              -0.378307956               0.280903388               0.000000000              -0.402646365               0.299722710               0.000000000              -0.426984773               0.318542033               0.000000000              -0.451323182               0.337361355               0.000000000              -0.475661591               0.356180678               0.000000000              -0.500000000               0.375000000               0.000000000              -0.102810390               0.084374307               0.000000000              -0.127634741               0.106444663               0.000000000              -0.152459092               0.128515018               0.000000000              -0.177283442               0.150585374               0.000000000              -0.202107793               0.172655730               0.000000000              -0.226932143               0.194726086               0.000000000              -0.251756494               0.216796442               0.000000000              -0.276580845               0.238866798               0.000000000              -0.301405195               0.260937153               0.000000000              -0.326229546               0.283007509               0.000000000              -0.351053896               0.305077865               0.000000000              -0.375878247               0.327148221               0.000000000              -0.400702598               0.349218577               0.000000000              -0.425526948               0.371288933               0.000000000              -0.450351299               0.393359288               0.000000000              -0.475175649               0.415429644               0.000000000              -0.500000000               0.437500000               0.000000000              -0.094045202               0.094045202               0.000000000              -0.119417377               0.119417377               0.000000000              -0.144789552               0.144789552               0.000000000              -0.170161727               0.170161727               0.000000000              -0.195533901               0.195533901               0.000000000              -0.220906076               0.220906076               0.000000000              -0.246278251               0.246278251               0.000000000              -0.271650426               0.271650426               0.000000000              -0.297022601               0.297022601               0.000000000              -0.322394776               0.322394776               0.000000000              -0.347766951               0.347766951               0.000000000              -0.373139126               0.373139126               0.000000000              -0.398511300               0.398511300               0.000000000              -0.423883475               0.423883475               0.000000000              -0.449255650               0.449255650               0.000000000              -0.474627825               0.474627825               0.000000000              -0.500000000               0.500000000               0.000000000              -0.084374307               0.102810390               0.000000000              -0.106444663               0.127634741               0.000000000              -0.128515018               0.152459092               0.000000000              -0.150585374               0.177283442               0.000000000              -0.172655730               0.202107793               0.000000000              -0.194726086               0.226932143               0.000000000              -0.216796442               0.251756494               0.000000000              -0.238866798               0.276580845               0.000000000              -0.260937153               0.301405195               0.000000000              -0.283007509               0.326229546               0.000000000              -0.305077865               0.351053896               0.000000000              -0.327148221               0.375878247               0.000000000              -0.349218577               0.400702598               0.000000000              -0.371288933               0.425526948               0.000000000              -0.393359288               0.450351299               0.000000000              -0.415429644               0.475175649               0.000000000              -0.437500000               0.500000000               0.000000000              -0.073890841               0.110585458               0.000000000              -0.092710163               0.134923867               0.000000000              -0.111529486               0.159262276               0.000000000              -0.130348808               0.183600685               0.000000000              -0.149168131               0.207939094               0.000000000              -0.167987453               0.232277503               0.000000000              -0.186806776               0.256615912               0.000000000              -0.205626098               0.280954320               0.000000000              -0.224445420               0.305292729               0.000000000              -0.243264743               0.329631138               0.000000000              -0.262084065               0.353969547               0.000000000              -0.280903388               0.378307956               0.000000000              -0.299722710               0.402646365               0.000000000              -0.318542033               0.426984773               0.000000000              -0.337361355               0.451323182               0.000000000              -0.356180678               0.475661591               0.000000000              -0.375000000               0.500000000               0.000000000              -0.062695766               0.117295528               0.000000000              -0.078308531               0.141214558               0.000000000              -0.093921295               0.165133587               0.000000000              -0.109534060               0.189052617               0.000000000              -0.125146824               0.212971646               0.000000000              -0.140759589               0.236890676               0.000000000              -0.156372354               0.260809705               0.000000000              -0.171985118               0.284728735               0.000000000              -0.187597883               0.308647764               0.000000000              -0.203210648               0.332566794               0.000000000              -0.218823412               0.356485823               0.000000000              -0.234436177               0.380404853               0.000000000              -0.250048941               0.404323882               0.000000000              -0.265661706               0.428242912               0.000000000              -0.281274471               0.452161941               0.000000000              -0.296887235               0.476080971               0.000000000              -0.312500000               0.500000000               0.000000000              -0.050896897               0.122875978               0.000000000              -0.063340840               0.146446229               0.000000000              -0.075784784               0.170016481               0.000000000              -0.088228728               0.193586732               0.000000000              -0.100672672               0.217156983               0.000000000              -0.113116616               0.240727235               0.000000000              -0.125560560               0.264297486               0.000000000              -0.138004504               0.287867738               0.000000000              -0.150448448               0.311437989               0.000000000              -0.162892392               0.335008240               0.000000000              -0.175336336               0.358578492               0.000000000              -0.187780280               0.382148743               0.000000000              -0.200224224               0.405718994               0.000000000              -0.212668168               0.429289246               0.000000000              -0.225112112               0.452859497               0.000000000              -0.237556056               0.476429749               0.000000000              -0.250000000               0.500000000               0.000000000              -0.038607862               0.127273065               0.000000000              -0.047913621               0.150568498               0.000000000              -0.057219379               0.173863932               0.000000000              -0.066525138               0.197159365               0.000000000              -0.075830897               0.220454798               0.000000000              -0.085136655               0.243750232               0.000000000              -0.094442414               0.267045665               0.000000000              -0.103748172               0.290341099               0.000000000              -0.113053931               0.313636532               0.000000000              -0.122359690               0.336931966               0.000000000              -0.131665448               0.360227399               0.000000000              -0.140971207               0.383522833               0.000000000              -0.150276966               0.406818266               0.000000000              -0.159582724               0.430113700               0.000000000              -0.168888483               0.453409133               0.000000000              -0.178194241               0.476704567               0.000000000              -0.187500000               0.500000000               0.000000000              -0.025947013               0.130444442               0.000000000              -0.032137825               0.153541665               0.000000000              -0.038328636               0.176638887               0.000000000              -0.044519448               0.199736109               0.000000000              -0.050710260               0.222833332               0.000000000              -0.056901071               0.245930554               0.000000000              -0.063091883               0.269027776               0.000000000              -0.069282695               0.292124999               0.000000000              -0.075473506               0.315222221               0.000000000              -0.081664318               0.338319444               0.000000000              -0.087855130               0.361416666               0.000000000              -0.094045942               0.384513888               0.000000000              -0.100236753               0.407611111               0.000000000              -0.106427565               0.430708333               0.000000000              -0.112618377               0.453805555               0.000000000              -0.118809188               0.476902778               0.000000000              -0.125000000               0.500000000               0.000000000              -0.013036280               0.132359569               0.000000000              -0.016127762               0.155337096               0.000000000              -0.019219245               0.178314623               0.000000000              -0.022310727               0.201292150               0.000000000              -0.025402210               0.224269676               0.000000000              -0.028493692               0.247247203               0.000000000              -0.031585175               0.270224730               0.000000000              -0.034676657               0.293202257               0.000000000              -0.037768140               0.316179784               0.000000000              -0.040859622               0.339157311               0.000000000              -0.043951105               0.362134838               0.000000000              -0.047042587               0.385112365               0.000000000              -0.050134070               0.408089892               0.000000000              -0.053225552               0.431067419               0.000000000              -0.056317035               0.454044946               0.000000000              -0.059408517               0.477022473               0.000000000              -0.062500000               0.500000000               0.000000000               0.000000000               0.133000000               0.000000000               0.000000000               0.155937500               0.000000000               0.000000000               0.178875000               0.000000000               0.000000000               0.201812500               0.000000000               0.000000000               0.224750000               0.000000000               0.000000000               0.247687500               0.000000000               0.000000000               0.270625000               0.000000000               0.000000000               0.293562500               0.000000000               0.000000000               0.316500000               0.000000000               0.000000000               0.339437500               0.000000000               0.000000000               0.362375000               0.000000000               0.000000000               0.385312500               0.000000000               0.000000000               0.408250000               0.000000000               0.000000000               0.431187500               0.000000000               0.000000000               0.454125000               0.000000000               0.000000000               0.477062500               0.000000000               0.000000000               0.500000000               0.000000000 </DataArray>
</Points>
<Cells>
<DataArray type="Int32"                                    Name="connectivity"                                                      NumberOfComponents=" 1" format="ascii">
         0          1         18         17          1          2         19         18          2          3         20         19          3          4         21         20          4          5         22         21          5          6         23         22          6          7         24         23          7          8         25         24          8          9         26         25          9         10         27         26         10         11         28         27         11         12         29         28         12         13         30         29         13         14         31         30         14         15         32         31         15         16         33         32         17         18         35         34         18         19         36         35         19         20         37         36         20         21         38         37         21         22         39         38         22         23         40         39         23         24         41         40         24         25         42         41         25         26         43         42         26         27         44         43         27         28         45         44         28         29         46         45         29         30         47         46         30         31         48         47         31         32         49         48         32         33         50         49         34         35         52         51         35         36         53         52         36         37         54         53         37         38         55         54         38         39         56         55         39         40         57         56         40         41         58         57         41         42         59         58         42         43         60         59         43         44         61         60         44         45         62         61         45         46         63         62         46         47         64         63         47         48         65         64         48         49         66         65         49         50         67         66         51         52         69         68         52         53         70         69         53         54         71         70         54         55         72         71         55         56         73         72         56         57         74         73         57         58         75         74         58         59         76         75         59         60         77         76         60         61         78         77         61         62         79         78         62         63         80         79         63         64         81         80         64         65         82         81         65         66         83         82         66         67         84         83         68         69         86         85         69         70         87         86         70         71         88         87         71         72         89         88         72         73         90         89         73         74         91         90         74         75         92         91         75         76         93         92         76         77         94         93         77         78         95         94         78         79         96         95         79         80         97         96         80         81         98         97         81         82         99         98         82         83        100         99         83         84        101        100         85         86        103        102         86         87        104        103         87         88        105        104         88         89        106        105         89         90        107        106         90         91        108        107         91         92        109        108         92         93        110        109         93         94        111        110         94         95        112        111         95         96        113        112         96         97        114        113         97         98        115        114         98         99        116        115         99        100        117        116        100        101        118        117        102        103        120        119        103        104        121        120        104        105        122        121        105        106        123        122        106        107        124        123        107        108        125        124        108        109        126        125        109        110        127        126        110        111        128        127        111        112        129        128        112        113        130        129        113        114        131        130        114        115        132        131        115        116        133        132        116        117        134        133        117        118        135        134        119        120        137        136        120        121        138        137        121        122        139        138        122        123        140        139        123        124        141        140        124        125        142        141        125        126        143        142        126        127        144        143        127        128        145        144        128        129        146        145        129        130        147        146        130        131        148        147        131        132        149        148        132        133        150        149        133        134        151        150        134        135        152        151        136        137        154        153        137        138        155        154        138        139        156        155        139        140        157        156        140        141        158        157        141        142        159        158        142        143        160        159        143        144        161        160        144        145        162        161        145        146        163        162        146        147        164        163        147        148        165        164        148        149        166        165        149        150        167        166        150        151        168        167        151        152        169        168        153        154        171        170        154        155        172        171        155        156        173        172        156        157        174        173        157        158        175        174        158        159        176        175        159        160        177        176        160        161        178        177        161        162        179        178        162        163        180        179        163        164        181        180        164        165        182        181        165        166        183        182        166        167        184        183        167        168        185        184        168        169        186        185        170        171        188        187        171        172        189        188        172        173        190        189        173        174        191        190        174        175        192        191        175        176        193        192        176        177        194        193        177        178        195        194        178        179        196        195        179        180        197        196        180        181        198        197        181        182        199        198        182        183        200        199        183        184        201        200        184        185        202        201        185        186        203        202        187        188        205        204        188        189        206        205        189        190        207        206        190        191        208        207        191        192        209        208        192        193        210        209        193        194        211        210        194        195        212        211        195        196        213        212        196        197        214        213        197        198        215        214        198        199        216        215        199        200        217        216        200        201        218        217        201        202        219        218        202        203        220        219        204        205        222        221        205        206        223        222        206        207        224        223        207        208        225        224        208        209        226        225        209        210        227        226        210        211        228        227        211        212        229        228        212        213        230        229        213        214        231        230        214        215        232        231        215        216        233        232        216        217        234        233        217        218        235        234        218        219        236        235        219        220        237        236        221        222        239        238        222        223        240        239        223        224        241        240        224        225        242        241        225        226        243        242        226        227        244        243        227        228        245        244        228        229        246        245        229        230        247        246        230        231        248        247        231        232        249        248        232        233        250        249        233        234        251        250        234        235        252        251        235        236        253        252        236        237        254        253        238        239        256        255        239        240        257        256        240        241        258        257        241        242        259        258        242        243        260        259        243        244        261        260        244        245        262        261        245        246        263        262        246        247        264        263        247        248        265        264        248        249        266        265        249        250        267        266        250        251        268        267        251        252        269        268        252        253        270        269        253        254        271        270        255        256        273        272        256        257        274        273        257        258        275        274        258        259        276        275        259        260        277        276        260        261        278        277        261        262        279        278        262        263        280        279        263        264        281        280        264        265        282        281        265        266        283        282        266        267        284        283        267        268        285        284        268        269        286        285        269        270        287        286        270        271        288        287        306        307          1          0        307        308          2          1        308        309          3          2        309        310          4          3        310        311          5          4        311        312          6          5        312        313          7          6        313        314          8          7        314        315          9          8        315        316         10          9        316        317         11         10        317        318         12         11        318        319         13         12        319        320         14         13        320        321         15         14        321        322         16         15        323        324        307        306        324        325        308        307        325        326        309        308        326        327        310        309        327        328        311        310        328        329        312        311        329        330        313        312        330        331        314        313        331        332        315        314        332        333        316        315        333        334        317        316        334        335        318        317        335        336        319        318        336        337        320        319        337        338        321        320        338        339        322        321        340        341        324        323        341        342        325        324        342        343        326        325        343        344        327        326        344        345        328        327        345        346        329        328        346        347        330        329        347        348        331        330        348        349        332        331        349        350        333        332        350        351        334        333        351        352        335        334        352        353        336        335        353        354        337        336        354        355        338        337        355        356        339        338        357        358        341        340        358        359        342        341        359        360        343        342        360        361        344        343        361        362        345        344        362        363        346        345        363        364        347        346        364        365        348        347        365        366        349        348        366        367        350        349        367        368        351        350        368        369        352        351        369        370        353        352        370        371        354        353        371        372        355        354        372        373        356        355        374        375        358        357        375        376        359        358        376        377        360        359        377        378        361        360        378        379        362        361        379        380        363        362        380        381        364        363        381        382        365        364        382        383        366        365        383        384        367        366        384        385        368        367        385        386        369        368        386        387        370        369        387        388        371        370        388        389        372        371        389        390        373        372        391        392        375        374        392        393        376        375        393        394        377        376        394        395        378        377        395        396        379        378        396        397        380        379        397        398        381        380        398        399        382        381        399        400        383        382        400        401        384        383        401        402        385        384        402        403        386        385        403        404        387        386        404        405        388        387        405        406        389        388        406        407        390        389        408        409        392        391        409        410        393        392        410        411        394        393        411        412        395        394        412        413        396        395        413        414        397        396        414        415        398        397        415        416        399        398        416        417        400        399        417        418        401        400        418        419        402        401        419        420        403        402        420        421        404        403        421        422        405        404        422        423        406        405        423        424        407        406        425        426        409        408        426        427        410        409        427        428        411        410        428        429        412        411        429        430        413        412        430        431        414        413        431        432        415        414        432        433        416        415        433        434        417        416        434        435        418        417        435        436        419        418        436        437        420        419        437        438        421        420        438        439        422        421        439        440        423        422        440        441        424        423        442        443        426        425        443        444        427        426        444        445        428        427        445        446        429        428        446        447        430        429        447        448        431        430        448        449        432        431        449        450        433        432        450        451        434        433        451        452        435        434        452        453        436        435        453        454        437        436        454        455        438        437        455        456        439        438        456        457        440        439        457        458        441        440        459        460        443        442        460        461        444        443        461        462        445        444        462        463        446        445        463        464        447        446        464        465        448        447        465        466        449        448        466        467        450        449        467        468        451        450        468        469        452        451        469        470        453        452        470        471        454        453        471        472        455        454        472        473        456        455        473        474        457        456        474        475        458        457        476        477        460        459        477        478        461        460        478        479        462        461        479        480        463        462        480        481        464        463        481        482        465        464        482        483        466        465        483        484        467        466        484        485        468        467        485        486        469        468        486        487        470        469        487        488        471        470        488        489        472        471        489        490        473        472        490        491        474        473        491        492        475        474        493        494        477        476        494        495        478        477        495        496        479        478        496        497        480        479        497        498        481        480        498        499        482        481        499        500        483        482        500        501        484        483        501        502        485        484        502        503        486        485        503        504        487        486        504        505        488        487        505        506        489        488        506        507        490        489        507        508        491        490        508        509        492        491        510        511        494        493        511        512        495        494        512        513        496        495        513        514        497        496        514        515        498        497        515        516        499        498        516        517        500        499        517        518        501        500        518        519        502        501        519        520        503        502        520        521        504        503        521        522        505        504        522        523        506        505        523        524        507        506        524        525        508        507        525        526        509        508        527        528        511        510        528        529        512        511        529        530        513        512        530        531        514        513        531        532        515        514        532        533        516        515        533        534        517        516        534        535        518        517        535        536        519        518        536        537        520        519        537        538        521        520        538        539        522        521        539        540        523        522        540        541        524        523        541        542        525        524        542        543        526        525        544        545        528        527        545        546        529        528        546        547        530        529        547        548        531        530        548        549        532        531        549        550        533        532        550        551        534        533        551        552        535        534        552        553        536        535        553        554        537        536        554        555        538        537        555        556        539        538        556        557        540        539        557        558        541        540        558        559        542        541        559        560        543        542        561        562        545        544        562        563        546        545        563        564        547        546        564        565        548        547        565        566        549        548        566        567        550        549        567        568        551        550        568        569        552        551        569        570        553        552        570        571        554        553        571        572        555        554        572        573        556        555        573        574        557        556        574        575        558        557        575        576        559        558        576        577        560        559        578        579        596        595        579        580        597        596        580        581        598        597        581        582        599        598        582        583        600        599        583        584        601        600        584        585        602        601        585        586        603        602        586        587        604        603        587        588        605        604        588        589        606        605        589        590        607        606        590        591        608        607        591        592        609        608        592        593        610        609        593        594        611        610        595        596        613        612        596        597        614        613        597        598        615        614        598        599        616        615        599        600        617        616        600        601        618        617        601        602        619        618        602        603        620        619        603        604        621        620        604        605        622        621        605        606        623        622        606        607        624        623        607        608        625        624        608        609        626        625        609        610        627        626        610        611        628        627        612        613        630        629        613        614        631        630        614        615        632        631        615        616        633        632        616        617        634        633        617        618        635        634        618        619        636        635        619        620        637        636        620        621        638        637        621        622        639        638        622        623        640        639        623        624        641        640        624        625        642        641        625        626        643        642        626        627        644        643        627        628        645        644        629        630        647        646        630        631        648        647        631        632        649        648        632        633        650        649        633        634        651        650        634        635        652        651        635        636        653        652        636        637        654        653        637        638        655        654        638        639        656        655        639        640        657        656        640        641        658        657        641        642        659        658        642        643        660        659        643        644        661        660        644        645        662        661        646        647        664        663        647        648        665        664        648        649        666        665        649        650        667        666        650        651        668        667        651        652        669        668        652        653        670        669        653        654        671        670        654        655        672        671        655        656        673        672        656        657        674        673        657        658        675        674        658        659        676        675        659        660        677        676        660        661        678        677        661        662        679        678        663        664        681        680        664        665        682        681        665        666        683        682        666        667        684        683        667        668        685        684        668        669        686        685        669        670        687        686        670        671        688        687        671        672        689        688        672        673        690        689        673        674        691        690        674        675        692        691        675        676        693        692        676        677        694        693        677        678        695        694        678        679        696        695        680        681        698        697        681        682        699        698        682        683        700        699        683        684        701        700        684        685        702        701        685        686        703        702        686        687        704        703        687        688        705        704        688        689        706        705        689        690        707        706        690        691        708        707        691        692        709        708        692        693        710        709        693        694        711        710        694        695        712        711        695        696        713        712        697        698        715        714        698        699        716        715        699        700        717        716        700        701        718        717        701        702        719        718        702        703        720        719        703        704        721        720        704        705        722        721        705        706        723        722        706        707        724        723        707        708        725        724        708        709        726        725        709        710        727        726        710        711        728        727        711        712        729        728        712        713        730        729        714        715        732        731        715        716        733        732        716        717        734        733        717        718        735        734        718        719        736        735        719        720        737        736        720        721        738        737        721        722        739        738        722        723        740        739        723        724        741        740        724        725        742        741        725        726        743        742        726        727        744        743        727        728        745        744        728        729        746        745        729        730        747        746        731        732        749        748        732        733        750        749        733        734        751        750        734        735        752        751        735        736        753        752        736        737        754        753        737        738        755        754        738        739        756        755        739        740        757        756        740        741        758        757        741        742        759        758        742        743        760        759        743        744        761        760        744        745        762        761        745        746        763        762        746        747        764        763        748        749        766        765        749        750        767        766        750        751        768        767        751        752        769        768        752        753        770        769        753        754        771        770        754        755        772        771        755        756        773        772        756        757        774        773        757        758        775        774        758        759        776        775        759        760        777        776        760        761        778        777        761        762        779        778        762        763        780        779        763        764        781        780        765        766        783        782        766        767        784        783        767        768        785        784        768        769        786        785        769        770        787        786        770        771        788        787        771        772        789        788        772        773        790        789        773        774        791        790        774        775        792        791        775        776        793        792        776        777        794        793        777        778        795        794        778        779        796        795        779        780        797        796        780        781        798        797        782        783        800        799        783        784        801        800        784        785        802        801        785        786        803        802        786        787        804        803        787        788        805        804        788        789        806        805        789        790        807        806        790        791        808        807        791        792        809        808        792        793        810        809        793        794        811        810        794        795        812        811        795        796        813        812        796        797        814        813        797        798        815        814        799        800        817        816        800        801        818        817        801        802        819        818        802        803        820        819        803        804        821        820        804        805        822        821        805        806        823        822        806        807        824        823        807        808        825        824        808        809        826        825        809        810        827        826        810        811        828        827        811        812        829        828        812        813        830        829        813        814        831        830        814        815        832        831        816        817        834        833        817        818        835        834        818        819        836        835        819        820        837        836        820        821        838        837        821        822        839        838        822        823        840        839        823        824        841        840        824        825        842        841        825        826        843        842        826        827        844        843        827        828        845        844        828        829        846        845        829        830        847        846        830        831        848        847        831        832        849        848        833        834        562        561        834        835        563        562        835        836        564        563        836        837        565        564        837        838        566        565        838        839        567        566        839        840        568        567        840        841        569        568        841        842        570        569        842        843        571        570        843        844        572        571        844        845        573        572        845        846        574        573        846        847        575        574        847        848        576        575        848        849        577        576        884        885        579        578        885        886        580        579        886        887        581        580        887        888        582        581        888        889        583        582        889        890        584        583        890        891        585        584        891        892        586        585        892        893        587        586        893        894        588        587        894        895        589        588        895        896        590        589        896        897        591        590        897        898        592        591        898        899        593        592        899        900        594        593        901        902        885        884        902        903        886        885        903        904        887        886        904        905        888        887        905        906        889        888        906        907        890        889        907        908        891        890        908        909        892        891        909        910        893        892        910        911        894        893        911        912        895        894        912        913        896        895        913        914        897        896        914        915        898        897        915        916        899        898        916        917        900        899        918        919        902        901        919        920        903        902        920        921        904        903        921        922        905        904        922        923        906        905        923        924        907        906        924        925        908        907        925        926        909        908        926        927        910        909        927        928        911        910        928        929        912        911        929        930        913        912        930        931        914        913        931        932        915        914        932        933        916        915        933        934        917        916        935        936        919        918        936        937        920        919        937        938        921        920        938        939        922        921        939        940        923        922        940        941        924        923        941        942        925        924        942        943        926        925        943        944        927        926        944        945        928        927        945        946        929        928        946        947        930        929        947        948        931        930        948        949        932        931        949        950        933        932        950        951        934        933        952        953        936        935        953        954        937        936        954        955        938        937        955        956        939        938        956        957        940        939        957        958        941        940        958        959        942        941        959        960        943        942        960        961        944        943        961        962        945        944        962        963        946        945        963        964        947        946        964        965        948        947        965        966        949        948        966        967        950        949        967        968        951        950        969        970        953        952        970        971        954        953        971        972        955        954        972        973        956        955        973        974        957        956        974        975        958        957        975        976        959        958        976        977        960        959        977        978        961        960        978        979        962        961        979        980        963        962        980        981        964        963        981        982        965        964        982        983        966        965        983        984        967        966        984        985        968        967        986        987        970        969        987        988        971        970        988        989        972        971        989        990        973        972        990        991        974        973        991        992        975        974        992        993        976        975        993        994        977        976        994        995        978        977        995        996        979        978        996        997        980        979        997        998        981        980        998        999        982        981        999       1000        983        982       1000       1001        984        983       1001       1002        985        984       1003       1004        987        986       1004       1005        988        987       1005       1006        989        988       1006       1007        990        989       1007       1008        991        990       1008       1009        992        991       1009       1010        993        992       1010       1011        994        993       1011       1012        995        994       1012       1013        996        995       1013       1014        997        996       1014       1015        998        997       1015       1016        999        998       1016       1017       1000        999       1017       1018       1001       1000       1018       1019       1002       1001       1020       1021       1004       1003       1021       1022       1005       1004       1022       1023       1006       1005       1023       1024       1007       1006       1024       1025       1008       1007       1025       1026       1009       1008       1026       1027       1010       1009       1027       1028       1011       1010       1028       1029       1012       1011       1029       1030       1013       1012       1030       1031       1014       1013       1031       1032       1015       1014       1032       1033       1016       1015       1033       1034       1017       1016       1034       1035       1018       1017       1035       1036       1019       1018       1037       1038       1021       1020       1038       1039       1022       1021       1039       1040       1023       1022       1040       1041       1024       1023       1041       1042       1025       1024       1042       1043       1026       1025       1043       1044       1027       1026       1044       1045       1028       1027       1045       1046       1029       1028       1046       1047       1030       1029       1047       1048       1031       1030       1048       1049       1032       1031       1049       1050       1033       1032       1050       1051       1034       1033       1051       1052       1035       1034       1052       1053       1036       1035       1054       1055       1038       1037       1055       1056       1039       1038       1056       1057       1040       1039       1057       1058       1041       1040       1058       1059       1042       1041       1059       1060       1043       1042       1060       1061       1044       1043       1061       1062       1045       1044       1062       1063       1046       1045       1063       1064       1047       1046       1064       1065       1048       1047       1065       1066       1049       1048       1066       1067       1050       1049       1067       1068       1051       1050       1068       1069       1052       1051       1069       1070       1053       1052       1071       1072       1055       1054       1072       1073       1056       1055       1073       1074       1057       1056       1074       1075       1058       1057       1075       1076       1059       1058       1076       1077       1060       1059       1077       1078       1061       1060       1078       1079       1062       1061       1079       1080       1063       1062       1080       1081       1064       1063       1081       1082       1065       1064       1082       1083       1066       1065       1083       1084       1067       1066       1084       1085       1068       1067       1085       1086       1069       1068       1086       1087       1070       1069       1088       1089       1072       1071       1089       1090       1073       1072       1090       1091       1074       1073       1091       1092       1075       1074       1092       1093       1076       1075       1093       1094       1077       1076       1094       1095       1078       1077       1095       1096       1079       1078       1096       1097       1080       1079       1097       1098       1081       1080       1098       1099       1082       1081       1099       1100       1083       1082       1100       1101       1084       1083       1101       1102       1085       1084       1102       1103       1086       1085       1103       1104       1087       1086       1105       1106       1089       1088       1106       1107       1090       1089       1107       1108       1091       1090       1108       1109       1092       1091       1109       1110       1093       1092       1110       1111       1094       1093       1111       1112       1095       1094       1112       1113       1096       1095       1113       1114       1097       1096       1114       1115       1098       1097       1115       1116       1099       1098       1116       1117       1100       1099       1117       1118       1101       1100       1118       1119       1102       1101       1119       1120       1103       1102       1120       1121       1104       1103       1122       1123       1106       1105       1123       1124       1107       1106       1124       1125       1108       1107       1125       1126       1109       1108       1126       1127       1110       1109       1127       1128       1111       1110       1128       1129       1112       1111       1129       1130       1113       1112       1130       1131       1114       1113       1131       1132       1115       1114       1132       1133       1116       1115       1133       1134       1117       1116       1134       1135       1118       1117       1135       1136       1119       1118       1136       1137       1120       1119       1137       1138       1121       1120        272        273       1123       1122        273        274       1124       1123        274        275       1125       1124        275        276       1126       1125        276        277       1127       1126        277        278       1128       1127        278        279       1129       1128        279        280       1130       1129        280        281       1131       1130        281        282       1132       1131        282        283       1133       1132        283        284       1134       1133        284        285       1135       1134        285        286       1136       1135        286        287       1137       1136        287        288       1138       1137 </DataArray>
<DataArray type="Int32"                                    Name="offsets"                                                      NumberOfComponents=" 1" format="ascii">
         4          8         12         16         20         24         28         32         36         40         44         48         52         56         60         64         68         72         76         80         84         88         92         96        100        104        108        112        116        120        124        128        132        136        140        144        148        152        156        160        164        168        172        176        180        184        188        192        196        200        204        208        212        216        220        224        228        232        236        240        244        248        252        256        260        264        268        272        276        280        284        288        292        296        300        304        308        312        316        320        324        328        332        336        340        344        348        352        356        360        364        368        372        376        380        384        388        392        396        400        404        408        412        416        420        424        428        432        436        440        444        448        452        456        460        464        468        472        476        480        484        488        492        496        500        504        508        512        516        520        524        528        532        536        540        544        548        552        556        560        564        568        572        576        580        584        588        592        596        600        604        608        612        616        620        624        628        632        636        640        644        648        652        656        660        664        668        672        676        680        684        688        692        696        700        704        708        712        716        720        724        728        732        736        740        744        748        752        756        760        764        768        772        776        780        784        788        792        796        800        804        808        812        816        820        824        828        832        836        840        844        848        852        856        860        864        868        872        876        880        884        888        892        896        900        904        908        912        916        920        924        928        932        936        940        944        948        952        956        960        964        968        972        976        980        984        988        992        996       1000       1004       1008       1012       1016       1020       1024       1028       1032       1036       1040       1044       1048       1052       1056       1060       1064       1068       1072       1076       1080       1084       1088       1092       1096       1100       1104       1108       1112       1116       1120       1124       1128       1132       1136       1140       1144       1148       1152       1156       1160       1164       1168       1172       1176       1180       1184       1188       1192       1196       1200       1204       1208       1212       1216       1220       1224       1228       1232       1236       1240       1244       1248       1252       1256       1260       1264       1268       1272       1276       1280       1284       1288       1292       1296       1300       1304       1308       1312       1316       1320       1324       1328       1332       1336       1340       1344       1348       1352       1356       1360       1364       1368       1372       1376       1380       1384       1388       1392       1396       1400       1404       1408       1412       1416       1420       1424       1428       1432       1436       1440       1444       1448       1452       1456       1460       1464       1468       1472       1476       1480       1484       1488       1492       1496       1500       1504       1508       1512       1516       1520       1524       1528       1532       1536       1540       1544       1548       1552       1556       1560       1564       1568       1572       1576       1580       1584       1588       1592       1596       1600       1604       1608       1612       1616       1620       1624       1628       1632       1636       1640       1644       1648       1652       1656       1660       1664       1668       1672       1676       1680       1684       1688       1692       1696       1700       1704       1708       1712       1716       1720       1724       1728       1732       1736       1740       1744       1748       1752       1756       1760       1764       1768       1772       1776       1780       1784       1788       1792       1796       1800       1804       1808       1812       1816       1820       1824       1828       1832       1836       1840       1844       1848       1852       1856       1860       1864       1868       1872       1876       1880       1884       1888       1892       1896       1900       1904       1908       1912       1916       1920       1924       1928       1932       1936       1940       1944       1948       1952       1956       1960       1964       1968       1972       1976       1980       1984       1988       1992       1996       2000       2004       2008       2012       2016       2020       2024       2028       2032       2036       2040       2044       2048       2052       2056       2060       2064       2068       2072       2076       2080       2084       2088       2092       2096       2100       2104       2108       2112       2116       2120       2124       2128       2132       2136       2140       2144       2148       2152       2156       2160       2164       2168       2172       2176       2180       2184       2188       2192       2196       2200       2204       2208       2212       2216       2220       2224       2228       2232       2236       2240       2244       2248       2252       2256       2260       2264       2268       2272       2276       2280       2284       2288       2292       2296       2300       2304       2308       2312       2316       2320       2324       2328       2332       2336       2340       2344       2348       2352       2356       2360       2364       2368       2372       2376       2380       2384       2388       2392       2396       2400       2404       2408       2412       2416       2420       2424       2428       2432       2436       2440       2444       2448       2452       2456       2460       2464       2468       2472       2476       2480       2484       2488       2492       2496       2500       2504       2508       2512       2516       2520       2524       2528       2532       2536       2540       2544       2548       2552       2556       2560       2564       2568       2572       2576       2580       2584       2588       2592       2596       2600       2604       2608       2612       2616       2620       2624       2628       2632       2636       2640       2644       2648       2652       2656       2660       2664       2668       2672       2676       2680       2684       2688       2692       2696       2700       2704       2708       2712       2716       2720       2724       2728       2732       2736       2740       2744       2748       2752       2756       2760       2764       2768       2772       2776       2780       2784       2788       2792       2796       2800       2804       2808       2812       2816       2820       2824       2828       2832       2836       2840       2844       2848       2852       2856       2860       2864       2868       2872       2876       2880       2884       2888       2892       2896       2900       2904       2908       2912       2916       2920       2924       2928       2932       2936       2940       2944       2948       2952       2956       2960       2964       2968       2972       2976       2980       2984       2988       2992       2996       3000       3004       3008       3012       3016       3020       3024       3028       3032       3036       3040       3044       3048       3052       3056       3060       3064       3068       3072       3076       3080       3084       3088       3092       3096       3100       3104       3108       3112       3116       3120       3124       3128       3132       3136       3140       3144       3148       3152       3156       3160       3164       3168       3172       3176       3180       3184       3188       3192       3196       3200       3204       3208       3212       3216       3220       3224       3228       3232       3236       3240       3244       3248       3252       3256       3260       3264       3268       3272       3276       3280       3284       3288       3292       3296       3300       3304       3308       3312       3316       3320       3324       3328       3332       3336       3340       3344       3348       3352       3356       3360       3364       3368       3372       3376       3380       3384       3388       3392       3396       3400       3404       3408       3412       3416       3420       3424       3428       3432       3436       3440       3444       3448       3452       3456       3460       3464       3468       3472       3476       3480       3484       3488       3492       3496       3500       3504       3508       3512       3516       3520       3524       3528       3532       3536       3540       3544       3548       3552       3556       3560       3564       3568       3572       3576       3580       3584       3588       3592       3596       3600       3604       3608       3612       3616       3620       3624       3628       3632       3636       3640       3644       3648       3652       3656       3660       3664       3668       3672       3676       3680       3684       3688       3692       3696       3700       3704       3708       3712       3716       3720       3724       3728       3732       3736       3740       3744       3748       3752       3756       3760       3764       3768       3772       3776       3780       3784       3788       3792       3796       3800       3804       3808       3812       3816       3820       3824       3828       3832       3836       3840       3844       3848       3852       3856       3860       3864       3868       3872       3876       3880       3884       3888       3892       3896       3900       3904       3908       3912       3916       3920       3924       3928       3932       3936       3940       3944       3948       3952       3956       3960       3964       3968       3972       3976       3980       3984       3988       3992       3996       4000       4004       4008       4012       4016       4020       4024       4028       4032       4036       4040       4044       4048       4052       4056       4060       4064       4068       4072       4076       4080       4084       4088       4092       4096 </DataArray>
<DataArray type="UInt8"                                    Name="types"                                                      NumberOfComponents=" 1" format="ascii">
         9          9          9          9          9          9          9          9          9          9          9          9          9          9          9          9          9          9          9          9          9          9          9          9          9          9          9          9          9          9          9          9          9          9          9          9          9          9          9          9          9          9          9          9          9          9          9          9          9          9          9          9          9          9          9          9          9          9          9          9          9          9          9          9          9          9          9          9          9          9          9          9          9          9          9          9          9          9          9          9          9          9          9          9          9          9          9          9          9          9          9          9          9          9          9          9          9          9          9          9          9          9          9          9          9          9          9          9          9          9          9          9          9          9          9          9          9          9          9          9          9          9          9          9          9          9          9          9          9          9          9          9          9          9          9          9          9          9          9          9          9          9          9          9          9          9          9          9          9          9          9          9          9          9          9          9          9          9          9          9          9          9          9          9          9          9          9          9          9          9          9          9          9          9          9          9          9          9          9          9          9          9          9          9          9          9          9          9          9          9          9          9          9          9          9          9          9          9          9          9          9          9          9          9          9          9          9          9          9          9          9          9          9          9          9          9          9          9          9          9          9          9          9          9          9          9          9          9          9          9          9          9          9          9          9          9          9          9          9          9          9          9          9          9          9          9          9          9          9          9          9          9          9          9          9          9          9          9          9          9          9          9          9          9          9          9          9          9          9          9          9          9          9          9          9          9          9          9          9          9          9          9          9          9          9          9          9          9          9          9          9          9          9          9          9          9          9          9          9          9          9          9          9          9          9          9          9          9          9          9          9          9          9          9          9          9          9          9          9          9          9          9          9          9          9          9          9          9          9          9          9          9          9          9          9          9          9          9          9          9          9          9          9          9          9          9          9          9          9          9          9          9          9          9          9          9          9          9          9          9          9          9          9          9          9          9          9          9          9          9          9          9          9          9          9          9          9          9          9          9          9          9          9          9          9          9          9          9          9          9          9          9          9          9          9          9          9          9          9          9          9          9          9          9          9          9          9          9          9          9          9          9          9          9          9          9          9          9          9          9          9          9          9          9          9          9          9          9          9          9          9          9          9          9          9          9          9          9          9          9          9          9          9          9          9          9          9          9          9          9          9          9          9          9          9          9          9          9          9          9          9          9          9          9          9          9          9          9          9          9          9          9          9          9          9          9          9          9          9          9          9          9          9          9          9          9          9          9          9          9          9          9          9          9          9          9          9          9          9          9          9          9          9          9          9          9          9          9          9          9          9          9          9          9          9          9          9          9          9          9          9          9          9          9          9          9          9          9          9          9          9          9          9          9          9          9          9          9          9          9          9          9          9          9          9          9          9          9          9          9          9          9          9          9          9          9          9          9          9          9          9          9          9          9          9          9          9          9          9          9          9          9          9          9          9          9          9          9          9          9          9          9          9          9          9          9          9          9          9          9          9          9          9          9          9          9          9          9          9          9          9          9          9          9          9          9          9          9          9          9          9          9          9          9          9          9          9          9          9          9          9          9          9          9          9          9          9          9          9          9          9          9          9          9          9          9          9          9          9          9          9          9          9          9          9          9          9          9          9          9          9          9          9          9          9          9          9          9          9          9          9          9          9          9          9          9          9          9          9          9          9          9          9          9          9          9          9          9          9          9          9          9          9          9          9          9          9          9          9          9          9          9          9          9          9          9          9          9          9          9          9          9          9          9          9          9          9          9          9          9          9          9          9          9          9          9          9          9          9          9          9          9          9          9          9          9          9          9          9          9          9          9          9          9          9          9          9          9          9          9          9          9          9          9          9          9          9          9          9          9          9          9          9          9          9          9          9          9          9          9          9          9          9          9          9          9          9          9          9          9          9          9          9          9          9          9          9          9          9          9          9          9          9          9          9          9          9          9          9          9          9          9          9          9          9          9          9          9          9          9          9          9          9          9          9          9          9          9          9          9          9          9          9          9          9          9          9          9          9          9          9          9          9          9          9          9          9          9          9          9          9          9          9          9          9          9          9          9          9          9          9          9          9          9          9          9          9          9          9          9          9          9          9          9          9          9          9          9          9          9          9          9          9          9          9          9          9          9          9          9          9          9          9          9          9          9          9          9          9          9          9          9          9          9          9          9          9          9          9          9          9          9          9          9          9          9          9          9          9          9          9          9          9          9          9          9          9          9          9          9          9          9          9          9          9          9          9          9          9          9          9          9          9          9          9          9          9          9          9          9          9          9          9          9          9          9          9          9          9          9          9          9          9          9          9          9          9          9          9          9          9          9          9          9          9          9          9          9          9          9          9          9          9          9          9          9          9          9          9          9          9          9          9          9          9          9          9          9          9          9          9          9          9          9          9          9          9          9          9          9          9          9          9          9          9          9          9          9          9          9          9          9          9          9          9          9          9          9          9          9          9          9          9          9          9          9          9          9          9          9          9          9          9          9 </DataArray>
</Cells>
<CellData>
<DataArray type="Int32"                                    Name="material"                                                      NumberOfComponents=" 1" format="ascii">
         1          1          1          1          1          1          1          1          1          1          1          1          1          1          1          1          1          1          1          1          1          1          1          1          1          1          1          1          1          1          1          1          1          1          1          1          1          1          1          1          1          1          1          1          1          1          1          1          1          1          1          1          1          1          1          1          1          1          1          1          1          1          1          1          1          1          1          1          1          1          1          1          1          1          1          1          1          1          1          1          1          1          1          1          1          1          1          1          1          1          1          1          1          1          1          1          1          1          1          1          1          1          1          1          1          1          1          1          1          1          1          1          1          1          1          1          1          1          1          1          1          1          1          1          1          1          1          1          1          1          1          1          1          1          1          1          1          1          1          1          1          1          1          1          1          1          1          1          1          1          1          1          1          1          1          1          1          1          1          1          1          1          1          1          1          1          1          1          1          1          1          1          1          1          1          1          1          1          1          1          1          1          1          1          1          1          1          1          1          1          1          1          1          1          1          1          1          1          1          1          1          1          1          1          1          1          1          1          1          1          1          1          1          1          1          1          1          1          1          1          1          1          1          1          1          1          1          1          1          1          1          1          1          1          1          1          1          1          1          1          1          1          1          1          1          1          1          1          1          1          1          1          1          1          1          1          1          1          1          1          1          1          1          1          1          1          1          1          1          1          1          1          1          1          1          1          1          1          1          1          1          1          1          1          1          1          1          1          1          1          1          1          1          1          1          1          1          1          1          1          1          1          1          1          1          1          1          1          1          1          1          1          1          1          1          1          1          1          1          1          1          1          1          1          1          1          1          1          1          1          1          1          1          1          1          1          1          1          1          1          1          1          1          1          1          1          1          1          1          1          1          1          1          1          1          1          1          1          1          1          1          1          1          1          1          1          1          1          1          1          1          1          1          1          1          1          1          1          1          1          1          1          1          1          1          1          1          1          1          1          1          1          1          1          1          1          1          1          1          1          1          1          1          1          1          1          1          1          1          1          1          1          1          1          1          1          1          1          1          1          1          1          1          1          1          1          1          1          1          1          1          1          1          1          1          1          1          1          1          1          1          1          1          1          1          1          1          1          1          1          1          1          1          1          1          1          1          1          1          1          1          1          1          1          1          1          1          1          1          1          1          1          1          1          1          1          1          1          1          1          1          1          1          1          1          1          1          1          1          1          1          1          1          1          1          1          1          1          1          1          1          1          1          1          1          1          1          1          1          1          1          1          1          1          1          1          1          1          1          1          1          1          1          1          1          1          1          1          1          1          1          1          1          1          1          1          1          1          1          1          1          1          1          1          1          1          1          1          1          1          1          1          1          1          1          1          1          1          1          1          1          1          1          1          1          1          1          1          1          1          1          1          1          1          1          1          1          1          1          1          1          1          1          1          1          1          1          1          1          1          1          1          1          1          1          1          1          1          1          1          1          1          1          1          1          1          1          1          1          1          1          1          1          1          1          1          1          1          1          1          1          1          1          1          1          1          1          1          1          1          1          1          1          1          1          1          1          1          1          1          1          1          1          1          1          1          1          1          1          1          1          1          1          1          1          1          1          1          1          1          1          1          1          1          1          1          1          1          1          1          1          1          1          1          1          1          1          1          1          1          1          1          1          1          1          1          1          1          1          1          1          1          1          1          1          1          1          1          1          1          1          1          1          1          1          1          1          1          1          1          1          1          1          1          1          1          1          1          1          1          1          1          1          1          1          1          1          1          1          1          1          1          1          1          1          1          1          1          1          1          1          1          1          1          1          1          1          1          1          1          1          1          1          1          1          1          1          1          1          1          1          1          1          1          1          1          1          1          1          1          1          1          1          1          1          1          1          1          1          1          1          1          1          1          1          1          1          1          1          1          1          1          1          1          1          1          1          1          1          1          1          1          1          1          1          1          1          1          1          1          1          1          1          1          1          1          1          1          1          1          1          1          1          1          1          1          1          1          1          1          1          1          1          1          1          1          1          1          1          1          1          1          1          1          1          1          1          1          1          1          1          1          1          1          1          1          1          1          1          1          1          1          1          1          1          1          1          1          1          1          1          1          1          1          1          1          1          1          1          1          1          1          1          1          1          1          1          1          1          1          1          1          1          1          1          1          1          1          1          1          1          1          1          1          1          1          1          1          1          1          1          1          1          1          1          1          1          1          1          1          1          1          1          1          1          1          1          1          1          1          1          1          1          1          1          1          1          1          1          1          1          1          1          1          1          1          1          1          1          1          1          1          1          1          1          1          1          1          1          1          1          1          1          1          1          1          1          1          1          1          1          1          1          1          1          1          1          1          1          1          1          1          1          1          1          1          1          1          1          1          1          1          1          1          1          1          1          1          1          1          1          1          1          1          1          1          1          1          1          1          1          1          1          1          1          1          1          1          1          1          1          1          1          1 </DataArray>
</CellData>
<PointData>
<DataArray type="Float64"                                    Name="u"                                                      NumberOfComponents=" 3" format="ascii">
             -0.000003810               0.000000000               0.999999997              -0.000016624               0.000000000               0.999999997              -0.000023097              -0.000000000               0.999999997              -0.000027076              -0.000000000               0.999999997              -0.000030285              -0.000000000               0.999999997              -0.000033482               0.000000000               0.999999997              -0.000036924              -0.000000000               0.999999997              -0.000040802              -0.000000000               0.999999997              -0.000045143              -0.000000000               0.999999997              -0.000049931              -0.000000000               0.999999997              -0.000055187              -0.000000000               0.999999997              -0.000060921              -0.000000000               0.999999997              -0.000067152               0.000000000               0.999999997              -0.000073895              -0.000000000               0.999999997              -0.000081192              -0.000000000               0.999999997              -0.000089040              -0.000000000               0.999999997              -0.000097428               0.000000000               0.999999997              -0.000003862               0.000031358               0.999999997              -0.000016195               0.000028186               0.999999997              -0.000022357               0.000027462               0.999999997              -0.000026207               0.000028180               0.999999997              -0.000029378               0.000029860               0.999999997              -0.000032617               0.000032072               0.999999997              -0.000036170               0.000034692               0.999999997              -0.000040125               0.000037613               0.999999997              -0.000044570               0.000040732               0.999999997              -0.000049487               0.000044093               0.999999997              -0.000054904               0.000047639               0.999999997              -0.000060801               0.000051314               0.999999997              -0.000067159               0.000055092               0.999999997              -0.000074002               0.000059059               0.999999997              -0.000081378               0.000063046               0.999999997              -0.000089325               0.000067096               0.999999997              -0.000097841               0.000071033               0.999999997              -0.000003930               0.000062407               0.999999997              -0.000014879               0.000055970               0.999999997              -0.000020257               0.000054675               0.999999997              -0.000023786               0.000056279               0.999999997              -0.000026949               0.000059627               0.999999997              -0.000030281               0.000064128               0.999999997              -0.000033998               0.000069399               0.999999997              -0.000038231               0.000075240               0.999999997              -0.000043049               0.000081554               0.999999997              -0.000048418               0.000088261               0.999999997              -0.000054317               0.000095440               0.999999997              -0.000060667               0.000102710               0.999999997              -0.000067458               0.000110277               0.999999997              -0.000074728               0.000118195               0.999999997              -0.000082526               0.000126388               0.999999997              -0.000090912               0.000134709               0.999999997              -0.000099866               0.000143088               0.999999997              -0.000003987               0.000092807               0.999999997              -0.000012704               0.000083108               0.999999997              -0.000017028               0.000081458               0.999999997              -0.000020171               0.000084104               0.999999997              -0.000023313               0.000089272               0.999999997              -0.000026909               0.000096124               0.999999997              -0.000031081               0.000104159               0.999999997              -0.000035926               0.000113067               0.999999997              -0.000041431               0.000122651               0.999999997              -0.000047471               0.000132795               0.999999997              -0.000054062               0.000143462               0.999999997              -0.000061200               0.000154464               0.999999997              -0.000068825               0.000165770               0.999999997              -0.000076943               0.000177647               0.999999997              -0.000085568               0.000190016               0.999999997              -0.000094710               0.000202799               0.999999997              -0.000104368               0.000215794               0.999999997              -0.000004092               0.000122216               0.999999997              -0.000009810               0.000109377               0.999999997              -0.000012933               0.000107669               0.999999997              -0.000015827               0.000111557               0.999999997              -0.000019189               0.000118754               0.999999997              -0.000023310               0.000128083               0.999999997              -0.000028286               0.000138930               0.999999997              -0.000034020               0.000150935               0.999999997              -0.000040430               0.000163722               0.999999997              -0.000047487               0.000177232               0.999999997              -0.000055138               0.000191400               0.999999997              -0.000063344               0.000206052               0.999999997              -0.000072117               0.000221074               0.999999997              -0.000081380               0.000236793               0.999999997              -0.000091122               0.000253310               0.999999997              -0.000101336               0.000270371               0.999999997              -0.000111930               0.000287862               0.999999997              -0.000004139               0.000150383               0.999999997              -0.000006361               0.000134628               0.999999997              -0.000008408               0.000133158               0.999999997              -0.000011294               0.000138496               0.999999997              -0.000015224               0.000147775               0.999999997              -0.000020199               0.000159637               0.999999997              -0.000026168               0.000173357               0.999999997              -0.000032977               0.000188385               0.999999997              -0.000040591               0.000204428               0.999999997              -0.000048915               0.000221267               0.999999997              -0.000057875               0.000238830               0.999999997              -0.000067428               0.000257113               0.999999997              -0.000077474               0.000275939               0.999999997              -0.000088023               0.000295493               0.999999997              -0.000098995               0.000316030               0.999999997              -0.000110325               0.000337278               0.999999997              -0.000121951               0.000358993               0.999999997              -0.000004087               0.000177027               0.999999997              -0.000002606               0.000158805               0.999999997              -0.000003873               0.000157800               0.999999997              -0.000007119               0.000164607               0.999999997              -0.000011895               0.000176032               0.999999997              -0.000017950               0.000190466               0.999999997              -0.000025148               0.000207030               0.999999997              -0.000033339               0.000225097               0.999999997              -0.000042357               0.000244345               0.999999997              -0.000052094               0.000264549               0.999999997              -0.000062347               0.000285568               0.999999997              -0.000073093               0.000307593               0.999999997              -0.000084350               0.000330309               0.999999997              -0.000096123               0.000353887               0.999999997              -0.000108326               0.000378438               0.999999997              -0.000120826               0.000403727               0.999999997              -0.000133493               0.000429347               0.999999997              -0.000004021               0.000201805               0.999999997               0.000001188               0.000181822               0.999999997               0.000000316               0.000181423               0.999999997              -0.000003650               0.000189748               0.999999997              -0.000009501               0.000203324               0.999999997              -0.000016850               0.000220347               0.999999997              -0.000025488               0.000239750               0.999999997              -0.000035147               0.000260788               0.999999997              -0.000045546               0.000283323               0.999999997              -0.000056554               0.000306998               0.999999997              -0.000068025               0.000331768               0.999999997              -0.000080074               0.000357600               0.999999997              -0.000092589               0.000384404               0.999999997              -0.000105591               0.000412132               0.999999997              -0.000118893               0.000440741               0.999999997              -0.000132339               0.000469810               0.999999997              -0.000145780               0.000499061               0.999999997              -0.000003998               0.000224344               0.999999997               0.000004902               0.000203674               0.999999997               0.000003792               0.000203839               0.999999997              -0.000001060               0.000213730               0.999999997              -0.000008091               0.000229491               0.999999997              -0.000016946               0.000249078               0.999999997              -0.000027005               0.000271325               0.999999997              -0.000038044               0.000295544               0.999999997              -0.000049724               0.000321460               0.999999997              -0.000061913               0.000348800               0.999999997              -0.000074669               0.000377504               0.999999997              -0.000087818               0.000407498               0.999999997              -0.000101367               0.000438582               0.999999997              -0.000115279               0.000470525               0.999999997              -0.000129338               0.000503019               0.999999997              -0.000143284               0.000535799               0.999999997              -0.000157220               0.000568633               0.999999997              -0.000004266               0.000245404               0.999999997               0.000007294               0.000226299               0.999999997               0.000007518               0.000224244               0.999999997               0.000003592               0.000231567               0.999999997              -0.000002553               0.000244627               0.999999997              -0.000010387               0.000261698               0.999999997              -0.000019350               0.000281579               0.999999997              -0.000029208               0.000303538               0.999999997              -0.000039704               0.000327141               0.999999997              -0.000050641               0.000352182               0.999999997              -0.000061922               0.000378603               0.999999997              -0.000073421               0.000406331               0.999999997              -0.000085153               0.000435209               0.999999997              -0.000097142               0.000465044               0.999999997              -0.000109376               0.000495564               0.999999997              -0.000121605               0.000526541               0.999999997              -0.000133798               0.000557839               0.999999997              -0.000004256               0.000264426               0.999999997               0.000008684               0.000247934               0.999999997               0.000010281               0.000244884               0.999999997               0.000007416               0.000250142               0.999999997               0.000002302               0.000260887               0.999999997              -0.000004352               0.000275599               0.999999997              -0.000012112               0.000293243               0.999999997              -0.000020698               0.000313045               0.999999997              -0.000030020               0.000334564               0.999999997              -0.000039784               0.000357414               0.999999997              -0.000049611               0.000381661               0.999999997              -0.000059478               0.000407210               0.999999997              -0.000069454               0.000433930               0.999999997              -0.000079569               0.000461547               0.999999997              -0.000089801               0.000489969               0.999999997              -0.000100002               0.000519013               0.999999997              -0.000110262               0.000548554               0.999999997              -0.000004029               0.000281023               0.999999997               0.000009108               0.000268020               0.999999997               0.000011789               0.000264946               0.999999997               0.000010015               0.000268860               0.999999997               0.000006101               0.000277785               0.999999997               0.000000669               0.000290543               0.999999997              -0.000005719               0.000306226               0.999999997              -0.000013026               0.000324081               0.999999997              -0.000021027               0.000343698               0.999999997              -0.000029474               0.000364812               0.999999997              -0.000037854               0.000387143               0.999999997              -0.000046068               0.000410725               0.999999997              -0.000054286               0.000435435               0.999999997              -0.000062472               0.000461055               0.999999997              -0.000070687               0.000487434               0.999999997              -0.000078632               0.000514403               0.999999997              -0.000086317               0.000542046               0.999999997              -0.000003564               0.000294938               0.999999997               0.000008596               0.000285811               0.999999997               0.000011883               0.000283471               0.999999997               0.000011109               0.000286808               0.999999997               0.000008308               0.000294450               0.999999997               0.000004232               0.000305703               0.999999997              -0.000000815               0.000319736               0.999999997              -0.000006635               0.000336023               0.999999997              -0.000013209               0.000354084               0.999999997              -0.000020189               0.000373681               0.999999997              -0.000027146               0.000394557               0.999999997              -0.000033747               0.000416661               0.999999997              -0.000040157               0.000439812               0.999999997              -0.000046592               0.000463844               0.999999997              -0.000052715               0.000488579               0.999999997              -0.000058211               0.000513932               0.999999997              -0.000062999               0.000539879               0.999999997              -0.000002891               0.000305944               0.999999997               0.000007261               0.000300590               0.999999997               0.000010525               0.000299446               0.999999997               0.000010455               0.000302678               0.999999997               0.000008673               0.000309680               0.999999997               0.000005886               0.000319836               0.999999997               0.000002203               0.000332737               0.999999997              -0.000002107               0.000347733               0.999999997              -0.000007126               0.000364472               0.999999997              -0.000012587               0.000382844               0.999999997              -0.000018031               0.000402645               0.999999997              -0.000023081               0.000423661               0.999999997              -0.000027850               0.000445661               0.999999997              -0.000032398               0.000468630               0.999999997              -0.000036590               0.000492340               0.999999997              -0.000039972               0.000516668               0.999999997              -0.000042260               0.000541522               0.999999997              -0.000002048               0.000313943               0.999999997               0.000005219               0.000311621               0.999999997               0.000007853               0.000311795               0.999999997               0.000008141               0.000315311               0.999999997               0.000007119               0.000322008               0.999999997               0.000005417               0.000331519               0.999999997               0.000003052               0.000343555               0.999999997               0.000000146               0.000357608               0.999999997              -0.000003189               0.000373478               0.999999997              -0.000006831               0.000391021               0.999999997              -0.000010628               0.000410080               0.999999997              -0.000014222               0.000430408               0.999999997              -0.000017245               0.000451837               0.999999997              -0.000019910               0.000474268               0.999999997              -0.000022460               0.000497463               0.999999997              -0.000024370               0.000521186               0.999999997              -0.000025025               0.000545387               0.999999997              -0.000001061               0.000318830               0.999999997               0.000002711               0.000318493               0.999999997               0.000004194               0.000319560               0.999999997               0.000004424               0.000323377               0.999999997               0.000003973               0.000330022               0.999999997               0.000003178               0.000339216               0.999999997               0.000002050               0.000350741               0.999999997               0.000000587               0.000364342               0.999999997              -0.000001065               0.000379823               0.999999997              -0.000002823               0.000396899               0.999999997              -0.000004842               0.000415460               0.999999997              -0.000006683               0.000435393               0.999999997              -0.000007990               0.000456553               0.999999997              -0.000009263               0.000478708               0.999999997              -0.000010552               0.000501726               0.999999997              -0.000011458               0.000525363               0.999999997              -0.000011415               0.000549404               0.999999997               0.000000000               0.000320417               0.999999997               0.000000000               0.000320803               0.999999997              -0.000000000               0.000322232               0.999999997               0.000000000               0.000326189               0.999999997              -0.000000000               0.000332853               0.999999997              -0.000000000               0.000341898               0.999999997              -0.000000000               0.000353236               0.999999997              -0.000000000               0.000366804               0.999999997              -0.000000000               0.000382209               0.999999997               0.000000000               0.000399095               0.999999997               0.000000000               0.000417458               0.999999997              -0.000000000               0.000437224               0.999999997              -0.000000000               0.000458244               0.999999997              -0.000000000               0.000480276               0.999999997               0.000000000               0.000503269               0.999999997               0.000000000               0.000527031               0.999999997               0.000000000               0.000551161               0.999999997              -0.000003810               0.000000000               0.999999997              -0.000016624               0.000000000               0.999999997              -0.000023097              -0.000000000               0.999999997              -0.000027076              -0.000000000               0.999999997              -0.000030285              -0.000000000               0.999999997              -0.000033482               0.000000000               0.999999997              -0.000036924              -0.000000000               0.999999997              -0.000040802              -0.000000000               0.999999997              -0.000045143              -0.000000000               0.999999997              -0.000049931              -0.000000000               0.999999997              -0.000055187              -0.000000000               0.999999997              -0.000060921              -0.000000000               0.999999997              -0.000067152               0.000000000               0.999999997              -0.000073895              -0.000000000               0.999999997              -0.000081192              -0.000000000               0.999999997              -0.000089040              -0.000000000               0.999999997              -0.000097428               0.000000000               0.999999997              -0.000003862              -0.000031358               0.999999997              -0.000016195              -0.000028186               0.999999997              -0.000022357              -0.000027462               0.999999997              -0.000026207              -0.000028180               0.999999997              -0.000029378              -0.000029860               0.999999997              -0.000032617              -0.000032072               0.999999997              -0.000036170              -0.000034692               0.999999997              -0.000040125              -0.000037613               0.999999997              -0.000044570              -0.000040732               0.999999997              -0.000049487              -0.000044093               0.999999997              -0.000054904              -0.000047639               0.999999997              -0.000060801              -0.000051314               0.999999997              -0.000067159              -0.000055092               0.999999997              -0.000074002              -0.000059059               0.999999997              -0.000081378              -0.000063046               0.999999997              -0.000089325              -0.000067096               0.999999997              -0.000097841              -0.000071033               0.999999997              -0.000003930              -0.000062407               0.999999997              -0.000014879              -0.000055970               0.999999997              -0.000020257              -0.000054675               0.999999997              -0.000023786              -0.000056279               0.999999997              -0.000026949              -0.000059627               0.999999997              -0.000030281              -0.000064128               0.999999997              -0.000033998              -0.000069399               0.999999997              -0.000038231              -0.000075240               0.999999997              -0.000043049              -0.000081554               0.999999997              -0.000048418              -0.000088261               0.999999997              -0.000054317              -0.000095440               0.999999997              -0.000060667              -0.000102710               0.999999997              -0.000067458              -0.000110277               0.999999997              -0.000074728              -0.000118195               0.999999997              -0.000082526              -0.000126388               0.999999997              -0.000090912              -0.000134709               0.999999997              -0.000099866              -0.000143088               0.999999997              -0.000003987              -0.000092807               0.999999997              -0.000012704              -0.000083108               0.999999997              -0.000017028              -0.000081458               0.999999997              -0.000020171              -0.000084104               0.999999997              -0.000023313              -0.000089272               0.999999997              -0.000026909              -0.000096124               0.999999997              -0.000031081              -0.000104159               0.999999997              -0.000035926              -0.000113067               0.999999997              -0.000041431              -0.000122651               0.999999997              -0.000047471              -0.000132795               0.999999997              -0.000054062              -0.000143462               0.999999997              -0.000061200              -0.000154464               0.999999997              -0.000068825              -0.000165770               0.999999997              -0.000076943              -0.000177647               0.999999997              -0.000085568              -0.000190016               0.999999997              -0.000094710              -0.000202799               0.999999997              -0.000104368              -0.000215794               0.999999997              -0.000004092              -0.000122216               0.999999997              -0.000009810              -0.000109377               0.999999997              -0.000012933              -0.000107669               0.999999997              -0.000015827              -0.000111557               0.999999997              -0.000019189              -0.000118754               0.999999997              -0.000023310              -0.000128083               0.999999997              -0.000028286              -0.000138930               0.999999997              -0.000034020              -0.000150935               0.999999997              -0.000040430              -0.000163722               0.999999997              -0.000047487              -0.000177232               0.999999997              -0.000055138              -0.000191400               0.999999997              -0.000063344              -0.000206052               0.999999997              -0.000072117              -0.000221074               0.999999997              -0.000081380              -0.000236793               0.999999997              -0.000091122              -0.000253310               0.999999997              -0.000101336              -0.000270371               0.999999997              -0.000111930              -0.000287862               0.999999997              -0.000004139              -0.000150383               0.999999997              -0.000006361              -0.000134628               0.999999997              -0.000008408              -0.000133158               0.999999997              -0.000011294              -0.000138496               0.999999997              -0.000015224              -0.000147775               0.999999997              -0.000020199              -0.000159637               0.999999997              -0.000026168              -0.000173357               0.999999997              -0.000032977              -0.000188385               0.999999997              -0.000040591              -0.000204428               0.999999997              -0.000048915              -0.000221267               0.999999997              -0.000057875              -0.000238830               0.999999997              -0.000067428              -0.000257113               0.999999997              -0.000077474              -0.000275939               0.999999997              -0.000088023              -0.000295493               0.999999997              -0.000098995              -0.000316030               0.999999997              -0.000110325              -0.000337278               0.999999997              -0.000121951              -0.000358993               0.999999997              -0.000004087              -0.000177027               0.999999997              -0.000002606              -0.000158805               0.999999997              -0.000003873              -0.000157800               0.999999997              -0.000007119              -0.000164607               0.999999997              -0.000011895              -0.000176032               0.999999997              -0.000017950              -0.000190466               0.999999997              -0.000025148              -0.000207030               0.999999997              -0.000033339              -0.000225097               0.999999997              -0.000042357              -0.000244345               0.999999997              -0.000052094              -0.000264549               0.999999997              -0.000062347              -0.000285568               0.999999997              -0.000073093              -0.000307593               0.999999997              -0.000084350              -0.000330309               0.999999997              -0.000096123              -0.000353887               0.999999997              -0.000108326              -0.000378438               0.999999997              -0.000120826              -0.000403727               0.999999997              -0.000133493              -0.000429347               0.999999997              -0.000004021              -0.000201805               0.999999997               0.000001188              -0.000181822               0.999999997               0.000000316              -0.000181423               0.999999997              -0.000003650              -0.000189748               0.999999997              -0.000009501              -0.000203324               0.999999997              -0.000016850              -0.000220347               0.999999997              -0.000025488              -0.000239750               0.999999997              -0.000035147              -0.000260788               0.999999997              -0.000045546              -0.000283323               0.999999997              -0.000056554              -0.000306998               0.999999997              -0.000068025              -0.000331768               0.999999997              -0.000080074              -0.000357600               0.999999997              -0.000092589              -0.000384404               0.999999997              -0.000105591              -0.000412132               0.999999997              -0.000118893              -0.000440741               0.999999997              -0.000132339              -0.000469810               0.999999997              -0.000145780              -0.000499061               0.999999997              -0.000003998              -0.000224344               0.999999997               0.000004902              -0.000203674               0.999999997               0.000003792              -0.000203839               0.999999997              -0.000001060              -0.000213730               0.999999997              -0.000008091              -0.000229491               0.999999997              -0.000016946              -0.000249078               0.999999997              -0.000027005              -0.000271325               0.999999997              -0.000038044              -0.000295544               0.999999997              -0.000049724              -0.000321460               0.999999997              -0.000061913              -0.000348800               0.999999997              -0.000074669              -0.000377504               0.999999997              -0.000087818              -0.000407498               0.999999997              -0.000101367              -0.000438582               0.999999997              -0.000115279              -0.000470525               0.999999997              -0.000129338              -0.000503019               0.999999997              -0.000143284              -0.000535799               0.999999997              -0.000157220              -0.000568633               0.999999997              -0.000004266              -0.000245404               0.999999997               0.000007294              -0.000226299               0.999999997               0.000007518              -0.000224244               0.999999997               0.000003592              -0.000231567               0.999999997              -0.000002553              -0.000244627               0.999999997              -0.000010387              -0.000261698               0.999999997              -0.000019350              -0.000281579               0.999999997              -0.000029208              -0.000303538               0.999999997              -0.000039704              -0.000327141               0.999999997              -0.000050641              -0.000352182               0.999999997              -0.000061922              -0.000378603               0.999999997              -0.000073421              -0.000406331               0.999999997              -0.000085153              -0.000435209               0.999999997              -0.000097142              -0.000465044               0.999999997              -0.000109376              -0.000495564               0.999999997              -0.000121605              -0.000526541               0.999999997              -0.000133798              -0.000557839               0.999999997              -0.000004256              -0.000264426               0.999999997               0.000008684              -0.000247934               0.999999997               0.000010281              -0.000244884               0.999999997               0.000007416              -0.000250142               0.999999997               0.000002302              -0.000260887               0.999999997              -0.000004352              -0.000275599               0.999999997              -0.000012112              -0.000293243               0.999999997              -0.000020698              -0.000313045               0.999999997              -0.000030020              -0.000334564               0.999999997              -0.000039784              -0.000357414               0.999999997              -0.000049611              -0.000381661               0.999999997              -0.000059478              -0.000407210               0.999999997              -0.000069454              -0.000433930               0.999999997              -0.000079569              -0.000461547               0.999999997              -0.000089801              -0.000489969               0.999999997              -0.000100002              -0.000519013               0.999999997              -0.000110262              -0.000548554               0.999999997              -0.000004029              -0.000281023               0.999999997               0.000009108              -0.000268020               0.999999997               0.000011789              -0.000264946               0.999999997               0.000010015              -0.000268860               0.999999997               0.000006101              -0.000277785               0.999999997               0.000000669              -0.000290543               0.999999997              -0.000005719              -0.000306226               0.999999997              -0.000013026              -0.000324081               0.999999997              -0.000021027              -0.000343698               0.999999997              -0.000029474              -0.000364812               0.999999997              -0.000037854              -0.000387143               0.999999997              -0.000046068              -0.000410725               0.999999997              -0.000054286              -0.000435435               0.999999997              -0.000062472              -0.000461055               0.999999997              -0.000070687              -0.000487434               0.999999997              -0.000078632              -0.000514403               0.999999997              -0.000086317              -0.000542046               0.999999997              -0.000003564              -0.000294938               0.999999997               0.000008596              -0.000285811               0.999999997               0.000011883              -0.000283471               0.999999997               0.000011109              -0.000286808               0.999999997               0.000008308              -0.000294450               0.999999997               0.000004232              -0.000305703               0.999999997              -0.000000815              -0.000319736               0.999999997              -0.000006635              -0.000336023               0.999999997              -0.000013209              -0.000354084               0.999999997              -0.000020189              -0.000373681               0.999999997              -0.000027146              -0.000394557               0.999999997              -0.000033747              -0.000416661               0.999999997              -0.000040157              -0.000439812               0.999999997              -0.000046592              -0.000463844               0.999999997              -0.000052715              -0.000488579               0.999999997              -0.000058211              -0.000513932               0.999999997              -0.000062999              -0.000539879               0.999999997              -0.000002891              -0.000305944               0.999999997               0.000007261              -0.000300590               0.999999997               0.000010525              -0.000299446               0.999999997               0.000010455              -0.000302678               0.999999997               0.000008673              -0.000309680               0.999999997               0.000005886              -0.000319836               0.999999997               0.000002203              -0.000332737               0.999999997              -0.000002107              -0.000347733               0.999999997              -0.000007126              -0.000364472               0.999999997              -0.000012587              -0.000382844               0.999999997              -0.000018031              -0.000402645               0.999999997              -0.000023081              -0.000423661               0.999999997              -0.000027850              -0.000445661               0.999999997              -0.000032398              -0.000468630               0.999999997              -0.000036590              -0.000492340               0.999999997              -0.000039972              -0.000516668               0.999999997              -0.000042260              -0.000541522               0.999999997              -0.000002048              -0.000313943               0.999999997               0.000005219              -0.000311621               0.999999997               0.000007853              -0.000311795               0.999999997               0.000008141              -0.000315311               0.999999997               0.000007119              -0.000322008               0.999999997               0.000005417              -0.000331519               0.999999997               0.000003052              -0.000343555               0.999999997               0.000000146              -0.000357608               0.999999997              -0.000003189              -0.000373478               0.999999997              -0.000006831              -0.000391021               0.999999997              -0.000010628              -0.000410080               0.999999997              -0.000014222              -0.000430408               0.999999997              -0.000017245              -0.000451837               0.999999997              -0.000019910              -0.000474268               0.999999997              -0.000022460              -0.000497463               0.999999997              -0.000024370              -0.000521186               0.999999997              -0.000025025              -0.000545387               0.999999997              -0.000001061              -0.000318830               0.999999997               0.000002711              -0.000318493               0.999999997               0.000004194              -0.000319560               0.999999997               0.000004424              -0.000323377               0.999999997               0.000003973              -0.000330022               0.999999997               0.000003178              -0.000339216               0.999999997               0.000002050              -0.000350741               0.999999997               0.000000587              -0.000364342               0.999999997              -0.000001065              -0.000379823               0.999999997              -0.000002823              -0.000396899               0.999999997              -0.000004842              -0.000415460               0.999999997              -0.000006683              -0.000435393               0.999999997              -0.000007990              -0.000456553               0.999999997              -0.000009263              -0.000478708               0.999999997              -0.000010552              -0.000501726               0.999999997              -0.000011458              -0.000525363               0.999999997              -0.000011415              -0.000549404               0.999999997              -0.000000000              -0.000320417               0.999999997              -0.000000000              -0.000320803               0.999999997              -0.000000000              -0.000322232               0.999999997               0.000000000              -0.000326189               0.999999997               0.000000000              -0.000332853               0.999999997              -0.000000000              -0.000341898               0.999999997              -0.000000000              -0.000353236               0.999999997              -0.000000000              -0.000366804               0.999999997              -0.000000000              -0.000382209               0.999999997              -0.000000000              -0.000399095               0.999999997              -0.000000000              -0.000417458               0.999999997              -0.000000000              -0.000437224               0.999999997               0.000000000              -0.000458244               0.999999997               0.000000000              -0.000480276               0.999999997              -0.000000000              -0.000503269               0.999999997               0.000000000              -0.000527031               0.999999997               0.000000000              -0.000551161               0.999999997               0.000003810               0.000000000               0.999999997               0.000016624              -0.000000000               0.999999997               0.000023097              -0.000000000               0.999999997               0.000027076              -0.000000000               0.999999997               0.000030285               0.000000000               0.999999997               0.000033482              -0.000000000               0.999999997               0.000036924              -0.000000000               0.999999997               0.000040802               0.000000000               0.999999997               0.000045143               0.000000000               0.999999997               0.000049931               0.000000000               0.999999997               0.000055187               0.000000000               0.999999997               0.000060921               0.000000000               0.999999997               0.000067152               0.000000000               0.999999997               0.000073895               0.000000000               0.999999997               0.000081192               0.000000000               0.999999997               0.000089040               0.000000000               0.999999997               0.000097428               0.000000000               0.999999997               0.000003862              -0.000031358               0.999999997               0.000016195              -0.000028186               0.999999997               0.000022357              -0.000027462               0.999999997               0.000026207              -0.000028180               0.999999997               0.000029378              -0.000029860               0.999999997               0.000032617              -0.000032072               0.999999997               0.000036170              -0.000034692               0.999999997               0.000040125              -0.000037613               0.999999997               0.000044570              -0.000040732               0.999999997               0.000049487              -0.000044093               0.999999997               0.000054904              -0.000047639               0.999999997               0.000060801              -0.000051314               0.999999997               0.000067159              -0.000055092               0.999999997               0.000074002              -0.000059059               0.999999997               0.000081378              -0.000063046               0.999999997               0.000089325              -0.000067096               0.999999997               0.000097841              -0.000071033               0.999999997               0.000003930              -0.000062407               0.999999997               0.000014879              -0.000055970               0.999999997               0.000020257              -0.000054675               0.999999997               0.000023786              -0.000056279               0.999999997               0.000026949              -0.000059627               0.999999997               0.000030281              -0.000064128               0.999999997               0.000033998              -0.000069399               0.999999997               0.000038231              -0.000075240               0.999999997               0.000043049              -0.000081554               0.999999997               0.000048418              -0.000088261               0.999999997               0.000054317              -0.000095440               0.999999997               0.000060667              -0.000102710               0.999999997               0.000067458              -0.000110277               0.999999997               0.000074728              -0.000118195               0.999999997               0.000082526              -0.000126388               0.999999997               0.000090912              -0.000134709               0.999999997               0.000099866              -0.000143088               0.999999997               0.000003987              -0.000092807               0.999999997               0.000012704              -0.000083108               0.999999997               0.000017028              -0.000081458               0.999999997               0.000020171              -0.000084104               0.999999997               0.000023313              -0.000089272               0.999999997               0.000026909              -0.000096124               0.999999997               0.000031081              -0.000104159               0.999999997               0.000035926              -0.000113067               0.999999997               0.000041431              -0.000122651               0.999999997               0.000047471              -0.000132795               0.999999997               0.000054062              -0.000143462               0.999999997               0.000061200              -0.000154464               0.999999997               0.000068825              -0.000165770               0.999999997               0.000076943              -0.000177647               0.999999997               0.000085568              -0.000190016               0.999999997               0.000094710              -0.000202799               0.999999997               0.000104368              -0.000215794               0.999999997               0.000004092              -0.000122216               0.999999997               0.000009810              -0.000109377               0.999999997               0.000012933              -0.000107669               0.999999997               0.000015827              -0.000111557               0.999999997               0.000019189              -0.000118754               0.999999997               0.000023310              -0.000128083               0.999999997               0.000028286              -0.000138930               0.999999997               0.000034020              -0.000150935               0.999999997               0.000040430              -0.000163722               0.999999997               0.000047487              -0.000177232               0.999999997               0.000055138              -0.000191400               0.999999997               0.000063344              -0.000206052               0.999999997               0.000072117              -0.000221074               0.999999997               0.000081380              -0.000236793               0.999999997               0.000091122              -0.000253310               0.999999997               0.000101336              -0.000270371               0.999999997               0.000111930              -0.000287862               0.999999997               0.000004139              -0.000150383               0.999999997               0.000006361              -0.000134628               0.999999997               0.000008408              -0.000133158               0.999999997               0.000011294              -0.000138496               0.999999997               0.000015224              -0.000147775               0.999999997               0.000020199              -0.000159637               0.999999997               0.000026168              -0.000173357               0.999999997               0.000032977              -0.000188385               0.999999997               0.000040591              -0.000204428               0.999999997               0.000048915              -0.000221267               0.999999997               0.000057875              -0.000238830               0.999999997               0.000067428              -0.000257113               0.999999997               0.000077474              -0.000275939               0.999999997               0.000088023              -0.000295493               0.999999997               0.000098995              -0.000316030               0.999999997               0.000110325              -0.000337278               0.999999997               0.000121951              -0.000358993               0.999999997               0.000004087              -0.000177027               0.999999997               0.000002606              -0.000158805               0.999999997               0.000003873              -0.000157800               0.999999997               0.000007119              -0.000164607               0.999999997               0.000011895              -0.000176032               0.999999997               0.000017950              -0.000190466               0.999999997               0.000025148              -0.000207030               0.999999997               0.000033339              -0.000225097               0.999999997               0.000042357              -0.000244345               0.999999997               0.000052094              -0.000264549               0.999999997               0.000062347              -0.000285568               0.999999997               0.000073093              -0.000307593               0.999999997               0.000084350              -0.000330309               0.999999997               0.000096123              -0.000353887               0.999999997               0.000108326              -0.000378438               0.999999997               0.000120826              -0.000403727               0.999999997               0.000133493              -0.000429347               0.999999997               0.000004021              -0.000201805               0.999999997              -0.000001188              -0.000181822               0.999999997              -0.000000316              -0.000181423               0.999999997               0.000003650              -0.000189748               0.999999997               0.000009501              -0.000203324               0.999999997               0.000016850              -0.000220347               0.999999997               0.000025488              -0.000239750               0.999999997               0.000035147              -0.000260788               0.999999997               0.000045546              -0.000283323               0.999999997               0.000056554              -0.000306998               0.999999997               0.000068025              -0.000331768               0.999999997               0.000080074              -0.000357600               0.999999997               0.000092589              -0.000384404               0.999999997               0.000105591              -0.000412132               0.999999997               0.000118893              -0.000440741               0.999999997               0.000132339              -0.000469810               0.999999997               0.000145780              -0.000499061               0.999999997               0.000003998              -0.000224344               0.999999997              -0.000004902              -0.000203674               0.999999997              -0.000003792              -0.000203839               0.999999997               0.000001060              -0.000213730               0.999999997               0.000008091              -0.000229491               0.999999997               0.000016946              -0.000249078               0.999999997               0.000027005              -0.000271325               0.999999997               0.000038044              -0.000295544               0.999999997               0.000049724              -0.000321460               0.999999997               0.000061913              -0.000348800               0.999999997               0.000074669              -0.000377504               0.999999997               0.000087818              -0.000407498               0.999999997               0.000101367              -0.000438582               0.999999997               0.000115279              -0.000470525               0.999999997               0.000129338              -0.000503019               0.999999997               0.000143284              -0.000535799               0.999999997               0.000157220              -0.000568633               0.999999997               0.000004266              -0.000245404               0.999999997              -0.000007294              -0.000226299               0.999999997              -0.000007518              -0.000224244               0.999999997              -0.000003592              -0.000231567               0.999999997               0.000002553              -0.000244627               0.999999997               0.000010387              -0.000261698               0.999999997               0.000019350              -0.000281579               0.999999997               0.000029208              -0.000303538               0.999999997               0.000039704              -0.000327141               0.999999997               0.000050641              -0.000352182               0.999999997               0.000061922              -0.000378603               0.999999997               0.000073421              -0.000406331               0.999999997               0.000085153              -0.000435209               0.999999997               0.000097142              -0.000465044               0.999999997               0.000109376              -0.000495564               0.999999997               0.000121605              -0.000526541               0.999999997               0.000133798              -0.000557839               0.999999997               0.000004256              -0.000264426               0.999999997              -0.000008684              -0.000247934               0.999999997              -0.000010281              -0.000244884               0.999999997              -0.000007416              -0.000250142               0.999999997              -0.000002302              -0.000260887               0.999999997               0.000004352              -0.000275599               0.999999997               0.000012112              -0.000293243               0.999999997               0.000020698              -0.000313045               0.999999997               0.000030020              -0.000334564               0.999999997               0.000039784              -0.000357414               0.999999997               0.000049611              -0.000381661               0.999999997               0.000059478              -0.000407210               0.999999997               0.000069454              -0.000433930               0.999999997               0.000079569              -0.000461547               0.999999997               0.000089801              -0.000489969               0.999999997               0.000100002              -0.000519013               0.999999997               0.000110262              -0.000548554               0.999999997               0.000004029              -0.000281023               0.999999997              -0.000009108              -0.000268020               0.999999997              -0.000011789              -0.000264946               0.999999997              -0.000010015              -0.000268860               0.999999997              -0.000006101              -0.000277785               0.999999997              -0.000000669              -0.000290543               0.999999997               0.000005719              -0.000306226               0.999999997               0.000013026              -0.000324081               0.999999997               0.000021027              -0.000343698               0.999999997               0.000029474              -0.000364812               0.999999997               0.000037854              -0.000387143               0.999999997               0.000046068              -0.000410725               0.999999997               0.000054286              -0.000435435               0.999999997               0.000062472              -0.000461055               0.999999997               0.000070687              -0.000487434               0.999999997               0.000078632              -0.000514403               0.999999997               0.000086317              -0.000542046               0.999999997               0.000003564              -0.000294938               0.999999997              -0.000008596              -0.000285811               0.999999997              -0.000011883              -0.000283471               0.999999997              -0.000011109              -0.000286808               0.999999997              -0.000008308              -0.000294450               0.999999997              -0.000004232              -0.000305703               0.999999997               0.000000815              -0.000319736               0.999999997               0.000006635              -0.000336023               0.999999997               0.000013209              -0.000354084               0.999999997               0.000020189              -0.000373681               0.999999997               0.000027146              -0.000394557               0.999999997               0.000033747              -0.000416661               0.999999997               0.000040157              -0.000439812               0.999999997               0.000046592              -0.000463844               0.999999997               0.000052715              -0.000488579               0.999999997               0.000058211              -0.000513932               0.999999997               0.000062999              -0.000539879               0.999999997               0.000002891              -0.000305944               0.999999997              -0.000007261              -0.000300590               0.999999997              -0.000010525              -0.000299446               0.999999997              -0.000010455              -0.000302678               0.999999997              -0.000008673              -0.000309680               0.999999997              -0.000005886              -0.000319836               0.999999997              -0.000002203              -0.000332737               0.999999997               0.000002107              -0.000347733               0.999999997               0.000007126              -0.000364472               0.999999997               0.000012587              -0.000382844               0.999999997               0.000018031              -0.000402645               0.999999997               0.000023081              -0.000423661               0.999999997               0.000027850              -0.000445661               0.999999997               0.000032398              -0.000468630               0.999999997               0.000036590              -0.000492340               0.999999997               0.000039972              -0.000516668               0.999999997               0.000042260              -0.000541522               0.999999997               0.000002048              -0.000313943               0.999999997              -0.000005219              -0.000311621               0.999999997              -0.000007853              -0.000311795               0.999999997              -0.000008141              -0.000315311               0.999999997              -0.000007119              -0.000322008               0.999999997              -0.000005417              -0.000331519               0.999999997              -0.000003052              -0.000343555               0.999999997              -0.000000146              -0.000357608               0.999999997               0.000003189              -0.000373478               0.999999997               0.000006831              -0.000391021               0.999999997               0.000010628              -0.000410080               0.999999997               0.000014222              -0.000430408               0.999999997               0.000017245              -0.000451837               0.999999997               0.000019910              -0.000474268               0.999999997               0.000022460              -0.000497463               0.999999997               0.000024370              -0.000521186               0.999999997               0.000025025              -0.000545387               0.999999997               0.000001061              -0.000318830               0.999999997              -0.000002711              -0.000318493               0.999999997              -0.000004194              -0.000319560               0.999999997              -0.000004424              -0.000323377               0.999999997              -0.000003973              -0.000330022               0.999999997              -0.000003178              -0.000339216               0.999999997              -0.000002050              -0.000350741               0.999999997              -0.000000587              -0.000364342               0.999999997               0.000001065              -0.000379823               0.999999997               0.000002823              -0.000396899               0.999999997               0.000004842              -0.000415460               0.999999997               0.000006683              -0.000435393               0.999999997               0.000007990              -0.000456553               0.999999997               0.000009263              -0.000478708               0.999999997               0.000010552              -0.000501726               0.999999997               0.000011458              -0.000525363               0.999999997               0.000011415              -0.000549404               0.999999997              -0.000000000              -0.000320417               0.999999997              -0.000000000              -0.000320803               0.999999997              -0.000000000              -0.000322232               0.999999997               0.000000000              -0.000326189               0.999999997               0.000000000              -0.000332853               0.999999997              -0.000000000              -0.000341898               0.999999997              -0.000000000              -0.000353236               0.999999997              -0.000000000              -0.000366804               0.999999997              -0.000000000              -0.000382209               0.999999997              -0.000000000              -0.000399095               0.999999997              -0.000000000              -0.000417458               0.999999997              -0.000000000              -0.000437224               0.999999997               0.000000000              -0.000458244               0.999999997               0.000000000              -0.000480276               0.999999997              -0.000000000              -0.000503269               0.999999997               0.000000000              -0.000527031               0.999999997               0.000000000              -0.000551161               0.999999997               0.000003810               0.000000000               0.999999997               0.000016624              -0.000000000               0.999999997               0.000023097              -0.000000000               0.999999997               0.000027076              -0.000000000               0.999999997               0.000030285               0.000000000               0.999999997               0.000033482              -0.000000000               0.999999997               0.000036924              -0.000000000               0.999999997               0.000040802               0.000000000               0.999999997               0.000045143               0.000000000               0.999999997               0.000049931               0.000000000               0.999999997               0.000055187               0.000000000               0.999999997               0.000060921               0.000000000               0.999999997               0.000067152               0.000000000               0.999999997               0.000073895               0.000000000               0.999999997               0.000081192               0.000000000               0.999999997               0.000089040               0.000000000               0.999999997               0.000097428               0.000000000               0.999999997               0.000003862               0.000031358               0.999999997               0.000016195               0.000028186               0.999999997               0.000022357               0.000027462               0.999999997               0.000026207               0.000028180               0.999999997               0.000029378               0.000029860               0.999999997               0.000032617               0.000032072               0.999999997               0.000036170               0.000034692               0.999999997               0.000040125               0.000037613               0.999999997               0.000044570               0.000040732               0.999999997               0.000049487               0.000044093               0.999999997               0.000054904               0.000047639               0.999999997               0.000060801               0.000051314               0.999999997               0.000067159               0.000055092               0.999999997               0.000074002               0.000059059               0.999999997               0.000081378               0.000063046               0.999999997               0.000089325               0.000067096               0.999999997               0.000097841               0.000071033               0.999999997               0.000003930               0.000062407               0.999999997               0.000014879               0.000055970               0.999999997               0.000020257               0.000054675               0.999999997               0.000023786               0.000056279               0.999999997               0.000026949               0.000059627               0.999999997               0.000030281               0.000064128               0.999999997               0.000033998               0.000069399               0.999999997               0.000038231               0.000075240               0.999999997               0.000043049               0.000081554               0.999999997               0.000048418               0.000088261               0.999999997               0.000054317               0.000095440               0.999999997               0.000060667               0.000102710               0.999999997               0.000067458               0.000110277               0.999999997               0.000074728               0.000118195               0.999999997               0.000082526               0.000126388               0.999999997               0.000090912               0.000134709               0.999999997               0.000099866               0.000143088               0.999999997               0.000003987               0.000092807               0.999999997               0.000012704               0.000083108               0.999999997               0.000017028               0.000081458               0.999999997               0.000020171               0.000084104               0.999999997               0.000023313               0.000089272               0.999999997               0.000026909               0.000096124               0.999999997               0.000031081               0.000104159               0.999999997               0.000035926               0.000113067               0.999999997               0.000041431               0.000122651               0.999999997               0.000047471               0.000132795               0.999999997               0.000054062               0.000143462               0.999999997               0.000061200               0.000154464               0.999999997               0.000068825               0.000165770               0.999999997               0.000076943               0.000177647               0.999999997               0.000085568               0.000190016               0.999999997               0.000094710               0.000202799               0.999999997               0.000104368               0.000215794               0.999999997               0.000004092               0.000122216               0.999999997               0.000009810               0.000109377               0.999999997               0.000012933               0.000107669               0.999999997               0.000015827               0.000111557               0.999999997               0.000019189               0.000118754               0.999999997               0.000023310               0.000128083               0.999999997               0.000028286               0.000138930               0.999999997               0.000034020               0.000150935               0.999999997               0.000040430               0.000163722               0.999999997               0.000047487               0.000177232               0.999999997               0.000055138               0.000191400               0.999999997               0.000063344               0.000206052               0.999999997               0.000072117               0.000221074               0.999999997               0.000081380               0.000236793               0.999999997               0.000091122               0.000253310               0.999999997               0.000101336               0.000270371               0.999999997               0.000111930               0.000287862               0.999999997               0.000004139               0.000150383               0.999999997               0.000006361               0.000134628               0.999999997               0.000008408               0.000133158               0.999999997               0.000011294               0.000138496               0.999999997               0.000015224               0.000147775               0.999999997               0.000020199               0.000159637               0.999999997               0.000026168               0.000173357               0.999999997               0.000032977               0.000188385               0.999999997               0.000040591               0.000204428               0.999999997               0.000048915               0.000221267               0.999999997               0.000057875               0.000238830               0.999999997               0.000067428               0.000257113               0.999999997               0.000077474               0.000275939               0.999999997               0.000088023               0.000295493               0.999999997               0.000098995               0.000316030               0.999999997               0.000110325               0.000337278               0.999999997               0.000121951               0.000358993               0.999999997               0.000004087               0.000177027               0.999999997               0.000002606               0.000158805               0.999999997               0.000003873               0.000157800               0.999999997               0.000007119               0.000164607               0.999999997               0.000011895               0.000176032               0.999999997               0.000017950               0.000190466               0.999999997               0.000025148               0.000207030               0.999999997               0.000033339               0.000225097               0.999999997               0.000042357               0.000244345               0.999999997               0.000052094               0.000264549               0.999999997               0.000062347               0.000285568               0.999999997               0.000073093               0.000307593               0.999999997               0.000084350               0.000330309               0.999999997               0.000096123               0.000353887               0.999999997               0.000108326               0.000378438               0.999999997               0.000120826               0.000403727               0.999999997               0.000133493               0.000429347               0.999999997               0.000004021               0.000201805               0.999999997              -0.000001188               0.000181822               0.999999997              -0.000000316               0.000181423               0.999999997               0.000003650               0.000189748               0.999999997               0.000009501               0.000203324               0.999999997               0.000016850               0.000220347               0.999999997               0.000025488               0.000239750               0.999999997               0.000035147               0.000260788               0.999999997               0.000045546               0.000283323               0.999999997               0.000056554               0.000306998               0.999999997               0.000068025               0.000331768               0.999999997               0.000080074               0.000357600               0.999999997               0.000092589               0.000384404               0.999999997               0.000105591               0.000412132               0.999999997               0.000118893               0.000440741               0.999999997               0.000132339               0.000469810               0.999999997               0.000145780               0.000499061               0.999999997               0.000003998               0.000224344               0.999999997              -0.000004902               0.000203674               0.999999997              -0.000003792               0.000203839               0.999999997               0.000001060               0.000213730               0.999999997               0.000008091               0.000229491               0.999999997               0.000016946               0.000249078               0.999999997               0.000027005               0.000271325               0.999999997               0.000038044               0.000295544               0.999999997               0.000049724               0.000321460               0.999999997               0.000061913               0.000348800               0.999999997               0.000074669               0.000377504               0.999999997               0.000087818               0.000407498               0.999999997               0.000101367               0.000438582               0.999999997               0.000115279               0.000470525               0.999999997               0.000129338               0.000503019               0.999999997               0.000143284               0.000535799               0.999999997               0.000157220               0.000568633               0.999999997               0.000004266               0.000245404               0.999999997              -0.000007294               0.000226299               0.999999997              -0.000007518               0.000224244               0.999999997              -0.000003592               0.000231567               0.999999997               0.000002553               0.000244627               0.999999997               0.000010387               0.000261698               0.999999997               0.000019350               0.000281579               0.999999997               0.000029208               0.000303538               0.999999997               0.000039704               0.000327141               0.999999997               0.000050641               0.000352182               0.999999997               0.000061922               0.000378603               0.999999997               0.000073421               0.000406331               0.999999997               0.000085153               0.000435209               0.999999997               0.000097142               0.000465044               0.999999997               0.000109376               0.000495564               0.999999997               0.000121605               0.000526541               0.999999997               0.000133798               0.000557839               0.999999997               0.000004256               0.000264426               0.999999997              -0.000008684               0.000247934               0.999999997              -0.000010281               0.000244884               0.999999997              -0.000007416               0.000250142               0.999999997              -0.000002302               0.000260887               0.999999997               0.000004352               0.000275599               0.999999997               0.000012112               0.000293243               0.999999997               0.000020698               0.000313045               0.999999997               0.000030020               0.000334564               0.999999997               0.000039784               0.000357414               0.999999997               0.000049611               0.000381661               0.999999997               0.000059478               0.000407210               0.999999997               0.000069454               0.000433930               0.999999997               0.000079569               0.000461547               0.999999997               0.000089801               0.000489969               0.999999997               0.000100002               0.000519013               0.999999997               0.000110262               0.000548554               0.999999997               0.000004029               0.000281023               0.999999997              -0.000009108               0.000268020               0.999999997              -0.000011789               0.000264946               0.999999997              -0.000010015               0.000268860               0.999999997              -0.000006101               0.000277785               0.999999997              -0.000000669               0.000290543               0.999999997               0.000005719               0.000306226               0.999999997               0.000013026               0.000324081               0.999999997               0.000021027               0.000343698               0.999999997               0.000029474               0.000364812               0.999999997               0.000037854               0.000387143               0.999999997               0.000046068               0.000410725               0.999999997               0.000054286               0.000435435               0.999999997               0.000062472               0.000461055               0.999999997               0.000070687               0.000487434               0.999999997               0.000078632               0.000514403               0.999999997               0.000086317               0.000542046               0.999999997               0.000003564               0.000294938               0.999999997              -0.000008596               0.000285811               0.999999997              -0.000011883               0.000283471               0.999999997              -0.000011109               0.000286808               0.999999997              -0.000008308               0.000294450               0.999999997              -0.000004232               0.000305703               0.999999997               0.000000815               0.000319736               0.999999997               0.000006635               0.000336023               0.999999997               0.000013209               0.000354084               0.999999997               0.000020189               0.000373681               0.999999997               0.000027146               0.000394557               0.999999997               0.000033747               0.000416661               0.999999997               0.000040157               0.000439812               0.999999997               0.000046592               0.000463844               0.999999997               0.000052715               0.000488579               0.999999997               0.000058211               0.000513932               0.999999997               0.000062999               0.000539879               0.999999997               0.000002891               0.000305944               0.999999997              -0.000007261               0.000300590               0.999999997              -0.000010525               0.000299446               0.999999997              -0.000010455               0.000302678               0.999999997              -0.000008673               0.000309680               0.999999997              -0.000005886               0.000319836               0.999999997              -0.000002203               0.000332737               0.999999997               0.000002107               0.000347733               0.999999997               0.000007126               0.000364472               0.999999997               0.000012587               0.000382844               0.999999997               0.000018031               0.000402645               0.999999997               0.000023081               0.000423661               0.999999997               0.000027850               0.000445661               0.999999997               0.000032398               0.000468630               0.999999997               0.000036590               0.000492340               0.999999997               0.000039972               0.000516668               0.999999997               0.000042260               0.000541522               0.999999997               0.000002048               0.000313943               0.999999997              -0.000005219               0.000311621               0.999999997              -0.000007853               0.000311795               0.999999997              -0.000008141               0.000315311               0.999999997              -0.000007119               0.000322008               0.999999997              -0.000005417               0.000331519               0.999999997              -0.000003052               0.000343555               0.999999997              -0.000000146               0.000357608               0.999999997               0.000003189               0.000373478               0.999999997               0.000006831               0.000391021               0.999999997               0.000010628               0.000410080               0.999999997               0.000014222               0.000430408               0.999999997               0.000017245               0.000451837               0.999999997               0.000019910               0.000474268               0.999999997               0.000022460               0.000497463               0.999999997               0.000024370               0.000521186               0.999999997               0.000025025               0.000545387               0.999999997               0.000001061               0.000318830               0.999999997              -0.000002711               0.000318493               0.999999997              -0.000004194               0.000319560               0.999999997              -0.000004424               0.000323377               0.999999997              -0.000003973               0.000330022               0.999999997              -0.000003178               0.000339216               0.999999997              -0.000002050               0.000350741               0.999999997              -0.000000587               0.000364342               0.999999997               0.000001065               0.000379823               0.999999997               0.000002823               0.000396899               0.999999997               0.000004842               0.000415460               0.999999997               0.000006683               0.000435393               0.999999997               0.000007990               0.000456553               0.999999997               0.000009263               0.000478708               0.999999997               0.000010552               0.000501726               0.999999997               0.000011458               0.000525363               0.999999997               0.000011415               0.000549404               0.999999997               0.000000000               0.000320417               0.999999997               0.000000000               0.000320803               0.999999997              -0.000000000               0.000322232               0.999999997               0.000000000               0.000326189               0.999999997              -0.000000000               0.000332853               0.999999997              -0.000000000               0.000341898               0.999999997              -0.000000000               0.000353236               0.999999997              -0.000000000               0.000366804               0.999999997              -0.000000000               0.000382209               0.999999997               0.000000000               0.000399095               0.999999997               0.000000000               0.000417458               0.999999997              -0.000000000               0.000437224               0.999999997              -0.000000000               0.000458244               0.999999997              -0.000000000               0.000480276               0.999999997               0.000000000               0.000503269               0.999999997               0.000000000               0.000527031               0.999999997               0.000000000               0.000551161               0.999999997 </DataArray>
<DataArray type="Float64"                                    Name="defo"                                                      NumberOfComponents=" 3" format="ascii">
             -0.000003810               0.000000000               0.999999997              -0.000016624               0.000000000               0.999999997              -0.000023097              -0.000000000               0.999999997              -0.000027076              -0.000000000               0.999999997              -0.000030285              -0.000000000               0.999999997              -0.000033482               0.000000000               0.999999997              -0.000036924              -0.000000000               0.999999997              -0.000040802              -0.000000000               0.999999997              -0.000045143              -0.000000000               0.999999997              -0.000049931              -0.000000000               0.999999997              -0.000055187              -0.000000000               0.999999997              -0.000060921              -0.000000000               0.999999997              -0.000067152               0.000000000               0.999999997              -0.000073895              -0.000000000               0.999999997              -0.000081192              -0.000000000               0.999999997              -0.000089040              -0.000000000               0.999999997              -0.000097428               0.000000000               0.999999997              -0.000003862               0.000031358               0.999999997              -0.000016195               0.000028186               0.999999997              -0.000022357               0.000027462               0.999999997              -0.000026207               0.000028180               0.999999997              -0.000029378               0.000029860               0.999999997              -0.000032617               0.000032072               0.999999997              -0.000036170               0.000034692               0.999999997              -0.000040125               0.000037613               0.999999997              -0.000044570               0.000040732               0.999999997              -0.000049487               0.000044093               0.999999997              -0.000054904               0.000047639               0.999999997              -0.000060801               0.000051314               0.999999997              -0.000067159               0.000055092               0.999999997              -0.000074002               0.000059059               0.999999997              -0.000081378               0.000063046               0.999999997              -0.000089325               0.000067096               0.999999997              -0.000097841               0.000071033               0.999999997              -0.000003930               0.000062407               0.999999997              -0.000014879               0.000055970               0.999999997              -0.000020257               0.000054675               0.999999997              -0.000023786               0.000056279               0.999999997              -0.000026949               0.000059627               0.999999997              -0.000030281               0.000064128               0.999999997              -0.000033998               0.000069399               0.999999997              -0.000038231               0.000075240               0.999999997              -0.000043049               0.000081554               0.999999997              -0.000048418               0.000088261               0.999999997              -0.000054317               0.000095440               0.999999997              -0.000060667               0.000102710               0.999999997              -0.000067458               0.000110277               0.999999997              -0.000074728               0.000118195               0.999999997              -0.000082526               0.000126388               0.999999997              -0.000090912               0.000134709               0.999999997              -0.000099866               0.000143088               0.999999997              -0.000003987               0.000092807               0.999999997              -0.000012704               0.000083108               0.999999997              -0.000017028               0.000081458               0.999999997              -0.000020171               0.000084104               0.999999997              -0.000023313               0.000089272               0.999999997              -0.000026909               0.000096124               0.999999997              -0.000031081               0.000104159               0.999999997              -0.000035926               0.000113067               0.999999997              -0.000041431               0.000122651               0.999999997              -0.000047471               0.000132795               0.999999997              -0.000054062               0.000143462               0.999999997              -0.000061200               0.000154464               0.999999997              -0.000068825               0.000165770               0.999999997              -0.000076943               0.000177647               0.999999997              -0.000085568               0.000190016               0.999999997              -0.000094710               0.000202799               0.999999997              -0.000104368               0.000215794               0.999999997              -0.000004092               0.000122216               0.999999997              -0.000009810               0.000109377               0.999999997              -0.000012933               0.000107669               0.999999997              -0.000015827               0.000111557               0.999999997              -0.000019189               0.000118754               0.999999997              -0.000023310               0.000128083               0.999999997              -0.000028286               0.000138930               0.999999997              -0.000034020               0.000150935               0.999999997              -0.000040430               0.000163722               0.999999997              -0.000047487               0.000177232               0.999999997              -0.000055138               0.000191400               0.999999997              -0.000063344               0.000206052               0.999999997              -0.000072117               0.000221074               0.999999997              -0.000081380               0.000236793               0.999999997              -0.000091122               0.000253310               0.999999997              -0.000101336               0.000270371               0.999999997              -0.000111930               0.000287862               0.999999997              -0.000004139               0.000150383               0.999999997              -0.000006361               0.000134628               0.999999997              -0.000008408               0.000133158               0.999999997              -0.000011294               0.000138496               0.999999997              -0.000015224               0.000147775               0.999999997              -0.000020199               0.000159637               0.999999997              -0.000026168               0.000173357               0.999999997              -0.000032977               0.000188385               0.999999997              -0.000040591               0.000204428               0.999999997              -0.000048915               0.000221267               0.999999997              -0.000057875               0.000238830               0.999999997              -0.000067428               0.000257113               0.999999997              -0.000077474               0.000275939               0.999999997              -0.000088023               0.000295493               0.999999997              -0.000098995               0.000316030               0.999999997              -0.000110325               0.000337278               0.999999997              -0.000121951               0.000358993               0.999999997              -0.000004087               0.000177027               0.999999997              -0.000002606               0.000158805               0.999999997              -0.000003873               0.000157800               0.999999997              -0.000007119               0.000164607               0.999999997              -0.000011895               0.000176032               0.999999997              -0.000017950               0.000190466               0.999999997              -0.000025148               0.000207030               0.999999997              -0.000033339               0.000225097               0.999999997              -0.000042357               0.000244345               0.999999997              -0.000052094               0.000264549               0.999999997              -0.000062347               0.000285568               0.999999997              -0.000073093               0.000307593               0.999999997              -0.000084350               0.000330309               0.999999997              -0.000096123               0.000353887               0.999999997              -0.000108326               0.000378438               0.999999997              -0.000120826               0.000403727               0.999999997              -0.000133493               0.000429347               0.999999997              -0.000004021               0.000201805               0.999999997               0.000001188               0.000181822               0.999999997               0.000000316               0.000181423               0.999999997              -0.000003650               0.000189748               0.999999997              -0.000009501               0.000203324               0.999999997              -0.000016850               0.000220347               0.999999997              -0.000025488               0.000239750               0.999999997              -0.000035147               0.000260788               0.999999997              -0.000045546               0.000283323               0.999999997              -0.000056554               0.000306998               0.999999997              -0.000068025               0.000331768               0.999999997              -0.000080074               0.000357600               0.999999997              -0.000092589               0.000384404               0.999999997              -0.000105591               0.000412132               0.999999997              -0.000118893               0.000440741               0.999999997              -0.000132339               0.000469810               0.999999997              -0.000145780               0.000499061               0.999999997              -0.000003998               0.000224344               0.999999997               0.000004902               0.000203674               0.999999997               0.000003792               0.000203839               0.999999997              -0.000001060               0.000213730               0.999999997              -0.000008091               0.000229491               0.999999997              -0.000016946               0.000249078               0.999999997              -0.000027005               0.000271325               0.999999997              -0.000038044               0.000295544               0.999999997              -0.000049724               0.000321460               0.999999997              -0.000061913               0.000348800               0.999999997              -0.000074669               0.000377504               0.999999997              -0.000087818               0.000407498               0.999999997              -0.000101367               0.000438582               0.999999997              -0.000115279               0.000470525               0.999999997              -0.000129338               0.000503019               0.999999997              -0.000143284               0.000535799               0.999999997              -0.000157220               0.000568633               0.999999997              -0.000004266               0.000245404               0.999999997               0.000007294               0.000226299               0.999999997               0.000007518               0.000224244               0.999999997               0.000003592               0.000231567               0.999999997              -0.000002553               0.000244627               0.999999997              -0.000010387               0.000261698               0.999999997              -0.000019350               0.000281579               0.999999997              -0.000029208               0.000303538               0.999999997              -0.000039704               0.000327141               0.999999997              -0.000050641               0.000352182               0.999999997              -0.000061922               0.000378603               0.999999997              -0.000073421               0.000406331               0.999999997              -0.000085153               0.000435209               0.999999997              -0.000097142               0.000465044               0.999999997              -0.000109376               0.000495564               0.999999997              -0.000121605               0.000526541               0.999999997              -0.000133798               0.000557839               0.999999997              -0.000004256               0.000264426               0.999999997               0.000008684               0.000247934               0.999999997               0.000010281               0.000244884               0.999999997               0.000007416               0.000250142               0.999999997               0.000002302               0.000260887               0.999999997              -0.000004352               0.000275599               0.999999997              -0.000012112               0.000293243               0.999999997              -0.000020698               0.000313045               0.999999997              -0.000030020               0.000334564               0.999999997              -0.000039784               0.000357414               0.999999997              -0.000049611               0.000381661               0.999999997              -0.000059478               0.000407210               0.999999997              -0.000069454               0.000433930               0.999999997              -0.000079569               0.000461547               0.999999997              -0.000089801               0.000489969               0.999999997              -0.000100002               0.000519013               0.999999997              -0.000110262               0.000548554               0.999999997              -0.000004029               0.000281023               0.999999997               0.000009108               0.000268020               0.999999997               0.000011789               0.000264946               0.999999997               0.000010015               0.000268860               0.999999997               0.000006101               0.000277785               0.999999997               0.000000669               0.000290543               0.999999997              -0.000005719               0.000306226               0.999999997              -0.000013026               0.000324081               0.999999997              -0.000021027               0.000343698               0.999999997              -0.000029474               0.000364812               0.999999997              -0.000037854               0.000387143               0.999999997              -0.000046068               0.000410725               0.999999997              -0.000054286               0.000435435               0.999999997              -0.000062472               0.000461055               0.999999997              -0.000070687               0.000487434               0.999999997              -0.000078632               0.000514403               0.999999997              -0.000086317               0.000542046               0.999999997              -0.000003564               0.000294938               0.999999997               0.000008596               0.000285811               0.999999997               0.000011883               0.000283471               0.999999997               0.000011109               0.000286808               0.999999997               0.000008308               0.000294450               0.999999997               0.000004232               0.000305703               0.999999997              -0.000000815               0.000319736               0.999999997              -0.000006635               0.000336023               0.999999997              -0.000013209               0.000354084               0.999999997              -0.000020189               0.000373681               0.999999997              -0.000027146               0.000394557               0.999999997              -0.000033747               0.000416661               0.999999997              -0.000040157               0.000439812               0.999999997              -0.000046592               0.000463844               0.999999997              -0.000052715               0.000488579               0.999999997              -0.000058211               0.000513932               0.999999997              -0.000062999               0.000539879               0.999999997              -0.000002891               0.000305944               0.999999997               0.000007261               0.000300590               0.999999997               0.000010525               0.000299446               0.999999997               0.000010455               0.000302678               0.999999997               0.000008673               0.000309680               0.999999997               0.000005886               0.000319836               0.999999997               0.000002203               0.000332737               0.999999997              -0.000002107               0.000347733               0.999999997              -0.000007126               0.000364472               0.999999997              -0.000012587               0.000382844               0.999999997              -0.000018031               0.000402645               0.999999997              -0.000023081               0.000423661               0.999999997              -0.000027850               0.000445661               0.999999997              -0.000032398               0.000468630               0.999999997              -0.000036590               0.000492340               0.999999997              -0.000039972               0.000516668               0.999999997              -0.000042260               0.000541522               0.999999997              -0.000002048               0.000313943               0.999999997               0.000005219               0.000311621               0.999999997               0.000007853               0.000311795               0.999999997               0.000008141               0.000315311               0.999999997               0.000007119               0.000322008               0.999999997               0.000005417               0.000331519               0.999999997               0.000003052               0.000343555               0.999999997               0.000000146               0.000357608               0.999999997              -0.000003189               0.000373478               0.999999997              -0.000006831               0.000391021               0.999999997              -0.000010628               0.000410080               0.999999997              -0.000014222               0.000430408               0.999999997              -0.000017245               0.000451837               0.999999997              -0.000019910               0.000474268               0.999999997              -0.000022460               0.000497463               0.999999997              -0.000024370               0.000521186               0.999999997              -0.000025025               0.000545387               0.999999997              -0.000001061               0.000318830               0.999999997               0.000002711               0.000318493               0.999999997               0.000004194               0.000319560               0.999999997               0.000004424               0.000323377               0.999999997               0.000003973               0.000330022               0.999999997               0.000003178               0.000339216               0.999999997               0.000002050               0.000350741               0.999999997               0.000000587               0.000364342               0.999999997              -0.000001065               0.000379823               0.999999997              -0.000002823               0.000396899               0.999999997              -0.000004842               0.000415460               0.999999997              -0.000006683               0.000435393               0.999999997              -0.000007990               0.000456553               0.999999997              -0.000009263               0.000478708               0.999999997              -0.000010552               0.000501726               0.999999997              -0.000011458               0.000525363               0.999999997              -0.000011415               0.000549404               0.999999997               0.000000000               0.000320417               0.999999997               0.000000000               0.000320803               0.999999997              -0.000000000               0.000322232               0.999999997               0.000000000               0.000326189               0.999999997              -0.000000000               0.000332853               0.999999997              -0.000000000               0.000341898               0.999999997              -0.000000000               0.000353236               0.999999997              -0.000000000               0.000366804               0.999999997              -0.000000000               0.000382209               0.999999997               0.000000000               0.000399095               0.999999997               0.000000000               0.000417458               0.999999997              -0.000000000               0.000437224               0.999999997              -0.000000000               0.000458244               0.999999997              -0.000000000               0.000480276               0.999999997               0.000000000               0.000503269               0.999999997               0.000000000               0.000527031               0.999999997               0.000000000               0.000551161               0.999999997              -0.000003810               0.000000000               0.999999997              -0.000016624               0.000000000               0.999999997              -0.000023097              -0.000000000               0.999999997              -0.000027076              -0.000000000               0.999999997              -0.000030285              -0.000000000               0.999999997              -0.000033482               0.000000000               0.999999997              -0.000036924              -0.000000000               0.999999997              -0.000040802              -0.000000000               0.999999997              -0.000045143              -0.000000000               0.999999997              -0.000049931              -0.000000000               0.999999997              -0.000055187              -0.000000000               0.999999997              -0.000060921              -0.000000000               0.999999997              -0.000067152               0.000000000               0.999999997              -0.000073895              -0.000000000               0.999999997              -0.000081192              -0.000000000               0.999999997              -0.000089040              -0.000000000               0.999999997              -0.000097428               0.000000000               0.999999997              -0.000003862              -0.000031358               0.999999997              -0.000016195              -0.000028186               0.999999997              -0.000022357              -0.000027462               0.999999997              -0.000026207              -0.000028180               0.999999997              -0.000029378              -0.000029860               0.999999997              -0.000032617              -0.000032072               0.999999997              -0.000036170              -0.000034692               0.999999997              -0.000040125              -0.000037613               0.999999997              -0.000044570              -0.000040732               0.999999997              -0.000049487              -0.000044093               0.999999997              -0.000054904              -0.000047639               0.999999997              -0.000060801              -0.000051314               0.999999997              -0.000067159              -0.000055092               0.999999997              -0.000074002              -0.000059059               0.999999997              -0.000081378              -0.000063046               0.999999997              -0.000089325              -0.000067096               0.999999997              -0.000097841              -0.000071033               0.999999997              -0.000003930              -0.000062407               0.999999997              -0.000014879              -0.000055970               0.999999997              -0.000020257              -0.000054675               0.999999997              -0.000023786              -0.000056279               0.999999997              -0.000026949              -0.000059627               0.999999997              -0.000030281              -0.000064128               0.999999997              -0.000033998              -0.000069399               0.999999997              -0.000038231              -0.000075240               0.999999997              -0.000043049              -0.000081554               0.999999997              -0.000048418              -0.000088261               0.999999997              -0.000054317              -0.000095440               0.999999997              -0.000060667              -0.000102710               0.999999997              -0.000067458              -0.000110277               0.999999997              -0.000074728              -0.000118195               0.999999997              -0.000082526              -0.000126388               0.999999997              -0.000090912              -0.000134709               0.999999997              -0.000099866              -0.000143088               0.999999997              -0.000003987              -0.000092807               0.999999997              -0.000012704              -0.000083108               0.999999997              -0.000017028              -0.000081458               0.999999997              -0.000020171              -0.000084104               0.999999997              -0.000023313              -0.000089272               0.999999997              -0.000026909              -0.000096124               0.999999997              -0.000031081              -0.000104159               0.999999997              -0.000035926              -0.000113067               0.999999997              -0.000041431              -0.000122651               0.999999997              -0.000047471              -0.000132795               0.999999997              -0.000054062              -0.000143462               0.999999997              -0.000061200              -0.000154464               0.999999997              -0.000068825              -0.000165770               0.999999997              -0.000076943              -0.000177647               0.999999997              -0.000085568              -0.000190016               0.999999997              -0.000094710              -0.000202799               0.999999997              -0.000104368              -0.000215794               0.999999997              -0.000004092              -0.000122216               0.999999997              -0.000009810              -0.000109377               0.999999997              -0.000012933              -0.000107669               0.999999997              -0.000015827              -0.000111557               0.999999997              -0.000019189              -0.000118754               0.999999997              -0.000023310              -0.000128083               0.999999997              -0.000028286              -0.000138930               0.999999997              -0.000034020              -0.000150935               0.999999997              -0.000040430              -0.000163722               0.999999997              -0.000047487              -0.000177232               0.999999997              -0.000055138              -0.000191400               0.999999997              -0.000063344              -0.000206052               0.999999997              -0.000072117              -0.000221074               0.999999997              -0.000081380              -0.000236793               0.999999997              -0.000091122              -0.000253310               0.999999997              -0.000101336              -0.000270371               0.999999997              -0.000111930              -0.000287862               0.999999997              -0.000004139              -0.000150383               0.999999997              -0.000006361              -0.000134628               0.999999997              -0.000008408              -0.000133158               0.999999997              -0.000011294              -0.000138496               0.999999997              -0.000015224              -0.000147775               0.999999997              -0.000020199              -0.000159637               0.999999997              -0.000026168              -0.000173357               0.999999997              -0.000032977              -0.000188385               0.999999997              -0.000040591              -0.000204428               0.999999997              -0.000048915              -0.000221267               0.999999997              -0.000057875              -0.000238830               0.999999997              -0.000067428              -0.000257113               0.999999997              -0.000077474              -0.000275939               0.999999997              -0.000088023              -0.000295493               0.999999997              -0.000098995              -0.000316030               0.999999997              -0.000110325              -0.000337278               0.999999997              -0.000121951              -0.000358993               0.999999997              -0.000004087              -0.000177027               0.999999997              -0.000002606              -0.000158805               0.999999997              -0.000003873              -0.000157800               0.999999997              -0.000007119              -0.000164607               0.999999997              -0.000011895              -0.000176032               0.999999997              -0.000017950              -0.000190466               0.999999997              -0.000025148              -0.000207030               0.999999997              -0.000033339              -0.000225097               0.999999997              -0.000042357              -0.000244345               0.999999997              -0.000052094              -0.000264549               0.999999997              -0.000062347              -0.000285568               0.999999997              -0.000073093              -0.000307593               0.999999997              -0.000084350              -0.000330309               0.999999997              -0.000096123              -0.000353887               0.999999997              -0.000108326              -0.000378438               0.999999997              -0.000120826              -0.000403727               0.999999997              -0.000133493              -0.000429347               0.999999997              -0.000004021              -0.000201805               0.999999997               0.000001188              -0.000181822               0.999999997               0.000000316              -0.000181423               0.999999997              -0.000003650              -0.000189748               0.999999997              -0.000009501              -0.000203324               0.999999997              -0.000016850              -0.000220347               0.999999997              -0.000025488              -0.000239750               0.999999997              -0.000035147              -0.000260788               0.999999997              -0.000045546              -0.000283323               0.999999997              -0.000056554              -0.000306998               0.999999997              -0.000068025              -0.000331768               0.999999997              -0.000080074              -0.000357600               0.999999997              -0.000092589              -0.000384404               0.999999997              -0.000105591              -0.000412132               0.999999997              -0.000118893              -0.000440741               0.999999997              -0.000132339              -0.000469810               0.999999997              -0.000145780              -0.000499061               0.999999997              -0.000003998              -0.000224344               0.999999997               0.000004902              -0.000203674               0.999999997               0.000003792              -0.000203839               0.999999997              -0.000001060              -0.000213730               0.999999997              -0.000008091              -0.000229491               0.999999997              -0.000016946              -0.000249078               0.999999997              -0.000027005              -0.000271325               0.999999997              -0.000038044              -0.000295544               0.999999997              -0.000049724              -0.000321460               0.999999997              -0.000061913              -0.000348800               0.999999997              -0.000074669              -0.000377504               0.999999997              -0.000087818              -0.000407498               0.999999997              -0.000101367              -0.000438582               0.999999997              -0.000115279              -0.000470525               0.999999997              -0.000129338              -0.000503019               0.999999997              -0.000143284              -0.000535799               0.999999997              -0.000157220              -0.000568633               0.999999997              -0.000004266              -0.000245404               0.999999997               0.000007294              -0.000226299               0.999999997               0.000007518              -0.000224244               0.999999997               0.000003592              -0.000231567               0.999999997              -0.000002553              -0.000244627               0.999999997              -0.000010387              -0.000261698               0.999999997              -0.000019350              -0.000281579               0.999999997              -0.000029208              -0.000303538               0.999999997              -0.000039704              -0.000327141               0.999999997              -0.000050641              -0.000352182               0.999999997              -0.000061922              -0.000378603               0.999999997              -0.000073421              -0.000406331               0.999999997              -0.000085153              -0.000435209               0.999999997              -0.000097142              -0.000465044               0.999999997              -0.000109376              -0.000495564               0.999999997              -0.000121605              -0.000526541               0.999999997              -0.000133798              -0.000557839               0.999999997              -0.000004256              -0.000264426               0.999999997               0.000008684              -0.000247934               0.999999997               0.000010281              -0.000244884               0.999999997               0.000007416              -0.000250142               0.999999997               0.000002302              -0.000260887               0.999999997              -0.000004352              -0.000275599               0.999999997              -0.000012112              -0.000293243               0.999999997              -0.000020698              -0.000313045               0.999999997              -0.000030020              -0.000334564               0.999999997              -0.000039784              -0.000357414               0.999999997              -0.000049611              -0.000381661               0.999999997              -0.000059478              -0.000407210               0.999999997              -0.000069454              -0.000433930               0.999999997              -0.000079569              -0.000461547               0.999999997              -0.000089801              -0.000489969               0.999999997              -0.000100002              -0.000519013               0.999999997              -0.000110262              -0.000548554               0.999999997              -0.000004029              -0.000281023               0.999999997               0.000009108              -0.000268020               0.999999997               0.000011789              -0.000264946               0.999999997               0.000010015              -0.000268860               0.999999997               0.000006101              -0.000277785               0.999999997               0.000000669              -0.000290543               0.999999997              -0.000005719              -0.000306226               0.999999997              -0.000013026              -0.000324081               0.999999997              -0.000021027              -0.000343698               0.999999997              -0.000029474              -0.000364812               0.999999997              -0.000037854              -0.000387143               0.999999997              -0.000046068              -0.000410725               0.999999997              -0.000054286              -0.000435435               0.999999997              -0.000062472              -0.000461055               0.999999997              -0.000070687              -0.000487434               0.999999997              -0.000078632              -0.000514403               0.999999997              -0.000086317              -0.000542046               0.999999997              -0.000003564              -0.000294938               0.999999997               0.000008596              -0.000285811               0.999999997               0.000011883              -0.000283471               0.999999997               0.000011109              -0.000286808               0.999999997               0.000008308              -0.000294450               0.999999997               0.000004232              -0.000305703               0.999999997              -0.000000815              -0.000319736               0.999999997              -0.000006635              -0.000336023               0.999999997              -0.000013209              -0.000354084               0.999999997              -0.000020189              -0.000373681               0.999999997              -0.000027146              -0.000394557               0.999999997              -0.000033747              -0.000416661               0.999999997              -0.000040157              -0.000439812               0.999999997              -0.000046592              -0.000463844               0.999999997              -0.000052715              -0.000488579               0.999999997              -0.000058211              -0.000513932               0.999999997              -0.000062999              -0.000539879               0.999999997              -0.000002891              -0.000305944               0.999999997               0.000007261              -0.000300590               0.999999997               0.000010525              -0.000299446               0.999999997               0.000010455              -0.000302678               0.999999997               0.000008673              -0.000309680               0.999999997               0.000005886              -0.000319836               0.999999997               0.000002203              -0.000332737               0.999999997              -0.000002107              -0.000347733               0.999999997              -0.000007126              -0.000364472               0.999999997              -0.000012587              -0.000382844               0.999999997              -0.000018031              -0.000402645               0.999999997              -0.000023081              -0.000423661               0.999999997              -0.000027850              -0.000445661               0.999999997              -0.000032398              -0.000468630               0.999999997              -0.000036590              -0.000492340               0.999999997              -0.000039972              -0.000516668               0.999999997              -0.000042260              -0.000541522               0.999999997              -0.000002048              -0.000313943               0.999999997               0.000005219              -0.000311621               0.999999997               0.000007853              -0.000311795               0.999999997               0.000008141              -0.000315311               0.999999997               0.000007119              -0.000322008               0.999999997               0.000005417              -0.000331519               0.999999997               0.000003052              -0.000343555               0.999999997               0.000000146              -0.000357608               0.999999997              -0.000003189              -0.000373478               0.999999997              -0.000006831              -0.000391021               0.999999997              -0.000010628              -0.000410080               0.999999997              -0.000014222              -0.000430408               0.999999997              -0.000017245              -0.000451837               0.999999997              -0.000019910              -0.000474268               0.999999997              -0.000022460              -0.000497463               0.999999997              -0.000024370              -0.000521186               0.999999997              -0.000025025              -0.000545387               0.999999997              -0.000001061              -0.000318830               0.999999997               0.000002711              -0.000318493               0.999999997               0.000004194              -0.000319560               0.999999997               0.000004424              -0.000323377               0.999999997               0.000003973              -0.000330022               0.999999997               0.000003178              -0.000339216               0.999999997               0.000002050              -0.000350741               0.999999997               0.000000587              -0.000364342               0.999999997              -0.000001065              -0.000379823               0.999999997              -0.000002823              -0.000396899               0.999999997              -0.000004842              -0.000415460               0.999999997              -0.000006683              -0.000435393               0.999999997              -0.000007990              -0.000456553               0.999999997              -0.000009263              -0.000478708               0.999999997              -0.000010552              -0.000501726               0.999999997              -0.000011458              -0.000525363               0.999999997              -0.000011415              -0.000549404               0.999999997              -0.000000000              -0.000320417               0.999999997              -0.000000000              -0.000320803               0.999999997              -0.000000000              -0.000322232               0.999999997               0.000000000              -0.000326189               0.999999997               0.000000000              -0.000332853               0.999999997              -0.000000000              -0.000341898               0.999999997              -0.000000000              -0.000353236               0.999999997              -0.000000000              -0.000366804               0.999999997              -0.000000000              -0.000382209               0.999999997              -0.000000000              -0.000399095               0.999999997              -0.000000000              -0.000417458               0.999999997              -0.000000000              -0.000437224               0.999999997               0.000000000              -0.000458244               0.999999997               0.000000000              -0.000480276               0.999999997              -0.000000000              -0.000503269               0.999999997               0.000000000              -0.000527031               0.999999997               0.000000000              -0.000551161               0.999999997               0.000003810               0.000000000               0.999999997               0.000016624              -0.000000000               0.999999997               0.000023097              -0.000000000               0.999999997               0.000027076              -0.000000000               0.999999997               0.000030285               0.000000000               0.999999997               0.000033482              -0.000000000               0.999999997               0.000036924              -0.000000000               0.999999997               0.000040802               0.000000000               0.999999997               0.000045143               0.000000000               0.999999997               0.000049931               0.000000000               0.999999997               0.000055187               0.000000000               0.999999997               0.000060921               0.000000000               0.999999997               0.000067152               0.000000000               0.999999997               0.000073895               0.000000000               0.999999997               0.000081192               0.000000000               0.999999997               0.000089040               0.000000000               0.999999997               0.000097428               0.000000000               0.999999997               0.000003862              -0.000031358               0.999999997               0.000016195              -0.000028186               0.999999997               0.000022357              -0.000027462               0.999999997               0.000026207              -0.000028180               0.999999997               0.000029378              -0.000029860               0.999999997               0.000032617              -0.000032072               0.999999997               0.000036170              -0.000034692               0.999999997               0.000040125              -0.000037613               0.999999997               0.000044570              -0.000040732               0.999999997               0.000049487              -0.000044093               0.999999997               0.000054904              -0.000047639               0.999999997               0.000060801              -0.000051314               0.999999997               0.000067159              -0.000055092               0.999999997               0.000074002              -0.000059059               0.999999997               0.000081378              -0.000063046               0.999999997               0.000089325              -0.000067096               0.999999997               0.000097841              -0.000071033               0.999999997               0.000003930              -0.000062407               0.999999997               0.000014879              -0.000055970               0.999999997               0.000020257              -0.000054675               0.999999997               0.000023786              -0.000056279               0.999999997               0.000026949              -0.000059627               0.999999997               0.000030281              -0.000064128               0.999999997               0.000033998              -0.000069399               0.999999997               0.000038231              -0.000075240               0.999999997               0.000043049              -0.000081554               0.999999997               0.000048418              -0.000088261               0.999999997               0.000054317              -0.000095440               0.999999997               0.000060667              -0.000102710               0.999999997               0.000067458              -0.000110277               0.999999997               0.000074728              -0.000118195               0.999999997               0.000082526              -0.000126388               0.999999997               0.000090912              -0.000134709               0.999999997               0.000099866              -0.000143088               0.999999997               0.000003987              -0.000092807               0.999999997               0.000012704              -0.000083108               0.999999997               0.000017028              -0.000081458               0.999999997               0.000020171              -0.000084104               0.999999997               0.000023313              -0.000089272               0.999999997               0.000026909              -0.000096124               0.999999997               0.000031081              -0.000104159               0.999999997               0.000035926              -0.000113067               0.999999997               0.000041431              -0.000122651               0.999999997               0.000047471              -0.000132795               0.999999997               0.000054062              -0.000143462               0.999999997               0.000061200              -0.000154464               0.999999997               0.000068825              -0.000165770               0.999999997               0.000076943              -0.000177647               0.999999997               0.000085568              -0.000190016               0.999999997               0.000094710              -0.000202799               0.999999997               0.000104368              -0.000215794               0.999999997               0.000004092              -0.000122216               0.999999997               0.000009810              -0.000109377               0.999999997               0.000012933              -0.000107669               0.999999997               0.000015827              -0.000111557               0.999999997               0.000019189              -0.000118754               0.999999997               0.000023310              -0.000128083               0.999999997               0.000028286              -0.000138930               0.999999997               0.000034020              -0.000150935               0.999999997               0.000040430              -0.000163722               0.999999997               0.000047487              -0.000177232               0.999999997               0.000055138              -0.000191400               0.999999997               0.000063344              -0.000206052               0.999999997               0.000072117              -0.000221074               0.999999997               0.000081380              -0.000236793               0.999999997               0.000091122              -0.000253310               0.999999997               0.000101336              -0.000270371               0.999999997               0.000111930              -0.000287862               0.999999997               0.000004139              -0.000150383               0.999999997               0.000006361              -0.000134628               0.999999997               0.000008408              -0.000133158               0.999999997               0.000011294              -0.000138496               0.999999997               0.000015224              -0.000147775               0.999999997               0.000020199              -0.000159637               0.999999997               0.000026168              -0.000173357               0.999999997               0.000032977              -0.000188385               0.999999997               0.000040591              -0.000204428               0.999999997               0.000048915              -0.000221267               0.999999997               0.000057875              -0.000238830               0.999999997               0.000067428              -0.000257113               0.999999997               0.000077474              -0.000275939               0.999999997               0.000088023              -0.000295493               0.999999997               0.000098995              -0.000316030               0.999999997               0.000110325              -0.000337278               0.999999997               0.000121951              -0.000358993               0.999999997               0.000004087              -0.000177027               0.999999997               0.000002606              -0.000158805               0.999999997               0.000003873              -0.000157800               0.999999997               0.000007119              -0.000164607               0.999999997               0.000011895              -0.000176032               0.999999997               0.000017950              -0.000190466               0.999999997               0.000025148              -0.000207030               0.999999997               0.000033339              -0.000225097               0.999999997               0.000042357              -0.000244345               0.999999997               0.000052094              -0.000264549               0.999999997               0.000062347              -0.000285568               0.999999997               0.000073093              -0.000307593               0.999999997               0.000084350              -0.000330309               0.999999997               0.000096123              -0.000353887               0.999999997               0.000108326              -0.000378438               0.999999997               0.000120826              -0.000403727               0.999999997               0.000133493              -0.000429347               0.999999997               0.000004021              -0.000201805               0.999999997              -0.000001188              -0.000181822               0.999999997              -0.000000316              -0.000181423               0.999999997               0.000003650              -0.000189748               0.999999997               0.000009501              -0.000203324               0.999999997               0.000016850              -0.000220347               0.999999997               0.000025488              -0.000239750               0.999999997               0.000035147              -0.000260788               0.999999997               0.000045546              -0.000283323               0.999999997               0.000056554              -0.000306998               0.999999997               0.000068025              -0.000331768               0.999999997               0.000080074              -0.000357600               0.999999997               0.000092589              -0.000384404               0.999999997               0.000105591              -0.000412132               0.999999997               0.000118893              -0.000440741               0.999999997               0.000132339              -0.000469810               0.999999997               0.000145780              -0.000499061               0.999999997               0.000003998              -0.000224344               0.999999997              -0.000004902              -0.000203674               0.999999997              -0.000003792              -0.000203839               0.999999997               0.000001060              -0.000213730               0.999999997               0.000008091              -0.000229491               0.999999997               0.000016946              -0.000249078               0.999999997               0.000027005              -0.000271325               0.999999997               0.000038044              -0.000295544               0.999999997               0.000049724              -0.000321460               0.999999997               0.000061913              -0.000348800               0.999999997               0.000074669              -0.000377504               0.999999997               0.000087818              -0.000407498               0.999999997               0.000101367              -0.000438582               0.999999997               0.000115279              -0.000470525               0.999999997               0.000129338              -0.000503019               0.999999997               0.000143284              -0.000535799               0.999999997               0.000157220              -0.000568633               0.999999997               0.000004266              -0.000245404               0.999999997              -0.000007294              -0.000226299               0.999999997              -0.000007518              -0.000224244               0.999999997              -0.000003592              -0.000231567               0.999999997               0.000002553              -0.000244627               0.999999997               0.000010387              -0.000261698               0.999999997               0.000019350              -0.000281579               0.999999997               0.000029208              -0.000303538               0.999999997               0.000039704              -0.000327141               0.999999997               0.000050641              -0.000352182               0.999999997               0.000061922              -0.000378603               0.999999997               0.000073421              -0.000406331               0.999999997               0.000085153              -0.000435209               0.999999997               0.000097142              -0.000465044               0.999999997               0.000109376              -0.000495564               0.999999997               0.000121605              -0.000526541               0.999999997               0.000133798              -0.000557839               0.999999997               0.000004256              -0.000264426               0.999999997              -0.000008684              -0.000247934               0.999999997              -0.000010281              -0.000244884               0.999999997              -0.000007416              -0.000250142               0.999999997              -0.000002302              -0.000260887               0.999999997               0.000004352              -0.000275599               0.999999997               0.000012112              -0.000293243               0.999999997               0.000020698              -0.000313045               0.999999997               0.000030020              -0.000334564               0.999999997               0.000039784              -0.000357414               0.999999997               0.000049611              -0.000381661               0.999999997               0.000059478              -0.000407210               0.999999997               0.000069454              -0.000433930               0.999999997               0.000079569              -0.000461547               0.999999997               0.000089801              -0.000489969               0.999999997               0.000100002              -0.000519013               0.999999997               0.000110262              -0.000548554               0.999999997               0.000004029              -0.000281023               0.999999997              -0.000009108              -0.000268020               0.999999997              -0.000011789              -0.000264946               0.999999997              -0.000010015              -0.000268860               0.999999997              -0.000006101              -0.000277785               0.999999997              -0.000000669              -0.000290543               0.999999997               0.000005719              -0.000306226               0.999999997               0.000013026              -0.000324081               0.999999997               0.000021027              -0.000343698               0.999999997               0.000029474              -0.000364812               0.999999997               0.000037854              -0.000387143               0.999999997               0.000046068              -0.000410725               0.999999997               0.000054286              -0.000435435               0.999999997               0.000062472              -0.000461055               0.999999997               0.000070687              -0.000487434               0.999999997               0.000078632              -0.000514403               0.999999997               0.000086317              -0.000542046               0.999999997               0.000003564              -0.000294938               0.999999997              -0.000008596              -0.000285811               0.999999997              -0.000011883              -0.000283471               0.999999997              -0.000011109              -0.000286808               0.999999997              -0.000008308              -0.000294450               0.999999997              -0.000004232              -0.000305703               0.999999997               0.000000815              -0.000319736               0.999999997               0.000006635              -0.000336023               0.999999997               0.000013209              -0.000354084               0.999999997               0.000020189              -0.000373681               0.999999997               0.000027146              -0.000394557               0.999999997               0.000033747              -0.000416661               0.999999997               0.000040157              -0.000439812               0.999999997               0.000046592              -0.000463844               0.999999997               0.000052715              -0.000488579               0.999999997               0.000058211              -0.000513932               0.999999997               0.000062999              -0.000539879               0.999999997               0.000002891              -0.000305944               0.999999997              -0.000007261              -0.000300590               0.999999997              -0.000010525              -0.000299446               0.999999997              -0.000010455              -0.000302678               0.999999997              -0.000008673              -0.000309680               0.999999997              -0.000005886              -0.000319836               0.999999997              -0.000002203              -0.000332737               0.999999997               0.000002107              -0.000347733               0.999999997               0.000007126              -0.000364472               0.999999997               0.000012587              -0.000382844               0.999999997               0.000018031              -0.000402645               0.999999997               0.000023081              -0.000423661               0.999999997               0.000027850              -0.000445661               0.999999997               0.000032398              -0.000468630               0.999999997               0.000036590              -0.000492340               0.999999997               0.000039972              -0.000516668               0.999999997               0.000042260              -0.000541522               0.999999997               0.000002048              -0.000313943               0.999999997              -0.000005219              -0.000311621               0.999999997              -0.000007853              -0.000311795               0.999999997              -0.000008141              -0.000315311               0.999999997              -0.000007119              -0.000322008               0.999999997              -0.000005417              -0.000331519               0.999999997              -0.000003052              -0.000343555               0.999999997              -0.000000146              -0.000357608               0.999999997               0.000003189              -0.000373478               0.999999997               0.000006831              -0.000391021               0.999999997               0.000010628              -0.000410080               0.999999997               0.000014222              -0.000430408               0.999999997               0.000017245              -0.000451837               0.999999997               0.000019910              -0.000474268               0.999999997               0.000022460              -0.000497463               0.999999997               0.000024370              -0.000521186               0.999999997               0.000025025              -0.000545387               0.999999997               0.000001061              -0.000318830               0.999999997              -0.000002711              -0.000318493               0.999999997              -0.000004194              -0.000319560               0.999999997              -0.000004424              -0.000323377               0.999999997              -0.000003973              -0.000330022               0.999999997              -0.000003178              -0.000339216               0.999999997              -0.000002050              -0.000350741               0.999999997              -0.000000587              -0.000364342               0.999999997               0.000001065              -0.000379823               0.999999997               0.000002823              -0.000396899               0.999999997               0.000004842              -0.000415460               0.999999997               0.000006683              -0.000435393               0.999999997               0.000007990              -0.000456553               0.999999997               0.000009263              -0.000478708               0.999999997               0.000010552              -0.000501726               0.999999997               0.000011458              -0.000525363               0.999999997               0.000011415              -0.000549404               0.999999997              -0.000000000              -0.000320417               0.999999997              -0.000000000              -0.000320803               0.999999997              -0.000000000              -0.000322232               0.999999997               0.000000000              -0.000326189               0.999999997               0.000000000              -0.000332853               0.999999997              -0.000000000              -0.000341898               0.999999997              -0.000000000              -0.000353236               0.999999997              -0.000000000              -0.000366804               0.999999997              -0.000000000              -0.000382209               0.999999997              -0.000000000              -0.000399095               0.999999997              -0.000000000              -0.000417458               0.999999997              -0.000000000              -0.000437224               0.999999997               0.000000000              -0.000458244               0.999999997               0.000000000              -0.000480276               0.999999997              -0.000000000              -0.000503269               0.999999997               0.000000000              -0.000527031               0.999999997               0.000000000              -0.000551161               0.999999997               0.000003810               0.000000000               0.999999997               0.000016624              -0.000000000               0.999999997               0.000023097              -0.000000000               0.999999997               0.000027076              -0.000000000               0.999999997               0.000030285               0.000000000               0.999999997               0.000033482              -0.000000000               0.999999997               0.000036924              -0.000000000               0.999999997               0.000040802               0.000000000               0.999999997               0.000045143               0.000000000               0.999999997               0.000049931               0.000000000               0.999999997               0.000055187               0.000000000               0.999999997               0.000060921               0.000000000               0.999999997               0.000067152               0.000000000               0.999999997               0.000073895               0.000000000               0.999999997               0.000081192               0.000000000               0.999999997               0.000089040               0.000000000               0.999999997               0.000097428               0.000000000               0.999999997               0.000003862               0.000031358               0.999999997               0.000016195               0.000028186               0.999999997               0.000022357               0.000027462               0.999999997               0.000026207               0.000028180               0.999999997               0.000029378               0.000029860               0.999999997               0.000032617               0.000032072               0.999999997               0.000036170               0.000034692               0.999999997               0.000040125               0.000037613               0.999999997               0.000044570               0.000040732               0.999999997               0.000049487               0.000044093               0.999999997               0.000054904               0.000047639               0.999999997               0.000060801               0.000051314               0.999999997               0.000067159               0.000055092               0.999999997               0.000074002               0.000059059               0.999999997               0.000081378               0.000063046               0.999999997               0.000089325               0.000067096               0.999999997               0.000097841               0.000071033               0.999999997               0.000003930               0.000062407               0.999999997               0.000014879               0.000055970               0.999999997               0.000020257               0.000054675               0.999999997               0.000023786               0.000056279               0.999999997               0.000026949               0.000059627               0.999999997               0.000030281               0.000064128               0.999999997               0.000033998               0.000069399               0.999999997               0.000038231               0.000075240               0.999999997               0.000043049               0.000081554               0.999999997               0.000048418               0.000088261               0.999999997               0.000054317               0.000095440               0.999999997               0.000060667               0.000102710               0.999999997               0.000067458               0.000110277               0.999999997               0.000074728               0.000118195               0.999999997               0.000082526               0.000126388               0.999999997               0.000090912               0.000134709               0.999999997               0.000099866               0.000143088               0.999999997               0.000003987               0.000092807               0.999999997               0.000012704               0.000083108               0.999999997               0.000017028               0.000081458               0.999999997               0.000020171               0.000084104               0.999999997               0.000023313               0.000089272               0.999999997               0.000026909               0.000096124               0.999999997               0.000031081               0.000104159               0.999999997               0.000035926               0.000113067               0.999999997               0.000041431               0.000122651               0.999999997               0.000047471               0.000132795               0.999999997               0.000054062               0.000143462               0.999999997               0.000061200               0.000154464               0.999999997               0.000068825               0.000165770               0.999999997               0.000076943               0.000177647               0.999999997               0.000085568               0.000190016               0.999999997               0.000094710               0.000202799               0.999999997               0.000104368               0.000215794               0.999999997               0.000004092               0.000122216               0.999999997               0.000009810               0.000109377               0.999999997               0.000012933               0.000107669               0.999999997               0.000015827               0.000111557               0.999999997               0.000019189               0.000118754               0.999999997               0.000023310               0.000128083               0.999999997               0.000028286               0.000138930               0.999999997               0.000034020               0.000150935               0.999999997               0.000040430               0.000163722               0.999999997               0.000047487               0.000177232               0.999999997               0.000055138               0.000191400               0.999999997               0.000063344               0.000206052               0.999999997               0.000072117               0.000221074               0.999999997               0.000081380               0.000236793               0.999999997               0.000091122               0.000253310               0.999999997               0.000101336               0.000270371               0.999999997               0.000111930               0.000287862               0.999999997               0.000004139               0.000150383               0.999999997               0.000006361               0.000134628               0.999999997               0.000008408               0.000133158               0.999999997               0.000011294               0.000138496               0.999999997               0.000015224               0.000147775               0.999999997               0.000020199               0.000159637               0.999999997               0.000026168               0.000173357               0.999999997               0.000032977               0.000188385               0.999999997               0.000040591               0.000204428               0.999999997               0.000048915               0.000221267               0.999999997               0.000057875               0.000238830               0.999999997               0.000067428               0.000257113               0.999999997               0.000077474               0.000275939               0.999999997               0.000088023               0.000295493               0.999999997               0.000098995               0.000316030               0.999999997               0.000110325               0.000337278               0.999999997               0.000121951               0.000358993               0.999999997               0.000004087               0.000177027               0.999999997               0.000002606               0.000158805               0.999999997               0.000003873               0.000157800               0.999999997               0.000007119               0.000164607               0.999999997               0.000011895               0.000176032               0.999999997               0.000017950               0.000190466               0.999999997               0.000025148               0.000207030               0.999999997               0.000033339               0.000225097               0.999999997               0.000042357               0.000244345               0.999999997               0.000052094               0.000264549               0.999999997               0.000062347               0.000285568               0.999999997               0.000073093               0.000307593               0.999999997               0.000084350               0.000330309               0.999999997               0.000096123               0.000353887               0.999999997               0.000108326               0.000378438               0.999999997               0.000120826               0.000403727               0.999999997               0.000133493               0.000429347               0.999999997               0.000004021               0.000201805               0.999999997              -0.000001188               0.000181822               0.999999997              -0.000000316               0.000181423               0.999999997               0.000003650               0.000189748               0.999999997               0.000009501               0.000203324               0.999999997               0.000016850               0.000220347               0.999999997               0.000025488               0.000239750               0.999999997               0.000035147               0.000260788               0.999999997               0.000045546               0.000283323               0.999999997               0.000056554               0.000306998               0.999999997               0.000068025               0.000331768               0.999999997               0.000080074               0.000357600               0.999999997               0.000092589               0.000384404               0.999999997               0.000105591               0.000412132               0.999999997               0.000118893               0.000440741               0.999999997               0.000132339               0.000469810               0.999999997               0.000145780               0.000499061               0.999999997               0.000003998               0.000224344               0.999999997              -0.000004902               0.000203674               0.999999997              -0.000003792               0.000203839               0.999999997               0.000001060               0.000213730               0.999999997               0.000008091               0.000229491               0.999999997               0.000016946               0.000249078               0.999999997               0.000027005               0.000271325               0.999999997               0.000038044               0.000295544               0.999999997               0.000049724               0.000321460               0.999999997               0.000061913               0.000348800               0.999999997               0.000074669               0.000377504               0.999999997               0.000087818               0.000407498               0.999999997               0.000101367               0.000438582               0.999999997               0.000115279               0.000470525               0.999999997               0.000129338               0.000503019               0.999999997               0.000143284               0.000535799               0.999999997               0.000157220               0.000568633               0.999999997               0.000004266               0.000245404               0.999999997              -0.000007294               0.000226299               0.999999997              -0.000007518               0.000224244               0.999999997              -0.000003592               0.000231567               0.999999997               0.000002553               0.000244627               0.999999997               0.000010387               0.000261698               0.999999997               0.000019350               0.000281579               0.999999997               0.000029208               0.000303538               0.999999997               0.000039704               0.000327141               0.999999997               0.000050641               0.000352182               0.999999997               0.000061922               0.000378603               0.999999997               0.000073421               0.000406331               0.999999997               0.000085153               0.000435209               0.999999997               0.000097142               0.000465044               0.999999997               0.000109376               0.000495564               0.999999997               0.000121605               0.000526541               0.999999997               0.000133798               0.000557839               0.999999997               0.000004256               0.000264426               0.999999997              -0.000008684               0.000247934               0.999999997              -0.000010281               0.000244884               0.999999997              -0.000007416               0.000250142               0.999999997              -0.000002302               0.000260887               0.999999997               0.000004352               0.000275599               0.999999997               0.000012112               0.000293243               0.999999997               0.000020698               0.000313045               0.999999997               0.000030020               0.000334564               0.999999997               0.000039784               0.000357414               0.999999997               0.000049611               0.000381661               0.999999997               0.000059478               0.000407210               0.999999997               0.000069454               0.000433930               0.999999997               0.000079569               0.000461547               0.999999997               0.000089801               0.000489969               0.999999997               0.000100002               0.000519013               0.999999997               0.000110262               0.000548554               0.999999997               0.000004029               0.000281023               0.999999997              -0.000009108               0.000268020               0.999999997              -0.000011789               0.000264946               0.999999997              -0.000010015               0.000268860               0.999999997              -0.000006101               0.000277785               0.999999997              -0.000000669               0.000290543               0.999999997               0.000005719               0.000306226               0.999999997               0.000013026               0.000324081               0.999999997               0.000021027               0.000343698               0.999999997               0.000029474               0.000364812               0.999999997               0.000037854               0.000387143               0.999999997               0.000046068               0.000410725               0.999999997               0.000054286               0.000435435               0.999999997               0.000062472               0.000461055               0.999999997               0.000070687               0.000487434               0.999999997               0.000078632               0.000514403               0.999999997               0.000086317               0.000542046               0.999999997               0.000003564               0.000294938               0.999999997              -0.000008596               0.000285811               0.999999997              -0.000011883               0.000283471               0.999999997              -0.000011109               0.000286808               0.999999997              -0.000008308               0.000294450               0.999999997              -0.000004232               0.000305703               0.999999997               0.000000815               0.000319736               0.999999997               0.000006635               0.000336023               0.999999997               0.000013209               0.000354084               0.999999997               0.000020189               0.000373681               0.999999997               0.000027146               0.000394557               0.999999997               0.000033747               0.000416661               0.999999997               0.000040157               0.000439812               0.999999997               0.000046592               0.000463844               0.999999997               0.000052715               0.000488579               0.999999997               0.000058211               0.000513932               0.999999997               0.000062999               0.000539879               0.999999997               0.000002891               0.000305944               0.999999997              -0.000007261               0.000300590               0.999999997              -0.000010525               0.000299446               0.999999997              -0.000010455               0.000302678               0.999999997              -0.000008673               0.000309680               0.999999997              -0.000005886               0.000319836               0.999999997              -0.000002203               0.000332737               0.999999997               0.000002107               0.000347733               0.999999997               0.000007126               0.000364472               0.999999997               0.000012587               0.000382844               0.999999997               0.000018031               0.000402645               0.999999997               0.000023081               0.000423661               0.999999997               0.000027850               0.000445661               0.999999997               0.000032398               0.000468630               0.999999997               0.000036590               0.000492340               0.999999997               0.000039972               0.000516668               0.999999997               0.000042260               0.000541522               0.999999997               0.000002048               0.000313943               0.999999997              -0.000005219               0.000311621               0.999999997              -0.000007853               0.000311795               0.999999997              -0.000008141               0.000315311               0.999999997              -0.000007119               0.000322008               0.999999997              -0.000005417               0.000331519               0.999999997              -0.000003052               0.000343555               0.999999997              -0.000000146               0.000357608               0.999999997               0.000003189               0.000373478               0.999999997               0.000006831               0.000391021               0.999999997               0.000010628               0.000410080               0.999999997               0.000014222               0.000430408               0.999999997               0.000017245               0.000451837               0.999999997               0.000019910               0.000474268               0.999999997               0.000022460               0.000497463               0.999999997               0.000024370               0.000521186               0.999999997               0.000025025               0.000545387               0.999999997               0.000001061               0.000318830               0.999999997              -0.000002711               0.000318493               0.999999997              -0.000004194               0.000319560               0.999999997              -0.000004424               0.000323377               0.999999997              -0.000003973               0.000330022               0.999999997              -0.000003178               0.000339216               0.999999997              -0.000002050               0.000350741               0.999999997              -0.000000587               0.000364342               0.999999997               0.000001065               0.000379823               0.999999997               0.000002823               0.000396899               0.999999997               0.000004842               0.000415460               0.999999997               0.000006683               0.000435393               0.999999997               0.000007990               0.000456553               0.999999997               0.000009263               0.000478708               0.999999997               0.000010552               0.000501726               0.999999997               0.000011458               0.000525363               0.999999997               0.000011415               0.000549404               0.999999997               0.000000000               0.000320417               0.999999997               0.000000000               0.000320803               0.999999997              -0.000000000               0.000322232               0.999999997               0.000000000               0.000326189               0.999999997              -0.000000000               0.000332853               0.999999997              -0.000000000               0.000341898               0.999999997              -0.000000000               0.000353236               0.999999997              -0.000000000               0.000366804               0.999999997              -0.000000000               0.000382209               0.999999997               0.000000000               0.000399095               0.999999997               0.000000000               0.000417458               0.999999997              -0.000000000               0.000437224               0.999999997              -0.000000000               0.000458244               0.999999997              -0.000000000               0.000480276               0.999999997               0.000000000               0.000503269               0.999999997               0.000000000               0.000527031               0.999999997               0.000000000               0.000551161               0.999999997 </DataArray>
<DataArray type="Float64"                                    Name="stress"                                                      NumberOfComponents="10" format="ascii">
              0.000496048               0.005892632              -0.000000000              -0.000550560               0.002147711               0.001597151               0.000000000               0.000000000               0.000000000               0.000000000               0.000550609               0.004900746              -0.000000000              -0.000406114               0.001768937               0.001362823               0.000000000               0.000000000               0.000000000               0.000000000               0.000770413               0.004095490              -0.000000000              -0.000223031               0.001439493               0.001216463               0.000000000               0.000000000               0.000000000               0.000000000               0.000800780               0.003651861               0.000000000              -0.000156190               0.001269338               0.001113148               0.000000000               0.000000000               0.000000000               0.000000000               0.000755321               0.003394503               0.000000000              -0.000141067               0.001178512               0.001037445               0.000000000               0.000000000               0.000000000               0.000000000               0.000686140               0.003236000               0.000000000              -0.000147197               0.001127722               0.000980525               0.000000000               0.000000000               0.000000000               0.000000000               0.000613450               0.003137391              -0.000000000              -0.000162130               0.001099830               0.000937700               0.000000000               0.000000000               0.000000000               0.000000000               0.000541191               0.003075281              -0.000000000              -0.000181463               0.001085571               0.000904108               0.000000000               0.000000000               0.000000000               0.000000000               0.000475239               0.003037178              -0.000000000              -0.000201432               0.001079527               0.000878095               0.000000000               0.000000000               0.000000000               0.000000000               0.000415072               0.003018109              -0.000000000              -0.000221611               0.001079897               0.000858286               0.000000000               0.000000000               0.000000000               0.000000000               0.000357621               0.003011007              -0.000000000              -0.000242268               0.001084415               0.000842147               0.000000000               0.000000000               0.000000000               0.000000000               0.000301974               0.003010505               0.000000000              -0.000263072               0.001091183               0.000828110               0.000000000               0.000000000               0.000000000               0.000000000               0.000246161               0.003014208              -0.000000000              -0.000284465               0.001099548               0.000815083               0.000000000               0.000000000               0.000000000               0.000000000               0.000187857               0.003021782              -0.000000000              -0.000307276               0.001109676               0.000802400               0.000000000               0.000000000               0.000000000               0.000000000               0.000125802               0.003027768               0.000000000              -0.000331295               0.001119678               0.000788383               0.000000000               0.000000000               0.000000000               0.000000000               0.000063081               0.003031965              -0.000000000              -0.000355339               0.001129091               0.000773752               0.000000000               0.000000000               0.000000000               0.000000000               0.000033075               0.003035681              -0.000000000              -0.000367056               0.001134235               0.000767179               0.000000000               0.000000000               0.000000000               0.000000000               0.000531073               0.005796703              -0.000449832              -0.000525434               0.002107360               0.001581926               0.000000000               0.000000000               0.000000000               0.000000000               0.000564203               0.004829218              -0.000293980              -0.000392075               0.001740415               0.001348340               0.000000000               0.000000000               0.000000000               0.000000000               0.000760716               0.004056450              -0.000130522              -0.000221787               0.001426065               0.001204278               0.000000000               0.000000000               0.000000000               0.000000000               0.000779644               0.003631313              -0.000051476              -0.000161547               0.001264275               0.001102728               0.000000000               0.000000000               0.000000000               0.000000000               0.000729399               0.003380194              -0.000013302              -0.000148999               0.001176387               0.001027387               0.000000000               0.000000000               0.000000000               0.000000000               0.000658884               0.003226582               0.000005101              -0.000156241               0.001127597               0.000971356               0.000000000               0.000000000               0.000000000               0.000000000               0.000587591               0.003130982               0.000014548              -0.000171026               0.001100659               0.000929633               0.000000000               0.000000000               0.000000000               0.000000000               0.000517311               0.003070531               0.000018392              -0.000189824               0.001086775               0.000896951               0.000000000               0.000000000               0.000000000               0.000000000               0.000452186               0.003034359               0.000019692              -0.000209725               0.001081351               0.000871627               0.000000000               0.000000000               0.000000000               0.000000000               0.000392766               0.003015808               0.000020208              -0.000229688               0.001081822               0.000852134               0.000000000               0.000000000               0.000000000               0.000000000               0.000337877               0.003010369               0.000018057              -0.000249592               0.001086643               0.000837052               0.000000000               0.000000000               0.000000000               0.000000000               0.000286049               0.003009500               0.000015340              -0.000268918               0.001092796               0.000823878               0.000000000               0.000000000               0.000000000               0.000000000               0.000234579               0.003013958               0.000015505              -0.000288777               0.001100902               0.000812125               0.000000000               0.000000000               0.000000000               0.000000000               0.000180066               0.003023059               0.000014997              -0.000310357               0.001111129               0.000800772               0.000000000               0.000000000               0.000000000               0.000000000               0.000121103               0.003033845               0.000012425              -0.000333816               0.001122543               0.000788727               0.000000000               0.000000000               0.000000000               0.000000000               0.000060212               0.003043975               0.000007268              -0.000357916               0.001133954               0.000776037               0.000000000               0.000000000               0.000000000               0.000000000               0.000032361               0.003054066               0.000002584              -0.000369622               0.001141219               0.000771597               0.000000000               0.000000000               0.000000000               0.000000000               0.000624032               0.005519522              -0.000852809              -0.000455927               0.001991798               0.001535871               0.000000000               0.000000000               0.000000000               0.000000000               0.000596930               0.004629192              -0.000557244              -0.000354800               0.001661315               0.001306515               0.000000000               0.000000000               0.000000000               0.000000000               0.000729648               0.003947061              -0.000250964              -0.000219764               0.001388929               0.001169164               0.000000000               0.000000000               0.000000000               0.000000000               0.000718721               0.003569273              -0.000106989              -0.000176639               0.001248625               0.001071987               0.000000000               0.000000000               0.000000000               0.000000000               0.000658837               0.003341331              -0.000036022              -0.000170602               0.001170633               0.001000031               0.000000000               0.000000000               0.000000000               0.000000000               0.000590274               0.003202873              -0.000000562              -0.000179006               0.001127282               0.000948277               0.000000000               0.000000000               0.000000000               0.000000000               0.000522106               0.003117549               0.000016217              -0.000193903               0.001103807               0.000909904               0.000000000               0.000000000               0.000000000               0.000000000               0.000454783               0.003064468               0.000022680              -0.000212514               0.001092317               0.000879803               0.000000000               0.000000000               0.000000000               0.000000000               0.000393539               0.003033836               0.000024276              -0.000231652               0.001088486               0.000856834               0.000000000               0.000000000               0.000000000               0.000000000               0.000338531               0.003017645               0.000026044              -0.000250256               0.001089290               0.000839035               0.000000000               0.000000000               0.000000000               0.000000000               0.000289455               0.003011931               0.000023066              -0.000267945               0.001093282               0.000825337               0.000000000               0.000000000               0.000000000               0.000000000               0.000245975               0.003012707               0.000017581              -0.000284347               0.001099008               0.000814661               0.000000000               0.000000000               0.000000000               0.000000000               0.000202194               0.003017664               0.000017853              -0.000301385               0.001106340               0.000804955               0.000000000               0.000000000               0.000000000               0.000000000               0.000155089               0.003028269               0.000018768              -0.000320375               0.001116204               0.000795830               0.000000000               0.000000000               0.000000000               0.000000000               0.000103587               0.003044584               0.000016184              -0.000341727               0.001128760               0.000787033               0.000000000               0.000000000               0.000000000               0.000000000               0.000050325               0.003064915               0.000009870              -0.000364242               0.001143042               0.000778800               0.000000000               0.000000000               0.000000000               0.000000000               0.000028039               0.003084316               0.000004195              -0.000375024               0.001153103               0.000778079               0.000000000               0.000000000               0.000000000               0.000000000               0.000755097               0.005092169              -0.001175037              -0.000353360               0.001815159               0.001461799               0.000000000               0.000000000               0.000000000               0.000000000               0.000637541               0.004329795              -0.000769845              -0.000302146               0.001543966               0.001241820               0.000000000               0.000000000               0.000000000               0.000000000               0.000676797               0.003784965              -0.000355177              -0.000219321               0.001334750               0.001115428               0.000000000               0.000000000               0.000000000               0.000000000               0.000633357               0.003476933              -0.000166275              -0.000197107               0.001224669               0.001027561               0.000000000               0.000000000               0.000000000               0.000000000               0.000565267               0.003289423              -0.000073350              -0.000199202               0.001162864               0.000963662               0.000000000               0.000000000               0.000000000               0.000000000               0.000496134               0.003172261              -0.000026583              -0.000210482               0.001127570               0.000917088               0.000000000               0.000000000               0.000000000               0.000000000               0.000432469               0.003100212              -0.000004962              -0.000225350               0.001108510               0.000883160               0.000000000               0.000000000               0.000000000               0.000000000               0.000372889               0.003056362               0.000003582              -0.000242211               0.001099514               0.000857303               0.000000000               0.000000000               0.000000000               0.000000000               0.000321375               0.003029493               0.000006779              -0.000258171               0.001095878               0.000837707               0.000000000               0.000000000               0.000000000               0.000000000               0.000276256               0.003014863               0.000008761              -0.000273261               0.001096031               0.000822770               0.000000000               0.000000000               0.000000000               0.000000000               0.000232171               0.003006784               0.000006907              -0.000288783               0.001098512               0.000809729               0.000000000               0.000000000               0.000000000               0.000000000               0.000192629               0.003007116               0.000000983              -0.000303653               0.001103580               0.000799927               0.000000000               0.000000000               0.000000000               0.000000000               0.000155167               0.003010922               0.000001129              -0.000318177               0.001109690               0.000791513               0.000000000               0.000000000               0.000000000               0.000000000               0.000116901               0.003020601               0.000006220              -0.000333736               0.001118102               0.000784366               0.000000000               0.000000000               0.000000000               0.000000000               0.000077075               0.003038007               0.000008601              -0.000350847               0.001129608               0.000778761               0.000000000               0.000000000               0.000000000               0.000000000               0.000036872               0.003061210               0.000006425              -0.000368823               0.001143334               0.000774511               0.000000000               0.000000000               0.000000000               0.000000000               0.000021349               0.003082430               0.000001994              -0.000377297               0.001153232               0.000775935               0.000000000               0.000000000               0.000000000               0.000000000               0.000896306               0.004562403              -0.001393155              -0.000234186               0.001598848               0.001364661               0.000000000               0.000000000               0.000000000               0.000000000               0.000676642               0.003965087              -0.000921091              -0.000241895               0.001402314               0.001160419               0.000000000               0.000000000               0.000000000               0.000000000               0.000608715               0.003589539              -0.000442612              -0.000220424               0.001269976               0.001049552               0.000000000               0.000000000               0.000000000               0.000000000               0.000534499               0.003364210              -0.000230666              -0.000220089               0.001194755               0.000974666               0.000000000               0.000000000               0.000000000               0.000000000               0.000464208               0.003221187              -0.000127178              -0.000228570               0.001149908               0.000921339               0.000000000               0.000000000               0.000000000               0.000000000               0.000397111               0.003127728              -0.000074235              -0.000242049               0.001123249               0.000881200               0.000000000               0.000000000               0.000000000               0.000000000               0.000339383               0.003068414              -0.000046878              -0.000256283               0.001108222               0.000851940               0.000000000               0.000000000               0.000000000               0.000000000               0.000290552               0.003030102              -0.000034060              -0.000269805               0.001099959               0.000830154               0.000000000               0.000000000               0.000000000               0.000000000               0.000247806               0.003005511              -0.000028775              -0.000282761               0.001096081               0.000813320               0.000000000               0.000000000               0.000000000               0.000000000               0.000209796               0.002990149              -0.000025464              -0.000295094               0.001095071               0.000799977               0.000000000               0.000000000               0.000000000               0.000000000               0.000174344               0.002981531              -0.000024915              -0.000307312               0.001096271               0.000788959               0.000000000               0.000000000               0.000000000               0.000000000               0.000140641               0.002980994              -0.000028572              -0.000319883               0.001100283               0.000780399               0.000000000               0.000000000               0.000000000               0.000000000               0.000108897               0.002986031              -0.000026596              -0.000332417               0.001106139               0.000773723               0.000000000               0.000000000               0.000000000               0.000000000               0.000078992               0.002995263              -0.000014782              -0.000344785               0.001113339               0.000768554               0.000000000               0.000000000               0.000000000               0.000000000               0.000049414               0.003011121              -0.000004580              -0.000357859               0.001122983               0.000765124               0.000000000               0.000000000               0.000000000               0.000000000               0.000022235               0.003031488              -0.000000250              -0.000370597               0.001134018               0.000763421               0.000000000               0.000000000               0.000000000               0.000000000               0.000013836               0.003049283              -0.000001099              -0.000375971               0.001141741               0.000765770               0.000000000               0.000000000               0.000000000               0.000000000               0.001010799               0.003977859              -0.001502705              -0.000118184               0.001365334               0.001247150               0.000000000               0.000000000               0.000000000               0.000000000               0.000701380               0.003571175              -0.001013047              -0.000183380               0.001251506               0.001068126               0.000000000               0.000000000               0.000000000               0.000000000               0.000535203               0.003377440              -0.000517198              -0.000221479               0.001199628               0.000978150               0.000000000               0.000000000               0.000000000               0.000000000               0.000436591               0.003230878              -0.000300079              -0.000240138               0.001156995               0.000916857               0.000000000               0.000000000               0.000000000               0.000000000               0.000367309               0.003129462              -0.000191374              -0.000253441               0.001127624               0.000874183               0.000000000               0.000000000               0.000000000               0.000000000               0.000309719               0.003061192              -0.000132373              -0.000266504               0.001109222               0.000842718               0.000000000               0.000000000               0.000000000               0.000000000               0.000262060               0.003015532              -0.000099630              -0.000278668               0.001098057               0.000819388               0.000000000               0.000000000               0.000000000               0.000000000               0.000222550               0.002983819              -0.000082436              -0.000289520               0.001091103               0.000801583               0.000000000               0.000000000               0.000000000               0.000000000               0.000187697               0.002964023              -0.000073869              -0.000300116               0.001088036               0.000787921               0.000000000               0.000000000               0.000000000               0.000000000               0.000157361               0.002951884              -0.000068049              -0.000309975               0.001087276               0.000777302               0.000000000               0.000000000               0.000000000               0.000000000               0.000127814               0.002945428              -0.000060565              -0.000320247               0.001088549               0.000768301               0.000000000               0.000000000               0.000000000               0.000000000               0.000100584               0.002949554              -0.000055665              -0.000330974               0.001093500               0.000762525               0.000000000               0.000000000               0.000000000               0.000000000               0.000074148               0.002959936              -0.000048786              -0.000342186               0.001100697               0.000758512               0.000000000               0.000000000               0.000000000               0.000000000               0.000049411               0.002973039              -0.000031841              -0.000353100               0.001108703               0.000755603               0.000000000               0.000000000               0.000000000               0.000000000               0.000029189               0.002988283              -0.000014207              -0.000362589               0.001116947               0.000754359               0.000000000               0.000000000               0.000000000               0.000000000               0.000012730               0.003004421              -0.000004424              -0.000370778               0.001125056               0.000754278               0.000000000               0.000000000               0.000000000               0.000000000               0.000007873               0.003015252              -0.000002632              -0.000373953               0.001129725               0.000755772               0.000000000               0.000000000               0.000000000               0.000000000               0.001080953               0.003378143              -0.001515057              -0.000016912               0.001131673               0.001114761               0.000000000               0.000000000               0.000000000               0.000000000               0.000707862               0.003175292              -0.001054514              -0.000131464               0.001102241               0.000970777               0.000000000               0.000000000               0.000000000               0.000000000               0.000463629               0.003159162              -0.000582649              -0.000221034               0.001126722               0.000905687               0.000000000               0.000000000               0.000000000               0.000000000               0.000355357               0.003086959              -0.000371613              -0.000252610               0.001113180               0.000860569               0.000000000               0.000000000               0.000000000               0.000000000               0.000293669               0.003027870              -0.000258617              -0.000268357               0.001098732               0.000830375               0.000000000               0.000000000               0.000000000               0.000000000               0.000246723               0.002984435              -0.000194085              -0.000280533               0.001088313               0.000807780               0.000000000               0.000000000               0.000000000               0.000000000               0.000207461               0.002951075              -0.000156661              -0.000291086               0.001080711               0.000789625               0.000000000               0.000000000               0.000000000               0.000000000               0.000176338               0.002927055              -0.000133443              -0.000299755               0.001075594               0.000775839               0.000000000               0.000000000               0.000000000               0.000000000               0.000149410               0.002914966              -0.000117220              -0.000308341               0.001074426               0.000766085               0.000000000               0.000000000               0.000000000               0.000000000               0.000128211               0.002912864              -0.000104349              -0.000316028               0.001076288               0.000760260               0.000000000               0.000000000               0.000000000               0.000000000               0.000108912               0.002919439              -0.000088475              -0.000324087               0.001081166               0.000757078               0.000000000               0.000000000               0.000000000               0.000000000               0.000086843               0.002931386              -0.000074312              -0.000333856               0.001088404               0.000754548               0.000000000               0.000000000               0.000000000               0.000000000               0.000062555               0.002948298              -0.000061798              -0.000345078               0.001097782               0.000752704               0.000000000               0.000000000               0.000000000               0.000000000               0.000039675               0.002966471              -0.000042410              -0.000355930               0.001107457               0.000751527               0.000000000               0.000000000               0.000000000               0.000000000               0.000022642               0.002980470              -0.000022204              -0.000364067               0.001114836               0.000750769               0.000000000               0.000000000               0.000000000               0.000000000               0.000010941               0.002987528              -0.000009547              -0.000369337               0.001118945               0.000749608               0.000000000               0.000000000               0.000000000               0.000000000               0.000006473               0.002989262              -0.000005617              -0.000371230               0.001120154               0.000748924               0.000000000               0.000000000               0.000000000               0.000000000               0.001105452               0.002801883              -0.001442764               0.000064307               0.000912515               0.000976822               0.000000000               0.000000000               0.000000000               0.000000000               0.000695406               0.002798897              -0.001053467              -0.000089086               0.000962651               0.000873565               0.000000000               0.000000000               0.000000000               0.000000000               0.000404299               0.002943065              -0.000640029              -0.000216271               0.001053102               0.000836831               0.000000000               0.000000000               0.000000000               0.000000000               0.000300095               0.002944105              -0.000439199              -0.000255477               0.001066517               0.000811040               0.000000000               0.000000000               0.000000000               0.000000000               0.000246870               0.002925758              -0.000322296              -0.000273143               0.001066290               0.000793147               0.000000000               0.000000000               0.000000000               0.000000000               0.000209476               0.002905029              -0.000252680              -0.000284575               0.001063192               0.000778617               0.000000000               0.000000000               0.000000000               0.000000000               0.000176721               0.002885434              -0.000208689              -0.000294408               0.001059938               0.000765529               0.000000000               0.000000000               0.000000000               0.000000000               0.000153219               0.002875435              -0.000175845              -0.000301971               0.001059126               0.000757154               0.000000000               0.000000000               0.000000000               0.000000000               0.000135465               0.002877149              -0.000148463              -0.000308843               0.001061988               0.000753144               0.000000000               0.000000000               0.000000000               0.000000000               0.000120199               0.002888704              -0.000125692              -0.000316013               0.001068229               0.000752217               0.000000000               0.000000000               0.000000000               0.000000000               0.000105336               0.002909716              -0.000104445              -0.000324213               0.001077967               0.000753754               0.000000000               0.000000000               0.000000000               0.000000000               0.000085637               0.002932744              -0.000084600              -0.000334478               0.001089064               0.000754586               0.000000000               0.000000000               0.000000000               0.000000000               0.000062852               0.002956977              -0.000066354              -0.000346052               0.001101000               0.000754948               0.000000000               0.000000000               0.000000000               0.000000000               0.000040628               0.002975830              -0.000045421              -0.000356743               0.001110848               0.000754105               0.000000000               0.000000000               0.000000000               0.000000000               0.000025082               0.002983853              -0.000025308              -0.000363575               0.001115799               0.000752225               0.000000000               0.000000000               0.000000000               0.000000000               0.000012529               0.002980772              -0.000011043              -0.000367897               0.001116213               0.000748316               0.000000000               0.000000000               0.000000000               0.000000000               0.000004998               0.002975138              -0.000004535              -0.000370017               0.001115042               0.000745025               0.000000000               0.000000000               0.000000000               0.000000000               0.001099962               0.002294079              -0.001313907               0.000125723               0.000722777               0.000848500               0.000000000               0.000000000               0.000000000               0.000000000               0.000687188               0.002458641              -0.001032514              -0.000049636               0.000836084               0.000786448               0.000000000               0.000000000               0.000000000               0.000000000               0.000376689               0.002746643              -0.000704470              -0.000202072               0.000982896               0.000780824               0.000000000               0.000000000               0.000000000               0.000000000               0.000281141               0.002821689              -0.000511526              -0.000247283               0.001022981               0.000775698               0.000000000               0.000000000               0.000000000               0.000000000               0.000231003               0.002842234              -0.000391204              -0.000268653               0.001036953               0.000768300               0.000000000               0.000000000               0.000000000               0.000000000               0.000197731               0.002846014              -0.000314107              -0.000281602               0.001042529               0.000760927               0.000000000               0.000000000               0.000000000               0.000000000               0.000171998               0.002845582              -0.000259606              -0.000291198               0.001045584               0.000754386               0.000000000               0.000000000               0.000000000               0.000000000               0.000153996               0.002851986              -0.000217178              -0.000298749               0.001050236               0.000751486               0.000000000               0.000000000               0.000000000               0.000000000               0.000142920               0.002864630              -0.000180038              -0.000304483               0.001056361               0.000751879               0.000000000               0.000000000               0.000000000               0.000000000               0.000131653               0.002885870              -0.000148722              -0.000311363               0.001065735               0.000754372               0.000000000               0.000000000               0.000000000               0.000000000               0.000120283               0.002917718              -0.000120135              -0.000319608               0.001079099               0.000759491               0.000000000               0.000000000               0.000000000               0.000000000               0.000103928               0.002951594              -0.000093192              -0.000329976               0.001093847               0.000763871               0.000000000               0.000000000               0.000000000               0.000000000               0.000080728               0.002979452              -0.000069870              -0.000342158               0.001107193               0.000765036               0.000000000               0.000000000               0.000000000               0.000000000               0.000055679               0.002995256              -0.000048255              -0.000353526               0.001116251               0.000762724               0.000000000               0.000000000               0.000000000               0.000000000               0.000036516               0.002996929              -0.000027100              -0.000360922               0.001119274               0.000758352               0.000000000               0.000000000               0.000000000               0.000000000               0.000018142               0.002987949              -0.000009728              -0.000366690               0.001118203               0.000751513               0.000000000               0.000000000               0.000000000               0.000000000               0.000004534               0.002978544              -0.000001380              -0.000370617               0.001116377               0.000745760               0.000000000               0.000000000               0.000000000               0.000000000               0.001054862               0.001797687              -0.001159942               0.000170860               0.000542269               0.000713129               0.000000000               0.000000000               0.000000000               0.000000000               0.000695558               0.002065982              -0.001004032               0.000002585               0.000687792               0.000690377               0.000000000               0.000000000               0.000000000               0.000000000               0.000391940               0.002463667              -0.000783308              -0.000160981               0.000874874               0.000713893               0.000000000               0.000000000               0.000000000               0.000000000               0.000298094               0.002620806              -0.000605584              -0.000215815               0.000945532               0.000729716               0.000000000               0.000000000               0.000000000               0.000000000               0.000252237               0.002696339              -0.000481045              -0.000242453               0.000979588               0.000737135               0.000000000               0.000000000               0.000000000               0.000000000               0.000217806               0.002740731              -0.000392374              -0.000260914               0.001000539               0.000739625               0.000000000               0.000000000               0.000000000               0.000000000               0.000191692               0.002768872              -0.000327068              -0.000274224               0.001014356               0.000740132               0.000000000               0.000000000               0.000000000               0.000000000               0.000171573               0.002791191              -0.000276936              -0.000284558               0.001025240               0.000740682               0.000000000               0.000000000               0.000000000               0.000000000               0.000161232               0.002814569              -0.000234813              -0.000291359               0.001035300               0.000743941               0.000000000               0.000000000               0.000000000               0.000000000               0.000155329               0.002846072              -0.000195913              -0.000297510               0.001047851               0.000750341               0.000000000               0.000000000               0.000000000               0.000000000               0.000144853               0.002887922              -0.000157214              -0.000306670               0.001064854               0.000758185               0.000000000               0.000000000               0.000000000               0.000000000               0.000128265               0.002930439              -0.000121106              -0.000318205               0.001082871               0.000764667               0.000000000               0.000000000               0.000000000               0.000000000               0.000105078               0.002964428              -0.000090241              -0.000331149               0.001098516               0.000767367               0.000000000               0.000000000               0.000000000               0.000000000               0.000076011               0.002983337              -0.000063291              -0.000344412               0.001109240               0.000764828               0.000000000               0.000000000               0.000000000               0.000000000               0.000045682               0.002988854              -0.000036963              -0.000356475               0.001115100               0.000758625               0.000000000               0.000000000               0.000000000               0.000000000               0.000017677               0.002987110              -0.000012969              -0.000366759               0.001117946               0.000751187               0.000000000               0.000000000               0.000000000               0.000000000              -0.000000433               0.002981193              -0.000000500              -0.000372811               0.001117991               0.000745181               0.000000000               0.000000000               0.000000000               0.000000000               0.000952433               0.001330806              -0.000980353               0.000190809               0.000379994               0.000570803               0.000000000               0.000000000               0.000000000               0.000000000               0.000701431               0.001675033              -0.000948536               0.000053656               0.000540453               0.000594109               0.000000000               0.000000000               0.000000000               0.000000000               0.000442162               0.002146876              -0.000843955              -0.000102550               0.000749801               0.000647251               0.000000000               0.000000000               0.000000000               0.000000000               0.000349381               0.002381272              -0.000697902              -0.000166641               0.000849296               0.000682655               0.000000000               0.000000000               0.000000000               0.000000000               0.000300297               0.002518263              -0.000574886              -0.000202171               0.000906803               0.000704632               0.000000000               0.000000000               0.000000000               0.000000000               0.000263537               0.002610745              -0.000479361              -0.000227517               0.000946078               0.000718562               0.000000000               0.000000000               0.000000000               0.000000000               0.000231895               0.002673047              -0.000405817              -0.000247170               0.000973397               0.000726227               0.000000000               0.000000000               0.000000000               0.000000000               0.000207746               0.002718761              -0.000350591              -0.000261940               0.000993558               0.000731618               0.000000000               0.000000000               0.000000000               0.000000000               0.000192584               0.002757894              -0.000305825              -0.000272517               0.001010128               0.000737611               0.000000000               0.000000000               0.000000000               0.000000000               0.000185197               0.002802504              -0.000260397              -0.000280864               0.001027780               0.000746916               0.000000000               0.000000000               0.000000000               0.000000000               0.000175264               0.002854959              -0.000211575              -0.000291145               0.001048692               0.000757547               0.000000000               0.000000000               0.000000000               0.000000000               0.000158078               0.002905630              -0.000167068              -0.000303924               0.001069842               0.000765918               0.000000000               0.000000000               0.000000000               0.000000000               0.000133398               0.002943231              -0.000128674              -0.000317879               0.001087027               0.000769148               0.000000000               0.000000000               0.000000000               0.000000000               0.000101455               0.002966281              -0.000094009              -0.000332739               0.001099664               0.000766925               0.000000000               0.000000000               0.000000000               0.000000000               0.000064831               0.002978753              -0.000059029              -0.000348032               0.001108918               0.000760887               0.000000000               0.000000000               0.000000000               0.000000000               0.000024083               0.002983312              -0.000025209              -0.000363882               0.001115721               0.000751839               0.000000000               0.000000000               0.000000000               0.000000000              -0.000006366               0.002977527              -0.000005899              -0.000374577               0.001117358               0.000742781               0.000000000               0.000000000               0.000000000               0.000000000               0.000797228               0.000918256              -0.000777548               0.000184176               0.000244690               0.000428866               0.000000000               0.000000000               0.000000000               0.000000000               0.000682484               0.001296665              -0.000849098               0.000093847               0.000400934               0.000494781               0.000000000               0.000000000               0.000000000               0.000000000               0.000505634               0.001794048              -0.000849841              -0.000034644               0.000609558               0.000574913               0.000000000               0.000000000               0.000000000               0.000000000               0.000426101               0.002089110              -0.000747361              -0.000101351               0.000730147               0.000628795               0.000000000               0.000000000               0.000000000               0.000000000               0.000377361               0.002285354              -0.000638001              -0.000144159               0.000809830               0.000665671               0.000000000               0.000000000               0.000000000               0.000000000               0.000337181               0.002429325              -0.000544783              -0.000177223               0.000868841               0.000691618               0.000000000               0.000000000               0.000000000               0.000000000               0.000299936               0.002530948              -0.000470265              -0.000203892               0.000911605               0.000707713               0.000000000               0.000000000               0.000000000               0.000000000               0.000267582               0.002607510              -0.000414223              -0.000225595               0.000944359               0.000718764               0.000000000               0.000000000               0.000000000               0.000000000               0.000244406               0.002674797              -0.000367163              -0.000242697               0.000972489               0.000729792               0.000000000               0.000000000               0.000000000               0.000000000               0.000228791               0.002737596              -0.000318355              -0.000256402               0.000997990               0.000741588               0.000000000               0.000000000               0.000000000               0.000000000               0.000216541               0.002801329              -0.000264727              -0.000268963               0.001023421               0.000754459               0.000000000               0.000000000               0.000000000               0.000000000               0.000198814               0.002864342              -0.000215547              -0.000283487               0.001049267               0.000765780               0.000000000               0.000000000               0.000000000               0.000000000               0.000172628               0.002912309              -0.000173194              -0.000299303               0.001070528               0.000771225               0.000000000               0.000000000               0.000000000               0.000000000               0.000141040               0.002944953              -0.000134498              -0.000315228               0.001086717               0.000771489               0.000000000               0.000000000               0.000000000               0.000000000               0.000099439               0.002962287              -0.000091229              -0.000332995               0.001098418               0.000765422               0.000000000               0.000000000               0.000000000               0.000000000               0.000047317               0.002974303              -0.000043224              -0.000354043               0.001109439               0.000755396               0.000000000               0.000000000               0.000000000               0.000000000               0.000003742               0.002971201              -0.000013801              -0.000369996               0.001113722               0.000743727               0.000000000               0.000000000               0.000000000               0.000000000               0.000606595               0.000584696              -0.000571695               0.000154384               0.000143435               0.000297819               0.000000000               0.000000000               0.000000000               0.000000000               0.000641888               0.000951985              -0.000712487               0.000121708               0.000276755               0.000398463               0.000000000               0.000000000               0.000000000               0.000000000               0.000575476               0.001433007              -0.000791636               0.000036676               0.000465439               0.000502115               0.000000000               0.000000000               0.000000000               0.000000000               0.000523085               0.001763493              -0.000734596              -0.000024281               0.000595919               0.000571638               0.000000000               0.000000000               0.000000000               0.000000000               0.000480728               0.002008064              -0.000648157              -0.000070735               0.000692926               0.000622191               0.000000000               0.000000000               0.000000000               0.000000000               0.000436749               0.002197540              -0.000565536              -0.000110912               0.000769476               0.000658565               0.000000000               0.000000000               0.000000000               0.000000000               0.000395573               0.002342363              -0.000497503              -0.000144455               0.000828931               0.000684476               0.000000000               0.000000000               0.000000000               0.000000000               0.000353277               0.002453355              -0.000443980              -0.000174190               0.000875840               0.000701650               0.000000000               0.000000000               0.000000000               0.000000000               0.000319256               0.002548452              -0.000398581              -0.000198835               0.000915754               0.000716919               0.000000000               0.000000000               0.000000000               0.000000000               0.000295715               0.002636120              -0.000350649              -0.000218622               0.000951572               0.000732950               0.000000000               0.000000000               0.000000000               0.000000000               0.000280432               0.002721585              -0.000297706              -0.000235036               0.000985531               0.000750495               0.000000000               0.000000000               0.000000000               0.000000000               0.000262940               0.002799977              -0.000247225              -0.000251394               0.001017114               0.000765720               0.000000000               0.000000000               0.000000000               0.000000000               0.000237655               0.002862315              -0.000206247              -0.000268668               0.001043652               0.000774983               0.000000000               0.000000000               0.000000000               0.000000000               0.000206367               0.002909140              -0.000166913              -0.000286254               0.001065122               0.000778867               0.000000000               0.000000000               0.000000000               0.000000000               0.000166283               0.002941051              -0.000117587              -0.000305275               0.001082099               0.000776824               0.000000000               0.000000000               0.000000000               0.000000000               0.000116015               0.002966116              -0.000059842              -0.000327258               0.001097781               0.000770523               0.000000000               0.000000000               0.000000000               0.000000000               0.000072008               0.002967910              -0.000024706              -0.000343985               0.001103955               0.000759970               0.000000000               0.000000000               0.000000000               0.000000000               0.000410046               0.000341423              -0.000383811               0.000111088               0.000076777               0.000187865               0.000000000               0.000000000               0.000000000               0.000000000               0.000590473               0.000664037              -0.000548617               0.000138421               0.000175203               0.000313624               0.000000000               0.000000000               0.000000000               0.000000000               0.000642797               0.001095330              -0.000667782               0.000104131               0.000330396               0.000434527               0.000000000               0.000000000               0.000000000               0.000000000               0.000629215               0.001440752              -0.000647909               0.000055860               0.000461626               0.000517486               0.000000000               0.000000000               0.000000000               0.000000000               0.000598322               0.001717323              -0.000587382               0.000009705               0.000569200               0.000578905               0.000000000               0.000000000               0.000000000               0.000000000               0.000557591               0.001944711              -0.000522763              -0.000033993               0.000659561               0.000625569               0.000000000               0.000000000               0.000000000               0.000000000               0.000512309               0.002125796              -0.000466724              -0.000073609               0.000733128               0.000659519               0.000000000               0.000000000               0.000000000               0.000000000               0.000463299               0.002265047              -0.000420497              -0.000109394               0.000791473               0.000682079               0.000000000               0.000000000               0.000000000               0.000000000               0.000416677               0.002389874              -0.000381738              -0.000142480               0.000844110               0.000701630               0.000000000               0.000000000               0.000000000               0.000000000               0.000380583               0.002509392              -0.000340625              -0.000170955               0.000893441               0.000722486               0.000000000               0.000000000               0.000000000               0.000000000               0.000357280               0.002619596              -0.000293718              -0.000193469               0.000937680               0.000744210               0.000000000               0.000000000               0.000000000               0.000000000               0.000338614               0.002714112              -0.000246947              -0.000212283               0.000975456               0.000763173               0.000000000               0.000000000               0.000000000               0.000000000               0.000313486               0.002795826              -0.000207383              -0.000231920               0.001009239               0.000777319               0.000000000               0.000000000               0.000000000               0.000000000               0.000282258               0.002863669              -0.000171297              -0.000252111               0.001038584               0.000786472               0.000000000               0.000000000               0.000000000               0.000000000               0.000252716               0.002914637              -0.000126917              -0.000269560               0.001061389               0.000791829               0.000000000               0.000000000               0.000000000               0.000000000               0.000222463               0.002954767              -0.000068037              -0.000285922               0.001080220               0.000794298               0.000000000               0.000000000               0.000000000               0.000000000               0.000194510               0.002966005              -0.000032371              -0.000297808               0.001087928               0.000790119               0.000000000               0.000000000               0.000000000               0.000000000               0.000233275               0.000176932              -0.000229588               0.000065361               0.000037190               0.000102550               0.000000000               0.000000000               0.000000000               0.000000000               0.000538185               0.000447631              -0.000370125               0.000145864               0.000100587               0.000246451               0.000000000               0.000000000               0.000000000               0.000000000               0.000699098               0.000821072              -0.000482054               0.000159526               0.000220512               0.000380038               0.000000000               0.000000000               0.000000000               0.000000000               0.000727425               0.001163298              -0.000485094               0.000127371               0.000345305               0.000472676               0.000000000               0.000000000               0.000000000               0.000000000               0.000710249               0.001455433              -0.000449255               0.000084413               0.000457002               0.000541415               0.000000000               0.000000000               0.000000000               0.000000000               0.000674613               0.001706374              -0.000405529               0.000039683               0.000555558               0.000595241               0.000000000               0.000000000               0.000000000               0.000000000               0.000626190               0.001913317              -0.000366243              -0.000004344               0.000639214               0.000634870               0.000000000               0.000000000               0.000000000               0.000000000               0.000573645               0.002085669              -0.000333193              -0.000045592               0.000710413               0.000664821               0.000000000               0.000000000               0.000000000               0.000000000               0.000518471               0.002241702              -0.000304502              -0.000085786               0.000775822               0.000690036               0.000000000               0.000000000               0.000000000               0.000000000               0.000467382               0.002385284              -0.000276202              -0.000122892               0.000836051               0.000713159               0.000000000               0.000000000               0.000000000               0.000000000               0.000431679               0.002516229              -0.000243602              -0.000152649               0.000889617               0.000736969               0.000000000               0.000000000               0.000000000               0.000000000               0.000405881               0.002631599              -0.000203466              -0.000176744               0.000936105               0.000759361               0.000000000               0.000000000               0.000000000               0.000000000               0.000380752               0.002734280              -0.000167280              -0.000199003               0.000977752               0.000778749               0.000000000               0.000000000               0.000000000               0.000000000               0.000360449               0.002821594              -0.000142754              -0.000217530               0.001013032               0.000795502               0.000000000               0.000000000               0.000000000               0.000000000               0.000346580               0.002887393              -0.000114058              -0.000230956               0.001039440               0.000808484               0.000000000               0.000000000               0.000000000               0.000000000               0.000339872               0.002938904              -0.000064998              -0.000239910               0.001059595               0.000819685               0.000000000               0.000000000               0.000000000               0.000000000               0.000334393               0.002960222              -0.000033755              -0.000244630               0.001068274               0.000823644               0.000000000               0.000000000               0.000000000               0.000000000               0.000106755               0.000082055              -0.000104967               0.000029776               0.000017426               0.000047202               0.000000000               0.000000000               0.000000000               0.000000000               0.000493878               0.000310088              -0.000185637               0.000146442               0.000054548               0.000200989               0.000000000               0.000000000               0.000000000               0.000000000               0.000733618               0.000638457              -0.000252445               0.000195298               0.000147718               0.000343015               0.000000000               0.000000000               0.000000000               0.000000000               0.000795035               0.000974447              -0.000260068               0.000176331               0.000266035               0.000442366               0.000000000               0.000000000               0.000000000               0.000000000               0.000786784               0.001271621              -0.000244158               0.000136090               0.000378506               0.000514596               0.000000000               0.000000000               0.000000000               0.000000000               0.000754066               0.001532088              -0.000221444               0.000091263               0.000480270               0.000571533               0.000000000               0.000000000               0.000000000               0.000000000               0.000707614               0.001762201              -0.000201831               0.000045080               0.000572368               0.000617448               0.000000000               0.000000000               0.000000000               0.000000000               0.000653129               0.001963969              -0.000186429              -0.000000573               0.000654841               0.000654268               0.000000000               0.000000000               0.000000000               0.000000000               0.000594149               0.002136883              -0.000171209              -0.000044304               0.000727055               0.000682751               0.000000000               0.000000000               0.000000000               0.000000000               0.000536256               0.002289555              -0.000157752              -0.000085098               0.000791543               0.000706445               0.000000000               0.000000000               0.000000000               0.000000000               0.000487072               0.002432751              -0.000140820              -0.000121442               0.000851390               0.000729948               0.000000000               0.000000000               0.000000000               0.000000000               0.000453492               0.002566246              -0.000113777              -0.000150721               0.000905647               0.000754926               0.000000000               0.000000000               0.000000000               0.000000000               0.000437303               0.002685723              -0.000092234              -0.000171726               0.000952474               0.000780748               0.000000000               0.000000000               0.000000000               0.000000000               0.000430823               0.002789049              -0.000082638              -0.000187072               0.000992031               0.000804959               0.000000000               0.000000000               0.000000000               0.000000000               0.000428092               0.002872878              -0.000069637              -0.000198575               0.001023808               0.000825233               0.000000000               0.000000000               0.000000000               0.000000000               0.000435929               0.002934778              -0.000041218              -0.000203373               0.001046041               0.000842667               0.000000000               0.000000000               0.000000000               0.000000000               0.000449258               0.002962118              -0.000022379              -0.000201793               0.001054627               0.000852834               0.000000000               0.000000000               0.000000000               0.000000000               0.000061179               0.000052770               0.000000000               0.000016346               0.000012141               0.000028487               0.000000000               0.000000000               0.000000000               0.000000000               0.000476339               0.000264063               0.000000000               0.000145618               0.000039481               0.000185099               0.000000000               0.000000000               0.000000000               0.000000000               0.000745047               0.000575606              -0.000000000               0.000207440               0.000122720               0.000330160               0.000000000               0.000000000               0.000000000               0.000000000               0.000817316               0.000908098               0.000000000               0.000192979               0.000238370               0.000431349               0.000000000               0.000000000               0.000000000               0.000000000               0.000811575               0.001203841              -0.000000000               0.000153859               0.000349990               0.000503849               0.000000000               0.000000000               0.000000000               0.000000000               0.000780120               0.001465923               0.000000000               0.000109304               0.000452202               0.000561505               0.000000000               0.000000000               0.000000000               0.000000000               0.000737587               0.001709912              -0.000000000               0.000062855               0.000549013               0.000611869               0.000000000               0.000000000               0.000000000               0.000000000               0.000683410               0.001924014              -0.000000000               0.000015777               0.000636073               0.000651850               0.000000000               0.000000000               0.000000000               0.000000000               0.000622254               0.002097714               0.000000000              -0.000028869               0.000708854               0.000679985               0.000000000               0.000000000               0.000000000               0.000000000               0.000562763               0.002250907               0.000000000              -0.000070327               0.000773737               0.000703410               0.000000000               0.000000000               0.000000000               0.000000000               0.000507025               0.002398049              -0.000000000              -0.000109621               0.000835882               0.000726261               0.000000000               0.000000000               0.000000000               0.000000000               0.000472226               0.002538621              -0.000000000              -0.000140243               0.000892946               0.000752703               0.000000000               0.000000000               0.000000000               0.000000000               0.000463785               0.002665705              -0.000000000              -0.000159293               0.000941657               0.000782364               0.000000000               0.000000000               0.000000000               0.000000000               0.000461310               0.002776761              -0.000000000              -0.000174104               0.000983612               0.000809509               0.000000000               0.000000000               0.000000000               0.000000000               0.000460597               0.002871763              -0.000000000              -0.000186246               0.001019327               0.000833081               0.000000000               0.000000000               0.000000000               0.000000000               0.000472555               0.002939354              -0.000000000              -0.000190211               0.001043178               0.000852968               0.000000000               0.000000000               0.000000000               0.000000000               0.000493548               0.002968161              -0.000000000              -0.000185939               0.001051357               0.000865418               0.000000000               0.000000000               0.000000000               0.000000000               0.000000000               0.000000000               0.000000000               0.000000000               0.000000000               0.000000000               0.000000000               0.000000000               0.000000000               0.000000000               0.000000000               0.000000000               0.000000000               0.000000000               0.000000000               0.000000000               0.000000000               0.000000000               0.000000000               0.000000000               0.000000000               0.000000000               0.000000000               0.000000000               0.000000000               0.000000000               0.000000000               0.000000000               0.000000000               0.000000000               0.000000000               0.000000000               0.000000000               0.000000000               0.000000000               0.000000000               0.000000000               0.000000000               0.000000000               0.000000000               0.000000000               0.000000000               0.000000000               0.000000000               0.000000000               0.000000000               0.000000000               0.000000000               0.000000000               0.000000000               0.000000000               0.000000000               0.000000000               0.000000000               0.000000000               0.000000000               0.000000000               0.000000000               0.000000000               0.000000000               0.000000000               0.000000000               0.000000000               0.000000000               0.000000000               0.000000000               0.000000000               0.000000000               0.000000000               0.000000000               0.000000000               0.000000000               0.000000000               0.000000000               0.000000000               0.000000000               0.000000000               0.000000000               0.000000000               0.000000000               0.000000000               0.000000000               0.000000000               0.000000000               0.000000000               0.000000000               0.000000000               0.000000000               0.000000000               0.000000000               0.000000000               0.000000000               0.000000000               0.000000000               0.000000000               0.000000000               0.000000000               0.000000000               0.000000000               0.000000000               0.000000000               0.000000000               0.000000000               0.000000000               0.000000000               0.000000000               0.000000000               0.000000000               0.000000000               0.000000000               0.000000000               0.000000000               0.000000000               0.000000000               0.000000000               0.000000000               0.000000000               0.000000000               0.000000000               0.000000000               0.000000000               0.000000000               0.000000000               0.000000000               0.000000000               0.000000000               0.000000000               0.000000000               0.000000000               0.000000000               0.000000000               0.000000000               0.000000000               0.000000000               0.000000000               0.000000000               0.000000000               0.000000000               0.000000000               0.000000000               0.000000000               0.000000000               0.000000000               0.000000000               0.000000000               0.000000000               0.000000000               0.000000000               0.000000000               0.000000000               0.000000000               0.000000000               0.000000000               0.000000000               0.000000000               0.000000000               0.000000000               0.000000000               0.000000000               0.000000000               0.000000000               0.000000000               0.000000000               0.000000000               0.000000000               0.000000000               0.000000000               0.000000000               0.000000000               0.000000000               0.000531073               0.005796703               0.000449832              -0.000525434               0.002107360               0.001581926               0.000000000               0.000000000               0.000000000               0.000000000               0.000564203               0.004829218               0.000293980              -0.000392075               0.001740415               0.001348340               0.000000000               0.000000000               0.000000000               0.000000000               0.000760716               0.004056450               0.000130522              -0.000221787               0.001426065               0.001204278               0.000000000               0.000000000               0.000000000               0.000000000               0.000779644               0.003631313               0.000051476              -0.000161547               0.001264275               0.001102728               0.000000000               0.000000000               0.000000000               0.000000000               0.000729399               0.003380194               0.000013302              -0.000148999               0.001176387               0.001027387               0.000000000               0.000000000               0.000000000               0.000000000               0.000658884               0.003226582              -0.000005101              -0.000156241               0.001127597               0.000971356               0.000000000               0.000000000               0.000000000               0.000000000               0.000587591               0.003130982              -0.000014548              -0.000171026               0.001100659               0.000929633               0.000000000               0.000000000               0.000000000               0.000000000               0.000517311               0.003070531              -0.000018392              -0.000189824               0.001086775               0.000896951               0.000000000               0.000000000               0.000000000               0.000000000               0.000452186               0.003034359              -0.000019692              -0.000209725               0.001081351               0.000871627               0.000000000               0.000000000               0.000000000               0.000000000               0.000392766               0.003015808              -0.000020208              -0.000229688               0.001081822               0.000852134               0.000000000               0.000000000               0.000000000               0.000000000               0.000337877               0.003010369              -0.000018057              -0.000249592               0.001086643               0.000837052               0.000000000               0.000000000               0.000000000               0.000000000               0.000286049               0.003009500              -0.000015340              -0.000268918               0.001092796               0.000823878               0.000000000               0.000000000               0.000000000               0.000000000               0.000234579               0.003013958              -0.000015505              -0.000288777               0.001100902               0.000812125               0.000000000               0.000000000               0.000000000               0.000000000               0.000180066               0.003023059              -0.000014997              -0.000310357               0.001111129               0.000800772               0.000000000               0.000000000               0.000000000               0.000000000               0.000121103               0.003033845              -0.000012425              -0.000333816               0.001122543               0.000788727               0.000000000               0.000000000               0.000000000               0.000000000               0.000060212               0.003043975              -0.000007268              -0.000357916               0.001133954               0.000776037               0.000000000               0.000000000               0.000000000               0.000000000               0.000032361               0.003054066              -0.000002584              -0.000369622               0.001141219               0.000771597               0.000000000               0.000000000               0.000000000               0.000000000               0.000624032               0.005519522               0.000852809              -0.000455927               0.001991798               0.001535871               0.000000000               0.000000000               0.000000000               0.000000000               0.000596930               0.004629192               0.000557244              -0.000354800               0.001661315               0.001306515               0.000000000               0.000000000               0.000000000               0.000000000               0.000729648               0.003947061               0.000250964              -0.000219764               0.001388929               0.001169164               0.000000000               0.000000000               0.000000000               0.000000000               0.000718721               0.003569273               0.000106989              -0.000176639               0.001248625               0.001071987               0.000000000               0.000000000               0.000000000               0.000000000               0.000658837               0.003341331               0.000036022              -0.000170602               0.001170633               0.001000031               0.000000000               0.000000000               0.000000000               0.000000000               0.000590274               0.003202873               0.000000562              -0.000179006               0.001127282               0.000948277               0.000000000               0.000000000               0.000000000               0.000000000               0.000522106               0.003117549              -0.000016217              -0.000193903               0.001103807               0.000909904               0.000000000               0.000000000               0.000000000               0.000000000               0.000454783               0.003064468              -0.000022680              -0.000212514               0.001092317               0.000879803               0.000000000               0.000000000               0.000000000               0.000000000               0.000393539               0.003033836              -0.000024276              -0.000231652               0.001088486               0.000856834               0.000000000               0.000000000               0.000000000               0.000000000               0.000338531               0.003017645              -0.000026044              -0.000250256               0.001089290               0.000839035               0.000000000               0.000000000               0.000000000               0.000000000               0.000289455               0.003011931              -0.000023066              -0.000267945               0.001093282               0.000825337               0.000000000               0.000000000               0.000000000               0.000000000               0.000245975               0.003012707              -0.000017581              -0.000284347               0.001099008               0.000814661               0.000000000               0.000000000               0.000000000               0.000000000               0.000202194               0.003017664              -0.000017853              -0.000301385               0.001106340               0.000804955               0.000000000               0.000000000               0.000000000               0.000000000               0.000155089               0.003028269              -0.000018768              -0.000320375               0.001116204               0.000795830               0.000000000               0.000000000               0.000000000               0.000000000               0.000103587               0.003044584              -0.000016184              -0.000341727               0.001128760               0.000787033               0.000000000               0.000000000               0.000000000               0.000000000               0.000050325               0.003064915              -0.000009870              -0.000364242               0.001143042               0.000778800               0.000000000               0.000000000               0.000000000               0.000000000               0.000028039               0.003084316              -0.000004195              -0.000375024               0.001153103               0.000778079               0.000000000               0.000000000               0.000000000               0.000000000               0.000755097               0.005092169               0.001175037              -0.000353360               0.001815159               0.001461799               0.000000000               0.000000000               0.000000000               0.000000000               0.000637541               0.004329795               0.000769845              -0.000302146               0.001543966               0.001241820               0.000000000               0.000000000               0.000000000               0.000000000               0.000676797               0.003784965               0.000355177              -0.000219321               0.001334750               0.001115428               0.000000000               0.000000000               0.000000000               0.000000000               0.000633357               0.003476933               0.000166275              -0.000197107               0.001224669               0.001027561               0.000000000               0.000000000               0.000000000               0.000000000               0.000565267               0.003289423               0.000073350              -0.000199202               0.001162864               0.000963662               0.000000000               0.000000000               0.000000000               0.000000000               0.000496134               0.003172261               0.000026583              -0.000210482               0.001127570               0.000917088               0.000000000               0.000000000               0.000000000               0.000000000               0.000432469               0.003100212               0.000004962              -0.000225350               0.001108510               0.000883160               0.000000000               0.000000000               0.000000000               0.000000000               0.000372889               0.003056362              -0.000003582              -0.000242211               0.001099514               0.000857303               0.000000000               0.000000000               0.000000000               0.000000000               0.000321375               0.003029493              -0.000006779              -0.000258171               0.001095878               0.000837707               0.000000000               0.000000000               0.000000000               0.000000000               0.000276256               0.003014863              -0.000008761              -0.000273261               0.001096031               0.000822770               0.000000000               0.000000000               0.000000000               0.000000000               0.000232171               0.003006784              -0.000006907              -0.000288783               0.001098512               0.000809729               0.000000000               0.000000000               0.000000000               0.000000000               0.000192629               0.003007116              -0.000000983              -0.000303653               0.001103580               0.000799927               0.000000000               0.000000000               0.000000000               0.000000000               0.000155167               0.003010922              -0.000001129              -0.000318177               0.001109690               0.000791513               0.000000000               0.000000000               0.000000000               0.000000000               0.000116901               0.003020601              -0.000006220              -0.000333736               0.001118102               0.000784366               0.000000000               0.000000000               0.000000000               0.000000000               0.000077075               0.003038007              -0.000008601              -0.000350847               0.001129608               0.000778761               0.000000000               0.000000000               0.000000000               0.000000000               0.000036872               0.003061210              -0.000006425              -0.000368823               0.001143334               0.000774511               0.000000000               0.000000000               0.000000000               0.000000000               0.000021349               0.003082430              -0.000001994              -0.000377297               0.001153232               0.000775935               0.000000000               0.000000000               0.000000000               0.000000000               0.000896306               0.004562403               0.001393155              -0.000234186               0.001598848               0.001364661               0.000000000               0.000000000               0.000000000               0.000000000               0.000676642               0.003965087               0.000921091              -0.000241895               0.001402314               0.001160419               0.000000000               0.000000000               0.000000000               0.000000000               0.000608715               0.003589539               0.000442612              -0.000220424               0.001269976               0.001049552               0.000000000               0.000000000               0.000000000               0.000000000               0.000534499               0.003364210               0.000230666              -0.000220089               0.001194755               0.000974666               0.000000000               0.000000000               0.000000000               0.000000000               0.000464208               0.003221187               0.000127178              -0.000228570               0.001149908               0.000921339               0.000000000               0.000000000               0.000000000               0.000000000               0.000397111               0.003127728               0.000074235              -0.000242049               0.001123249               0.000881200               0.000000000               0.000000000               0.000000000               0.000000000               0.000339383               0.003068414               0.000046878              -0.000256283               0.001108222               0.000851940               0.000000000               0.000000000               0.000000000               0.000000000               0.000290552               0.003030102               0.000034060              -0.000269805               0.001099959               0.000830154               0.000000000               0.000000000               0.000000000               0.000000000               0.000247806               0.003005511               0.000028775              -0.000282761               0.001096081               0.000813320               0.000000000               0.000000000               0.000000000               0.000000000               0.000209796               0.002990149               0.000025464              -0.000295094               0.001095071               0.000799977               0.000000000               0.000000000               0.000000000               0.000000000               0.000174344               0.002981531               0.000024915              -0.000307312               0.001096271               0.000788959               0.000000000               0.000000000               0.000000000               0.000000000               0.000140641               0.002980994               0.000028572              -0.000319883               0.001100283               0.000780399               0.000000000               0.000000000               0.000000000               0.000000000               0.000108897               0.002986031               0.000026596              -0.000332417               0.001106139               0.000773723               0.000000000               0.000000000               0.000000000               0.000000000               0.000078992               0.002995263               0.000014782              -0.000344785               0.001113339               0.000768554               0.000000000               0.000000000               0.000000000               0.000000000               0.000049414               0.003011121               0.000004580              -0.000357859               0.001122983               0.000765124               0.000000000               0.000000000               0.000000000               0.000000000               0.000022235               0.003031488               0.000000250              -0.000370597               0.001134018               0.000763421               0.000000000               0.000000000               0.000000000               0.000000000               0.000013836               0.003049283               0.000001099              -0.000375971               0.001141741               0.000765770               0.000000000               0.000000000               0.000000000               0.000000000               0.001010799               0.003977859               0.001502705              -0.000118184               0.001365334               0.001247150               0.000000000               0.000000000               0.000000000               0.000000000               0.000701380               0.003571175               0.001013047              -0.000183380               0.001251506               0.001068126               0.000000000               0.000000000               0.000000000               0.000000000               0.000535203               0.003377440               0.000517198              -0.000221479               0.001199628               0.000978150               0.000000000               0.000000000               0.000000000               0.000000000               0.000436591               0.003230878               0.000300079              -0.000240138               0.001156995               0.000916857               0.000000000               0.000000000               0.000000000               0.000000000               0.000367309               0.003129462               0.000191374              -0.000253441               0.001127624               0.000874183               0.000000000               0.000000000               0.000000000               0.000000000               0.000309719               0.003061192               0.000132373              -0.000266504               0.001109222               0.000842718               0.000000000               0.000000000               0.000000000               0.000000000               0.000262060               0.003015532               0.000099630              -0.000278668               0.001098057               0.000819388               0.000000000               0.000000000               0.000000000               0.000000000               0.000222550               0.002983819               0.000082436              -0.000289520               0.001091103               0.000801583               0.000000000               0.000000000               0.000000000               0.000000000               0.000187697               0.002964023               0.000073869              -0.000300116               0.001088036               0.000787921               0.000000000               0.000000000               0.000000000               0.000000000               0.000157361               0.002951884               0.000068049              -0.000309975               0.001087276               0.000777302               0.000000000               0.000000000               0.000000000               0.000000000               0.000127814               0.002945428               0.000060565              -0.000320247               0.001088549               0.000768301               0.000000000               0.000000000               0.000000000               0.000000000               0.000100584               0.002949554               0.000055665              -0.000330974               0.001093500               0.000762525               0.000000000               0.000000000               0.000000000               0.000000000               0.000074148               0.002959936               0.000048786              -0.000342186               0.001100697               0.000758512               0.000000000               0.000000000               0.000000000               0.000000000               0.000049411               0.002973039               0.000031841              -0.000353100               0.001108703               0.000755603               0.000000000               0.000000000               0.000000000               0.000000000               0.000029189               0.002988283               0.000014207              -0.000362589               0.001116947               0.000754359               0.000000000               0.000000000               0.000000000               0.000000000               0.000012730               0.003004421               0.000004424              -0.000370778               0.001125056               0.000754278               0.000000000               0.000000000               0.000000000               0.000000000               0.000007873               0.003015252               0.000002632              -0.000373953               0.001129725               0.000755772               0.000000000               0.000000000               0.000000000               0.000000000               0.001080953               0.003378143               0.001515057              -0.000016912               0.001131673               0.001114761               0.000000000               0.000000000               0.000000000               0.000000000               0.000707862               0.003175292               0.001054514              -0.000131464               0.001102241               0.000970777               0.000000000               0.000000000               0.000000000               0.000000000               0.000463629               0.003159162               0.000582649              -0.000221034               0.001126722               0.000905687               0.000000000               0.000000000               0.000000000               0.000000000               0.000355357               0.003086959               0.000371613              -0.000252610               0.001113180               0.000860569               0.000000000               0.000000000               0.000000000               0.000000000               0.000293669               0.003027870               0.000258617              -0.000268357               0.001098732               0.000830375               0.000000000               0.000000000               0.000000000               0.000000000               0.000246723               0.002984435               0.000194085              -0.000280533               0.001088313               0.000807780               0.000000000               0.000000000               0.000000000               0.000000000               0.000207461               0.002951075               0.000156661              -0.000291086               0.001080711               0.000789625               0.000000000               0.000000000               0.000000000               0.000000000               0.000176338               0.002927055               0.000133443              -0.000299755               0.001075594               0.000775839               0.000000000               0.000000000               0.000000000               0.000000000               0.000149410               0.002914966               0.000117220              -0.000308341               0.001074426               0.000766085               0.000000000               0.000000000               0.000000000               0.000000000               0.000128211               0.002912864               0.000104349              -0.000316028               0.001076288               0.000760260               0.000000000               0.000000000               0.000000000               0.000000000               0.000108912               0.002919439               0.000088475              -0.000324087               0.001081166               0.000757078               0.000000000               0.000000000               0.000000000               0.000000000               0.000086843               0.002931386               0.000074312              -0.000333856               0.001088404               0.000754548               0.000000000               0.000000000               0.000000000               0.000000000               0.000062555               0.002948298               0.000061798              -0.000345078               0.001097782               0.000752704               0.000000000               0.000000000               0.000000000               0.000000000               0.000039675               0.002966471               0.000042410              -0.000355930               0.001107457               0.000751527               0.000000000               0.000000000               0.000000000               0.000000000               0.000022642               0.002980470               0.000022204              -0.000364067               0.001114836               0.000750769               0.000000000               0.000000000               0.000000000               0.000000000               0.000010941               0.002987528               0.000009547              -0.000369337               0.001118945               0.000749608               0.000000000               0.000000000               0.000000000               0.000000000               0.000006473               0.002989262               0.000005617              -0.000371230               0.001120154               0.000748924               0.000000000               0.000000000               0.000000000               0.000000000               0.001105452               0.002801883               0.001442764               0.000064307               0.000912515               0.000976822               0.000000000               0.000000000               0.000000000               0.000000000               0.000695406               0.002798897               0.001053467              -0.000089086               0.000962651               0.000873565               0.000000000               0.000000000               0.000000000               0.000000000               0.000404299               0.002943065               0.000640029              -0.000216271               0.001053102               0.000836831               0.000000000               0.000000000               0.000000000               0.000000000               0.000300095               0.002944105               0.000439199              -0.000255477               0.001066517               0.000811040               0.000000000               0.000000000               0.000000000               0.000000000               0.000246870               0.002925758               0.000322296              -0.000273143               0.001066290               0.000793147               0.000000000               0.000000000               0.000000000               0.000000000               0.000209476               0.002905029               0.000252680              -0.000284575               0.001063192               0.000778617               0.000000000               0.000000000               0.000000000               0.000000000               0.000176721               0.002885434               0.000208689              -0.000294408               0.001059938               0.000765529               0.000000000               0.000000000               0.000000000               0.000000000               0.000153219               0.002875435               0.000175845              -0.000301971               0.001059126               0.000757154               0.000000000               0.000000000               0.000000000               0.000000000               0.000135465               0.002877149               0.000148463              -0.000308843               0.001061988               0.000753144               0.000000000               0.000000000               0.000000000               0.000000000               0.000120199               0.002888704               0.000125692              -0.000316013               0.001068229               0.000752217               0.000000000               0.000000000               0.000000000               0.000000000               0.000105336               0.002909716               0.000104445              -0.000324213               0.001077967               0.000753754               0.000000000               0.000000000               0.000000000               0.000000000               0.000085637               0.002932744               0.000084600              -0.000334478               0.001089064               0.000754586               0.000000000               0.000000000               0.000000000               0.000000000               0.000062852               0.002956977               0.000066354              -0.000346052               0.001101000               0.000754948               0.000000000               0.000000000               0.000000000               0.000000000               0.000040628               0.002975830               0.000045421              -0.000356743               0.001110848               0.000754105               0.000000000               0.000000000               0.000000000               0.000000000               0.000025082               0.002983853               0.000025308              -0.000363575               0.001115799               0.000752225               0.000000000               0.000000000               0.000000000               0.000000000               0.000012529               0.002980772               0.000011043              -0.000367897               0.001116213               0.000748316               0.000000000               0.000000000               0.000000000               0.000000000               0.000004998               0.002975138               0.000004535              -0.000370017               0.001115042               0.000745025               0.000000000               0.000000000               0.000000000               0.000000000               0.001099962               0.002294079               0.001313907               0.000125723               0.000722777               0.000848500               0.000000000               0.000000000               0.000000000               0.000000000               0.000687188               0.002458641               0.001032514              -0.000049636               0.000836084               0.000786448               0.000000000               0.000000000               0.000000000               0.000000000               0.000376689               0.002746643               0.000704470              -0.000202072               0.000982896               0.000780824               0.000000000               0.000000000               0.000000000               0.000000000               0.000281141               0.002821689               0.000511526              -0.000247283               0.001022981               0.000775698               0.000000000               0.000000000               0.000000000               0.000000000               0.000231003               0.002842234               0.000391204              -0.000268653               0.001036953               0.000768300               0.000000000               0.000000000               0.000000000               0.000000000               0.000197731               0.002846014               0.000314107              -0.000281602               0.001042529               0.000760927               0.000000000               0.000000000               0.000000000               0.000000000               0.000171998               0.002845582               0.000259606              -0.000291198               0.001045584               0.000754386               0.000000000               0.000000000               0.000000000               0.000000000               0.000153996               0.002851986               0.000217178              -0.000298749               0.001050236               0.000751486               0.000000000               0.000000000               0.000000000               0.000000000               0.000142920               0.002864630               0.000180038              -0.000304483               0.001056361               0.000751879               0.000000000               0.000000000               0.000000000               0.000000000               0.000131653               0.002885870               0.000148722              -0.000311363               0.001065735               0.000754372               0.000000000               0.000000000               0.000000000               0.000000000               0.000120283               0.002917718               0.000120135              -0.000319608               0.001079099               0.000759491               0.000000000               0.000000000               0.000000000               0.000000000               0.000103928               0.002951594               0.000093192              -0.000329976               0.001093847               0.000763871               0.000000000               0.000000000               0.000000000               0.000000000               0.000080728               0.002979452               0.000069870              -0.000342158               0.001107193               0.000765036               0.000000000               0.000000000               0.000000000               0.000000000               0.000055679               0.002995256               0.000048255              -0.000353526               0.001116251               0.000762724               0.000000000               0.000000000               0.000000000               0.000000000               0.000036516               0.002996929               0.000027100              -0.000360922               0.001119274               0.000758352               0.000000000               0.000000000               0.000000000               0.000000000               0.000018142               0.002987949               0.000009728              -0.000366690               0.001118203               0.000751513               0.000000000               0.000000000               0.000000000               0.000000000               0.000004534               0.002978544               0.000001380              -0.000370617               0.001116377               0.000745760               0.000000000               0.000000000               0.000000000               0.000000000               0.001054862               0.001797687               0.001159942               0.000170860               0.000542269               0.000713129               0.000000000               0.000000000               0.000000000               0.000000000               0.000695558               0.002065982               0.001004032               0.000002585               0.000687792               0.000690377               0.000000000               0.000000000               0.000000000               0.000000000               0.000391940               0.002463667               0.000783308              -0.000160981               0.000874874               0.000713893               0.000000000               0.000000000               0.000000000               0.000000000               0.000298094               0.002620806               0.000605584              -0.000215815               0.000945532               0.000729716               0.000000000               0.000000000               0.000000000               0.000000000               0.000252237               0.002696339               0.000481045              -0.000242453               0.000979588               0.000737135               0.000000000               0.000000000               0.000000000               0.000000000               0.000217806               0.002740731               0.000392374              -0.000260914               0.001000539               0.000739625               0.000000000               0.000000000               0.000000000               0.000000000               0.000191692               0.002768872               0.000327068              -0.000274224               0.001014356               0.000740132               0.000000000               0.000000000               0.000000000               0.000000000               0.000171573               0.002791191               0.000276936              -0.000284558               0.001025240               0.000740682               0.000000000               0.000000000               0.000000000               0.000000000               0.000161232               0.002814569               0.000234813              -0.000291359               0.001035300               0.000743941               0.000000000               0.000000000               0.000000000               0.000000000               0.000155329               0.002846072               0.000195913              -0.000297510               0.001047851               0.000750341               0.000000000               0.000000000               0.000000000               0.000000000               0.000144853               0.002887922               0.000157214              -0.000306670               0.001064854               0.000758185               0.000000000               0.000000000               0.000000000               0.000000000               0.000128265               0.002930439               0.000121106              -0.000318205               0.001082871               0.000764667               0.000000000               0.000000000               0.000000000               0.000000000               0.000105078               0.002964428               0.000090241              -0.000331149               0.001098516               0.000767367               0.000000000               0.000000000               0.000000000               0.000000000               0.000076011               0.002983337               0.000063291              -0.000344412               0.001109240               0.000764828               0.000000000               0.000000000               0.000000000               0.000000000               0.000045682               0.002988854               0.000036963              -0.000356475               0.001115100               0.000758625               0.000000000               0.000000000               0.000000000               0.000000000               0.000017677               0.002987110               0.000012969              -0.000366759               0.001117946               0.000751187               0.000000000               0.000000000               0.000000000               0.000000000              -0.000000433               0.002981193               0.000000500              -0.000372811               0.001117991               0.000745181               0.000000000               0.000000000               0.000000000               0.000000000               0.000952433               0.001330806               0.000980353               0.000190809               0.000379994               0.000570803               0.000000000               0.000000000               0.000000000               0.000000000               0.000701431               0.001675033               0.000948536               0.000053656               0.000540453               0.000594109               0.000000000               0.000000000               0.000000000               0.000000000               0.000442162               0.002146876               0.000843955              -0.000102550               0.000749801               0.000647251               0.000000000               0.000000000               0.000000000               0.000000000               0.000349381               0.002381272               0.000697902              -0.000166641               0.000849296               0.000682655               0.000000000               0.000000000               0.000000000               0.000000000               0.000300297               0.002518263               0.000574886              -0.000202171               0.000906803               0.000704632               0.000000000               0.000000000               0.000000000               0.000000000               0.000263537               0.002610745               0.000479361              -0.000227517               0.000946078               0.000718562               0.000000000               0.000000000               0.000000000               0.000000000               0.000231895               0.002673047               0.000405817              -0.000247170               0.000973397               0.000726227               0.000000000               0.000000000               0.000000000               0.000000000               0.000207746               0.002718761               0.000350591              -0.000261940               0.000993558               0.000731618               0.000000000               0.000000000               0.000000000               0.000000000               0.000192584               0.002757894               0.000305825              -0.000272517               0.001010128               0.000737611               0.000000000               0.000000000               0.000000000               0.000000000               0.000185197               0.002802504               0.000260397              -0.000280864               0.001027780               0.000746916               0.000000000               0.000000000               0.000000000               0.000000000               0.000175264               0.002854959               0.000211575              -0.000291145               0.001048692               0.000757547               0.000000000               0.000000000               0.000000000               0.000000000               0.000158078               0.002905630               0.000167068              -0.000303924               0.001069842               0.000765918               0.000000000               0.000000000               0.000000000               0.000000000               0.000133398               0.002943231               0.000128674              -0.000317879               0.001087027               0.000769148               0.000000000               0.000000000               0.000000000               0.000000000               0.000101455               0.002966281               0.000094009              -0.000332739               0.001099664               0.000766925               0.000000000               0.000000000               0.000000000               0.000000000               0.000064831               0.002978753               0.000059029              -0.000348032               0.001108918               0.000760887               0.000000000               0.000000000               0.000000000               0.000000000               0.000024083               0.002983312               0.000025209              -0.000363882               0.001115721               0.000751839               0.000000000               0.000000000               0.000000000               0.000000000              -0.000006366               0.002977527               0.000005899              -0.000374577               0.001117358               0.000742781               0.000000000               0.000000000               0.000000000               0.000000000               0.000797228               0.000918256               0.000777548               0.000184176               0.000244690               0.000428866               0.000000000               0.000000000               0.000000000               0.000000000               0.000682484               0.001296665               0.000849098               0.000093847               0.000400934               0.000494781               0.000000000               0.000000000               0.000000000               0.000000000               0.000505634               0.001794048               0.000849841              -0.000034644               0.000609558               0.000574913               0.000000000               0.000000000               0.000000000               0.000000000               0.000426101               0.002089110               0.000747361              -0.000101351               0.000730147               0.000628795               0.000000000               0.000000000               0.000000000               0.000000000               0.000377361               0.002285354               0.000638001              -0.000144159               0.000809830               0.000665671               0.000000000               0.000000000               0.000000000               0.000000000               0.000337181               0.002429325               0.000544783              -0.000177223               0.000868841               0.000691618               0.000000000               0.000000000               0.000000000               0.000000000               0.000299936               0.002530948               0.000470265              -0.000203892               0.000911605               0.000707713               0.000000000               0.000000000               0.000000000               0.000000000               0.000267582               0.002607510               0.000414223              -0.000225595               0.000944359               0.000718764               0.000000000               0.000000000               0.000000000               0.000000000               0.000244406               0.002674797               0.000367163              -0.000242697               0.000972489               0.000729792               0.000000000               0.000000000               0.000000000               0.000000000               0.000228791               0.002737596               0.000318355              -0.000256402               0.000997990               0.000741588               0.000000000               0.000000000               0.000000000               0.000000000               0.000216541               0.002801329               0.000264727              -0.000268963               0.001023421               0.000754459               0.000000000               0.000000000               0.000000000               0.000000000               0.000198814               0.002864342               0.000215547              -0.000283487               0.001049267               0.000765780               0.000000000               0.000000000               0.000000000               0.000000000               0.000172628               0.002912309               0.000173194              -0.000299303               0.001070528               0.000771225               0.000000000               0.000000000               0.000000000               0.000000000               0.000141040               0.002944953               0.000134498              -0.000315228               0.001086717               0.000771489               0.000000000               0.000000000               0.000000000               0.000000000               0.000099439               0.002962287               0.000091229              -0.000332995               0.001098418               0.000765422               0.000000000               0.000000000               0.000000000               0.000000000               0.000047317               0.002974303               0.000043224              -0.000354043               0.001109439               0.000755396               0.000000000               0.000000000               0.000000000               0.000000000               0.000003742               0.002971201               0.000013801              -0.000369996               0.001113722               0.000743727               0.000000000               0.000000000               0.000000000               0.000000000               0.000606595               0.000584696               0.000571695               0.000154384               0.000143435               0.000297819               0.000000000               0.000000000               0.000000000               0.000000000               0.000641888               0.000951985               0.000712487               0.000121708               0.000276755               0.000398463               0.000000000               0.000000000               0.000000000               0.000000000               0.000575476               0.001433007               0.000791636               0.000036676               0.000465439               0.000502115               0.000000000               0.000000000               0.000000000               0.000000000               0.000523085               0.001763493               0.000734596              -0.000024281               0.000595919               0.000571638               0.000000000               0.000000000               0.000000000               0.000000000               0.000480728               0.002008064               0.000648157              -0.000070735               0.000692926               0.000622191               0.000000000               0.000000000               0.000000000               0.000000000               0.000436749               0.002197540               0.000565536              -0.000110912               0.000769476               0.000658565               0.000000000               0.000000000               0.000000000               0.000000000               0.000395573               0.002342363               0.000497503              -0.000144455               0.000828931               0.000684476               0.000000000               0.000000000               0.000000000               0.000000000               0.000353277               0.002453355               0.000443980              -0.000174190               0.000875840               0.000701650               0.000000000               0.000000000               0.000000000               0.000000000               0.000319256               0.002548452               0.000398581              -0.000198835               0.000915754               0.000716919               0.000000000               0.000000000               0.000000000               0.000000000               0.000295715               0.002636120               0.000350649              -0.000218622               0.000951572               0.000732950               0.000000000               0.000000000               0.000000000               0.000000000               0.000280432               0.002721585               0.000297706              -0.000235036               0.000985531               0.000750495               0.000000000               0.000000000               0.000000000               0.000000000               0.000262940               0.002799977               0.000247225              -0.000251394               0.001017114               0.000765720               0.000000000               0.000000000               0.000000000               0.000000000               0.000237655               0.002862315               0.000206247              -0.000268668               0.001043652               0.000774983               0.000000000               0.000000000               0.000000000               0.000000000               0.000206367               0.002909140               0.000166913              -0.000286254               0.001065122               0.000778867               0.000000000               0.000000000               0.000000000               0.000000000               0.000166283               0.002941051               0.000117587              -0.000305275               0.001082099               0.000776824               0.000000000               0.000000000               0.000000000               0.000000000               0.000116015               0.002966116               0.000059842              -0.000327258               0.001097781               0.000770523               0.000000000               0.000000000               0.000000000               0.000000000               0.000072008               0.002967910               0.000024706              -0.000343985               0.001103955               0.000759970               0.000000000               0.000000000               0.000000000               0.000000000               0.000410046               0.000341423               0.000383811               0.000111088               0.000076777               0.000187865               0.000000000               0.000000000               0.000000000               0.000000000               0.000590473               0.000664037               0.000548617               0.000138421               0.000175203               0.000313624               0.000000000               0.000000000               0.000000000               0.000000000               0.000642797               0.001095330               0.000667782               0.000104131               0.000330396               0.000434527               0.000000000               0.000000000               0.000000000               0.000000000               0.000629215               0.001440752               0.000647909               0.000055860               0.000461626               0.000517486               0.000000000               0.000000000               0.000000000               0.000000000               0.000598322               0.001717323               0.000587382               0.000009705               0.000569200               0.000578905               0.000000000               0.000000000               0.000000000               0.000000000               0.000557591               0.001944711               0.000522763              -0.000033993               0.000659561               0.000625569               0.000000000               0.000000000               0.000000000               0.000000000               0.000512309               0.002125796               0.000466724              -0.000073609               0.000733128               0.000659519               0.000000000               0.000000000               0.000000000               0.000000000               0.000463299               0.002265047               0.000420497              -0.000109394               0.000791473               0.000682079               0.000000000               0.000000000               0.000000000               0.000000000               0.000416677               0.002389874               0.000381738              -0.000142480               0.000844110               0.000701630               0.000000000               0.000000000               0.000000000               0.000000000               0.000380583               0.002509392               0.000340625              -0.000170955               0.000893441               0.000722486               0.000000000               0.000000000               0.000000000               0.000000000               0.000357280               0.002619596               0.000293718              -0.000193469               0.000937680               0.000744210               0.000000000               0.000000000               0.000000000               0.000000000               0.000338614               0.002714112               0.000246947              -0.000212283               0.000975456               0.000763173               0.000000000               0.000000000               0.000000000               0.000000000               0.000313486               0.002795826               0.000207383              -0.000231920               0.001009239               0.000777319               0.000000000               0.000000000               0.000000000               0.000000000               0.000282258               0.002863669               0.000171297              -0.000252111               0.001038584               0.000786472               0.000000000               0.000000000               0.000000000               0.000000000               0.000252716               0.002914637               0.000126917              -0.000269560               0.001061389               0.000791829               0.000000000               0.000000000               0.000000000               0.000000000               0.000222463               0.002954767               0.000068037              -0.000285922               0.001080220               0.000794298               0.000000000               0.000000000               0.000000000               0.000000000               0.000194510               0.002966005               0.000032371              -0.000297808               0.001087928               0.000790119               0.000000000               0.000000000               0.000000000               0.000000000               0.000233275               0.000176932               0.000229588               0.000065361               0.000037190               0.000102550               0.000000000               0.000000000               0.000000000               0.000000000               0.000538185               0.000447631               0.000370125               0.000145864               0.000100587               0.000246451               0.000000000               0.000000000               0.000000000               0.000000000               0.000699098               0.000821072               0.000482054               0.000159526               0.000220512               0.000380038               0.000000000               0.000000000               0.000000000               0.000000000               0.000727425               0.001163298               0.000485094               0.000127371               0.000345305               0.000472676               0.000000000               0.000000000               0.000000000               0.000000000               0.000710249               0.001455433               0.000449255               0.000084413               0.000457002               0.000541415               0.000000000               0.000000000               0.000000000               0.000000000               0.000674613               0.001706374               0.000405529               0.000039683               0.000555558               0.000595241               0.000000000               0.000000000               0.000000000               0.000000000               0.000626190               0.001913317               0.000366243              -0.000004344               0.000639214               0.000634870               0.000000000               0.000000000               0.000000000               0.000000000               0.000573645               0.002085669               0.000333193              -0.000045592               0.000710413               0.000664821               0.000000000               0.000000000               0.000000000               0.000000000               0.000518471               0.002241702               0.000304502              -0.000085786               0.000775822               0.000690036               0.000000000               0.000000000               0.000000000               0.000000000               0.000467382               0.002385284               0.000276202              -0.000122892               0.000836051               0.000713159               0.000000000               0.000000000               0.000000000               0.000000000               0.000431679               0.002516229               0.000243602              -0.000152649               0.000889617               0.000736969               0.000000000               0.000000000               0.000000000               0.000000000               0.000405881               0.002631599               0.000203466              -0.000176744               0.000936105               0.000759361               0.000000000               0.000000000               0.000000000               0.000000000               0.000380752               0.002734280               0.000167280              -0.000199003               0.000977752               0.000778749               0.000000000               0.000000000               0.000000000               0.000000000               0.000360449               0.002821594               0.000142754              -0.000217530               0.001013032               0.000795502               0.000000000               0.000000000               0.000000000               0.000000000               0.000346580               0.002887393               0.000114058              -0.000230956               0.001039440               0.000808484               0.000000000               0.000000000               0.000000000               0.000000000               0.000339872               0.002938904               0.000064998              -0.000239910               0.001059595               0.000819685               0.000000000               0.000000000               0.000000000               0.000000000               0.000334393               0.002960222               0.000033755              -0.000244630               0.001068274               0.000823644               0.000000000               0.000000000               0.000000000               0.000000000               0.000106755               0.000082055               0.000104967               0.000029776               0.000017426               0.000047202               0.000000000               0.000000000               0.000000000               0.000000000               0.000493878               0.000310088               0.000185637               0.000146442               0.000054548               0.000200989               0.000000000               0.000000000               0.000000000               0.000000000               0.000733618               0.000638457               0.000252445               0.000195298               0.000147718               0.000343015               0.000000000               0.000000000               0.000000000               0.000000000               0.000795035               0.000974447               0.000260068               0.000176331               0.000266035               0.000442366               0.000000000               0.000000000               0.000000000               0.000000000               0.000786784               0.001271621               0.000244158               0.000136090               0.000378506               0.000514596               0.000000000               0.000000000               0.000000000               0.000000000               0.000754066               0.001532088               0.000221444               0.000091263               0.000480270               0.000571533               0.000000000               0.000000000               0.000000000               0.000000000               0.000707614               0.001762201               0.000201831               0.000045080               0.000572368               0.000617448               0.000000000               0.000000000               0.000000000               0.000000000               0.000653129               0.001963969               0.000186429              -0.000000573               0.000654841               0.000654268               0.000000000               0.000000000               0.000000000               0.000000000               0.000594149               0.002136883               0.000171209              -0.000044304               0.000727055               0.000682751               0.000000000               0.000000000               0.000000000               0.000000000               0.000536256               0.002289555               0.000157752              -0.000085098               0.000791543               0.000706445               0.000000000               0.000000000               0.000000000               0.000000000               0.000487072               0.002432751               0.000140820              -0.000121442               0.000851390               0.000729948               0.000000000               0.000000000               0.000000000               0.000000000               0.000453492               0.002566246               0.000113777              -0.000150721               0.000905647               0.000754926               0.000000000               0.000000000               0.000000000               0.000000000               0.000437303               0.002685723               0.000092234              -0.000171726               0.000952474               0.000780748               0.000000000               0.000000000               0.000000000               0.000000000               0.000430823               0.002789049               0.000082638              -0.000187072               0.000992031               0.000804959               0.000000000               0.000000000               0.000000000               0.000000000               0.000428092               0.002872878               0.000069637              -0.000198575               0.001023808               0.000825233               0.000000000               0.000000000               0.000000000               0.000000000               0.000435929               0.002934778               0.000041218              -0.000203373               0.001046041               0.000842667               0.000000000               0.000000000               0.000000000               0.000000000               0.000449258               0.002962118               0.000022379              -0.000201793               0.001054627               0.000852834               0.000000000               0.000000000               0.000000000               0.000000000               0.000061179               0.000052770               0.000000000               0.000016346               0.000012141               0.000028487               0.000000000               0.000000000               0.000000000               0.000000000               0.000476339               0.000264063              -0.000000000               0.000145618               0.000039481               0.000185099               0.000000000               0.000000000               0.000000000               0.000000000               0.000745047               0.000575606              -0.000000000               0.000207440               0.000122720               0.000330160               0.000000000               0.000000000               0.000000000               0.000000000               0.000817316               0.000908098              -0.000000000               0.000192979               0.000238370               0.000431349               0.000000000               0.000000000               0.000000000               0.000000000               0.000811575               0.001203841               0.000000000               0.000153859               0.000349990               0.000503849               0.000000000               0.000000000               0.000000000               0.000000000               0.000780120               0.001465923              -0.000000000               0.000109304               0.000452202               0.000561505               0.000000000               0.000000000               0.000000000               0.000000000               0.000737587               0.001709912               0.000000000               0.000062855               0.000549013               0.000611869               0.000000000               0.000000000               0.000000000               0.000000000               0.000683410               0.001924014               0.000000000               0.000015777               0.000636073               0.000651850               0.000000000               0.000000000               0.000000000               0.000000000               0.000622254               0.002097714               0.000000000              -0.000028869               0.000708854               0.000679985               0.000000000               0.000000000               0.000000000               0.000000000               0.000562763               0.002250907               0.000000000              -0.000070327               0.000773737               0.000703410               0.000000000               0.000000000               0.000000000               0.000000000               0.000507025               0.002398049               0.000000000              -0.000109621               0.000835882               0.000726261               0.000000000               0.000000000               0.000000000               0.000000000               0.000472226               0.002538621              -0.000000000              -0.000140243               0.000892946               0.000752703               0.000000000               0.000000000               0.000000000               0.000000000               0.000463785               0.002665705              -0.000000000              -0.000159293               0.000941657               0.000782364               0.000000000               0.000000000               0.000000000               0.000000000               0.000461310               0.002776761               0.000000000              -0.000174104               0.000983612               0.000809509               0.000000000               0.000000000               0.000000000               0.000000000               0.000460597               0.002871763               0.000000000              -0.000186246               0.001019327               0.000833081               0.000000000               0.000000000               0.000000000               0.000000000               0.000472555               0.002939354              -0.000000000              -0.000190211               0.001043178               0.000852968               0.000000000               0.000000000               0.000000000               0.000000000               0.000493548               0.002968161               0.000000000              -0.000185939               0.001051357               0.000865418               0.000000000               0.000000000               0.000000000               0.000000000               0.000496048               0.005892632               0.000000000              -0.000550560               0.002147711               0.001597151               0.000000000               0.000000000               0.000000000               0.000000000               0.000550609               0.004900746              -0.000000000              -0.000406114               0.001768937               0.001362823               0.000000000               0.000000000               0.000000000               0.000000000               0.000770413               0.004095490              -0.000000000              -0.000223031               0.001439493               0.001216463               0.000000000               0.000000000               0.000000000               0.000000000               0.000800780               0.003651861              -0.000000000              -0.000156190               0.001269338               0.001113148               0.000000000               0.000000000               0.000000000               0.000000000               0.000755321               0.003394503               0.000000000              -0.000141067               0.001178512               0.001037445               0.000000000               0.000000000               0.000000000               0.000000000               0.000686140               0.003236000               0.000000000              -0.000147197               0.001127722               0.000980525               0.000000000               0.000000000               0.000000000               0.000000000               0.000613450               0.003137391              -0.000000000              -0.000162130               0.001099830               0.000937700               0.000000000               0.000000000               0.000000000               0.000000000               0.000541191               0.003075281              -0.000000000              -0.000181463               0.001085571               0.000904108               0.000000000               0.000000000               0.000000000               0.000000000               0.000475239               0.003037178               0.000000000              -0.000201432               0.001079527               0.000878095               0.000000000               0.000000000               0.000000000               0.000000000               0.000415072               0.003018109              -0.000000000              -0.000221611               0.001079897               0.000858286               0.000000000               0.000000000               0.000000000               0.000000000               0.000357621               0.003011007               0.000000000              -0.000242268               0.001084415               0.000842147               0.000000000               0.000000000               0.000000000               0.000000000               0.000301974               0.003010505              -0.000000000              -0.000263072               0.001091183               0.000828110               0.000000000               0.000000000               0.000000000               0.000000000               0.000246161               0.003014208              -0.000000000              -0.000284465               0.001099548               0.000815083               0.000000000               0.000000000               0.000000000               0.000000000               0.000187857               0.003021782              -0.000000000              -0.000307276               0.001109676               0.000802400               0.000000000               0.000000000               0.000000000               0.000000000               0.000125802               0.003027768              -0.000000000              -0.000331295               0.001119678               0.000788383               0.000000000               0.000000000               0.000000000               0.000000000               0.000063081               0.003031965               0.000000000              -0.000355339               0.001129091               0.000773752               0.000000000               0.000000000               0.000000000               0.000000000               0.000033075               0.003035681               0.000000000              -0.000367056               0.001134235               0.000767179               0.000000000               0.000000000               0.000000000               0.000000000               0.000531073               0.005796703              -0.000449832              -0.000525434               0.002107360               0.001581926               0.000000000               0.000000000               0.000000000               0.000000000               0.000564203               0.004829218              -0.000293980              -0.000392075               0.001740415               0.001348340               0.000000000               0.000000000               0.000000000               0.000000000               0.000760716               0.004056450              -0.000130522              -0.000221787               0.001426065               0.001204278               0.000000000               0.000000000               0.000000000               0.000000000               0.000779644               0.003631313              -0.000051476              -0.000161547               0.001264275               0.001102728               0.000000000               0.000000000               0.000000000               0.000000000               0.000729399               0.003380194              -0.000013302              -0.000148999               0.001176387               0.001027387               0.000000000               0.000000000               0.000000000               0.000000000               0.000658884               0.003226582               0.000005101              -0.000156241               0.001127597               0.000971356               0.000000000               0.000000000               0.000000000               0.000000000               0.000587591               0.003130982               0.000014548              -0.000171026               0.001100659               0.000929633               0.000000000               0.000000000               0.000000000               0.000000000               0.000517311               0.003070531               0.000018392              -0.000189824               0.001086775               0.000896951               0.000000000               0.000000000               0.000000000               0.000000000               0.000452186               0.003034359               0.000019692              -0.000209725               0.001081351               0.000871627               0.000000000               0.000000000               0.000000000               0.000000000               0.000392766               0.003015808               0.000020208              -0.000229688               0.001081822               0.000852134               0.000000000               0.000000000               0.000000000               0.000000000               0.000337877               0.003010369               0.000018057              -0.000249592               0.001086643               0.000837052               0.000000000               0.000000000               0.000000000               0.000000000               0.000286049               0.003009500               0.000015340              -0.000268918               0.001092796               0.000823878               0.000000000               0.000000000               0.000000000               0.000000000               0.000234579               0.003013958               0.000015505              -0.000288777               0.001100902               0.000812125               0.000000000               0.000000000               0.000000000               0.000000000               0.000180066               0.003023059               0.000014997              -0.000310357               0.001111129               0.000800772               0.000000000               0.000000000               0.000000000               0.000000000               0.000121103               0.003033845               0.000012425              -0.000333816               0.001122543               0.000788727               0.000000000               0.000000000               0.000000000               0.000000000               0.000060212               0.003043975               0.000007268              -0.000357916               0.001133954               0.000776037               0.000000000               0.000000000               0.000000000               0.000000000               0.000032361               0.003054066               0.000002584              -0.000369622               0.001141219               0.000771597               0.000000000               0.000000000               0.000000000               0.000000000               0.000624032               0.005519522              -0.000852809              -0.000455927               0.001991798               0.001535871               0.000000000               0.000000000               0.000000000               0.000000000               0.000596930               0.004629192              -0.000557244              -0.000354800               0.001661315               0.001306515               0.000000000               0.000000000               0.000000000               0.000000000               0.000729648               0.003947061              -0.000250964              -0.000219764               0.001388929               0.001169164               0.000000000               0.000000000               0.000000000               0.000000000               0.000718721               0.003569273              -0.000106989              -0.000176639               0.001248625               0.001071987               0.000000000               0.000000000               0.000000000               0.000000000               0.000658837               0.003341331              -0.000036022              -0.000170602               0.001170633               0.001000031               0.000000000               0.000000000               0.000000000               0.000000000               0.000590274               0.003202873              -0.000000562              -0.000179006               0.001127282               0.000948277               0.000000000               0.000000000               0.000000000               0.000000000               0.000522106               0.003117549               0.000016217              -0.000193903               0.001103807               0.000909904               0.000000000               0.000000000               0.000000000               0.000000000               0.000454783               0.003064468               0.000022680              -0.000212514               0.001092317               0.000879803               0.000000000               0.000000000               0.000000000               0.000000000               0.000393539               0.003033836               0.000024276              -0.000231652               0.001088486               0.000856834               0.000000000               0.000000000               0.000000000               0.000000000               0.000338531               0.003017645               0.000026044              -0.000250256               0.001089290               0.000839035               0.000000000               0.000000000               0.000000000               0.000000000               0.000289455               0.003011931               0.000023066              -0.000267945               0.001093282               0.000825337               0.000000000               0.000000000               0.000000000               0.000000000               0.000245975               0.003012707               0.000017581              -0.000284347               0.001099008               0.000814661               0.000000000               0.000000000               0.000000000               0.000000000               0.000202194               0.003017664               0.000017853              -0.000301385               0.001106340               0.000804955               0.000000000               0.000000000               0.000000000               0.000000000               0.000155089               0.003028269               0.000018768              -0.000320375               0.001116204               0.000795830               0.000000000               0.000000000               0.000000000               0.000000000               0.000103587               0.003044584               0.000016184              -0.000341727               0.001128760               0.000787033               0.000000000               0.000000000               0.000000000               0.000000000               0.000050325               0.003064915               0.000009870              -0.000364242               0.001143042               0.000778800               0.000000000               0.000000000               0.000000000               0.000000000               0.000028039               0.003084316               0.000004195              -0.000375024               0.001153103               0.000778079               0.000000000               0.000000000               0.000000000               0.000000000               0.000755097               0.005092169              -0.001175037              -0.000353360               0.001815159               0.001461799               0.000000000               0.000000000               0.000000000               0.000000000               0.000637541               0.004329795              -0.000769845              -0.000302146               0.001543966               0.001241820               0.000000000               0.000000000               0.000000000               0.000000000               0.000676797               0.003784965              -0.000355177              -0.000219321               0.001334750               0.001115428               0.000000000               0.000000000               0.000000000               0.000000000               0.000633357               0.003476933              -0.000166275              -0.000197107               0.001224669               0.001027561               0.000000000               0.000000000               0.000000000               0.000000000               0.000565267               0.003289423              -0.000073350              -0.000199202               0.001162864               0.000963662               0.000000000               0.000000000               0.000000000               0.000000000               0.000496134               0.003172261              -0.000026583              -0.000210482               0.001127570               0.000917088               0.000000000               0.000000000               0.000000000               0.000000000               0.000432469               0.003100212              -0.000004962              -0.000225350               0.001108510               0.000883160               0.000000000               0.000000000               0.000000000               0.000000000               0.000372889               0.003056362               0.000003582              -0.000242211               0.001099514               0.000857303               0.000000000               0.000000000               0.000000000               0.000000000               0.000321375               0.003029493               0.000006779              -0.000258171               0.001095878               0.000837707               0.000000000               0.000000000               0.000000000               0.000000000               0.000276256               0.003014863               0.000008761              -0.000273261               0.001096031               0.000822770               0.000000000               0.000000000               0.000000000               0.000000000               0.000232171               0.003006784               0.000006907              -0.000288783               0.001098512               0.000809729               0.000000000               0.000000000               0.000000000               0.000000000               0.000192629               0.003007116               0.000000983              -0.000303653               0.001103580               0.000799927               0.000000000               0.000000000               0.000000000               0.000000000               0.000155167               0.003010922               0.000001129              -0.000318177               0.001109690               0.000791513               0.000000000               0.000000000               0.000000000               0.000000000               0.000116901               0.003020601               0.000006220              -0.000333736               0.001118102               0.000784366               0.000000000               0.000000000               0.000000000               0.000000000               0.000077075               0.003038007               0.000008601              -0.000350847               0.001129608               0.000778761               0.000000000               0.000000000               0.000000000               0.000000000               0.000036872               0.003061210               0.000006425              -0.000368823               0.001143334               0.000774511               0.000000000               0.000000000               0.000000000               0.000000000               0.000021349               0.003082430               0.000001994              -0.000377297               0.001153232               0.000775935               0.000000000               0.000000000               0.000000000               0.000000000               0.000896306               0.004562403              -0.001393155              -0.000234186               0.001598848               0.001364661               0.000000000               0.000000000               0.000000000               0.000000000               0.000676642               0.003965087              -0.000921091              -0.000241895               0.001402314               0.001160419               0.000000000               0.000000000               0.000000000               0.000000000               0.000608715               0.003589539              -0.000442612              -0.000220424               0.001269976               0.001049552               0.000000000               0.000000000               0.000000000               0.000000000               0.000534499               0.003364210              -0.000230666              -0.000220089               0.001194755               0.000974666               0.000000000               0.000000000               0.000000000               0.000000000               0.000464208               0.003221187              -0.000127178              -0.000228570               0.001149908               0.000921339               0.000000000               0.000000000               0.000000000               0.000000000               0.000397111               0.003127728              -0.000074235              -0.000242049               0.001123249               0.000881200               0.000000000               0.000000000               0.000000000               0.000000000               0.000339383               0.003068414              -0.000046878              -0.000256283               0.001108222               0.000851940               0.000000000               0.000000000               0.000000000               0.000000000               0.000290552               0.003030102              -0.000034060              -0.000269805               0.001099959               0.000830154               0.000000000               0.000000000               0.000000000               0.000000000               0.000247806               0.003005511              -0.000028775              -0.000282761               0.001096081               0.000813320               0.000000000               0.000000000               0.000000000               0.000000000               0.000209796               0.002990149              -0.000025464              -0.000295094               0.001095071               0.000799977               0.000000000               0.000000000               0.000000000               0.000000000               0.000174344               0.002981531              -0.000024915              -0.000307312               0.001096271               0.000788959               0.000000000               0.000000000               0.000000000               0.000000000               0.000140641               0.002980994              -0.000028572              -0.000319883               0.001100283               0.000780399               0.000000000               0.000000000               0.000000000               0.000000000               0.000108897               0.002986031              -0.000026596              -0.000332417               0.001106139               0.000773723               0.000000000               0.000000000               0.000000000               0.000000000               0.000078992               0.002995263              -0.000014782              -0.000344785               0.001113339               0.000768554               0.000000000               0.000000000               0.000000000               0.000000000               0.000049414               0.003011121              -0.000004580              -0.000357859               0.001122983               0.000765124               0.000000000               0.000000000               0.000000000               0.000000000               0.000022235               0.003031488              -0.000000250              -0.000370597               0.001134018               0.000763421               0.000000000               0.000000000               0.000000000               0.000000000               0.000013836               0.003049283              -0.000001099              -0.000375971               0.001141741               0.000765770               0.000000000               0.000000000               0.000000000               0.000000000               0.001010799               0.003977859              -0.001502705              -0.000118184               0.001365334               0.001247150               0.000000000               0.000000000               0.000000000               0.000000000               0.000701380               0.003571175              -0.001013047              -0.000183380               0.001251506               0.001068126               0.000000000               0.000000000               0.000000000               0.000000000               0.000535203               0.003377440              -0.000517198              -0.000221479               0.001199628               0.000978150               0.000000000               0.000000000               0.000000000               0.000000000               0.000436591               0.003230878              -0.000300079              -0.000240138               0.001156995               0.000916857               0.000000000               0.000000000               0.000000000               0.000000000               0.000367309               0.003129462              -0.000191374              -0.000253441               0.001127624               0.000874183               0.000000000               0.000000000               0.000000000               0.000000000               0.000309719               0.003061192              -0.000132373              -0.000266504               0.001109222               0.000842718               0.000000000               0.000000000               0.000000000               0.000000000               0.000262060               0.003015532              -0.000099630              -0.000278668               0.001098057               0.000819388               0.000000000               0.000000000               0.000000000               0.000000000               0.000222550               0.002983819              -0.000082436              -0.000289520               0.001091103               0.000801583               0.000000000               0.000000000               0.000000000               0.000000000               0.000187697               0.002964023              -0.000073869              -0.000300116               0.001088036               0.000787921               0.000000000               0.000000000               0.000000000               0.000000000               0.000157361               0.002951884              -0.000068049              -0.000309975               0.001087276               0.000777302               0.000000000               0.000000000               0.000000000               0.000000000               0.000127814               0.002945428              -0.000060565              -0.000320247               0.001088549               0.000768301               0.000000000               0.000000000               0.000000000               0.000000000               0.000100584               0.002949554              -0.000055665              -0.000330974               0.001093500               0.000762525               0.000000000               0.000000000               0.000000000               0.000000000               0.000074148               0.002959936              -0.000048786              -0.000342186               0.001100697               0.000758512               0.000000000               0.000000000               0.000000000               0.000000000               0.000049411               0.002973039              -0.000031841              -0.000353100               0.001108703               0.000755603               0.000000000               0.000000000               0.000000000               0.000000000               0.000029189               0.002988283              -0.000014207              -0.000362589               0.001116947               0.000754359               0.000000000               0.000000000               0.000000000               0.000000000               0.000012730               0.003004421              -0.000004424              -0.000370778               0.001125056               0.000754278               0.000000000               0.000000000               0.000000000               0.000000000               0.000007873               0.003015252              -0.000002632              -0.000373953               0.001129725               0.000755772               0.000000000               0.000000000               0.000000000               0.000000000               0.001080953               0.003378143              -0.001515057              -0.000016912               0.001131673               0.001114761               0.000000000               0.000000000               0.000000000               0.000000000               0.000707862               0.003175292              -0.001054514              -0.000131464               0.001102241               0.000970777               0.000000000               0.000000000               0.000000000               0.000000000               0.000463629               0.003159162              -0.000582649              -0.000221034               0.001126722               0.000905687               0.000000000               0.000000000               0.000000000               0.000000000               0.000355357               0.003086959              -0.000371613              -0.000252610               0.001113180               0.000860569               0.000000000               0.000000000               0.000000000               0.000000000               0.000293669               0.003027870              -0.000258617              -0.000268357               0.001098732               0.000830375               0.000000000               0.000000000               0.000000000               0.000000000               0.000246723               0.002984435              -0.000194085              -0.000280533               0.001088313               0.000807780               0.000000000               0.000000000               0.000000000               0.000000000               0.000207461               0.002951075              -0.000156661              -0.000291086               0.001080711               0.000789625               0.000000000               0.000000000               0.000000000               0.000000000               0.000176338               0.002927055              -0.000133443              -0.000299755               0.001075594               0.000775839               0.000000000               0.000000000               0.000000000               0.000000000               0.000149410               0.002914966              -0.000117220              -0.000308341               0.001074426               0.000766085               0.000000000               0.000000000               0.000000000               0.000000000               0.000128211               0.002912864              -0.000104349              -0.000316028               0.001076288               0.000760260               0.000000000               0.000000000               0.000000000               0.000000000               0.000108912               0.002919439              -0.000088475              -0.000324087               0.001081166               0.000757078               0.000000000               0.000000000               0.000000000               0.000000000               0.000086843               0.002931386              -0.000074312              -0.000333856               0.001088404               0.000754548               0.000000000               0.000000000               0.000000000               0.000000000               0.000062555               0.002948298              -0.000061798              -0.000345078               0.001097782               0.000752704               0.000000000               0.000000000               0.000000000               0.000000000               0.000039675               0.002966471              -0.000042410              -0.000355930               0.001107457               0.000751527               0.000000000               0.000000000               0.000000000               0.000000000               0.000022642               0.002980470              -0.000022204              -0.000364067               0.001114836               0.000750769               0.000000000               0.000000000               0.000000000               0.000000000               0.000010941               0.002987528              -0.000009547              -0.000369337               0.001118945               0.000749608               0.000000000               0.000000000               0.000000000               0.000000000               0.000006473               0.002989262              -0.000005617              -0.000371230               0.001120154               0.000748924               0.000000000               0.000000000               0.000000000               0.000000000               0.001105452               0.002801883              -0.001442764               0.000064307               0.000912515               0.000976822               0.000000000               0.000000000               0.000000000               0.000000000               0.000695406               0.002798897              -0.001053467              -0.000089086               0.000962651               0.000873565               0.000000000               0.000000000               0.000000000               0.000000000               0.000404299               0.002943065              -0.000640029              -0.000216271               0.001053102               0.000836831               0.000000000               0.000000000               0.000000000               0.000000000               0.000300095               0.002944105              -0.000439199              -0.000255477               0.001066517               0.000811040               0.000000000               0.000000000               0.000000000               0.000000000               0.000246870               0.002925758              -0.000322296              -0.000273143               0.001066290               0.000793147               0.000000000               0.000000000               0.000000000               0.000000000               0.000209476               0.002905029              -0.000252680              -0.000284575               0.001063192               0.000778617               0.000000000               0.000000000               0.000000000               0.000000000               0.000176721               0.002885434              -0.000208689              -0.000294408               0.001059938               0.000765529               0.000000000               0.000000000               0.000000000               0.000000000               0.000153219               0.002875435              -0.000175845              -0.000301971               0.001059126               0.000757154               0.000000000               0.000000000               0.000000000               0.000000000               0.000135465               0.002877149              -0.000148463              -0.000308843               0.001061988               0.000753144               0.000000000               0.000000000               0.000000000               0.000000000               0.000120199               0.002888704              -0.000125692              -0.000316013               0.001068229               0.000752217               0.000000000               0.000000000               0.000000000               0.000000000               0.000105336               0.002909716              -0.000104445              -0.000324213               0.001077967               0.000753754               0.000000000               0.000000000               0.000000000               0.000000000               0.000085637               0.002932744              -0.000084600              -0.000334478               0.001089064               0.000754586               0.000000000               0.000000000               0.000000000               0.000000000               0.000062852               0.002956977              -0.000066354              -0.000346052               0.001101000               0.000754948               0.000000000               0.000000000               0.000000000               0.000000000               0.000040628               0.002975830              -0.000045421              -0.000356743               0.001110848               0.000754105               0.000000000               0.000000000               0.000000000               0.000000000               0.000025082               0.002983853              -0.000025308              -0.000363575               0.001115799               0.000752225               0.000000000               0.000000000               0.000000000               0.000000000               0.000012529               0.002980772              -0.000011043              -0.000367897               0.001116213               0.000748316               0.000000000               0.000000000               0.000000000               0.000000000               0.000004998               0.002975138              -0.000004535              -0.000370017               0.001115042               0.000745025               0.000000000               0.000000000               0.000000000               0.000000000               0.001099962               0.002294079              -0.001313907               0.000125723               0.000722777               0.000848500               0.000000000               0.000000000               0.000000000               0.000000000               0.000687188               0.002458641              -0.001032514              -0.000049636               0.000836084               0.000786448               0.000000000               0.000000000               0.000000000               0.000000000               0.000376689               0.002746643              -0.000704470              -0.000202072               0.000982896               0.000780824               0.000000000               0.000000000               0.000000000               0.000000000               0.000281141               0.002821689              -0.000511526              -0.000247283               0.001022981               0.000775698               0.000000000               0.000000000               0.000000000               0.000000000               0.000231003               0.002842234              -0.000391204              -0.000268653               0.001036953               0.000768300               0.000000000               0.000000000               0.000000000               0.000000000               0.000197731               0.002846014              -0.000314107              -0.000281602               0.001042529               0.000760927               0.000000000               0.000000000               0.000000000               0.000000000               0.000171998               0.002845582              -0.000259606              -0.000291198               0.001045584               0.000754386               0.000000000               0.000000000               0.000000000               0.000000000               0.000153996               0.002851986              -0.000217178              -0.000298749               0.001050236               0.000751486               0.000000000               0.000000000               0.000000000               0.000000000               0.000142920               0.002864630              -0.000180038              -0.000304483               0.001056361               0.000751879               0.000000000               0.000000000               0.000000000               0.000000000               0.000131653               0.002885870              -0.000148722              -0.000311363               0.001065735               0.000754372               0.000000000               0.000000000               0.000000000               0.000000000               0.000120283               0.002917718              -0.000120135              -0.000319608               0.001079099               0.000759491               0.000000000               0.000000000               0.000000000               0.000000000               0.000103928               0.002951594              -0.000093192              -0.000329976               0.001093847               0.000763871               0.000000000               0.000000000               0.000000000               0.000000000               0.000080728               0.002979452              -0.000069870              -0.000342158               0.001107193               0.000765036               0.000000000               0.000000000               0.000000000               0.000000000               0.000055679               0.002995256              -0.000048255              -0.000353526               0.001116251               0.000762724               0.000000000               0.000000000               0.000000000               0.000000000               0.000036516               0.002996929              -0.000027100              -0.000360922               0.001119274               0.000758352               0.000000000               0.000000000               0.000000000               0.000000000               0.000018142               0.002987949              -0.000009728              -0.000366690               0.001118203               0.000751513               0.000000000               0.000000000               0.000000000               0.000000000               0.000004534               0.002978544              -0.000001380              -0.000370617               0.001116377               0.000745760               0.000000000               0.000000000               0.000000000               0.000000000               0.001054862               0.001797687              -0.001159942               0.000170860               0.000542269               0.000713129               0.000000000               0.000000000               0.000000000               0.000000000               0.000695558               0.002065982              -0.001004032               0.000002585               0.000687792               0.000690377               0.000000000               0.000000000               0.000000000               0.000000000               0.000391940               0.002463667              -0.000783308              -0.000160981               0.000874874               0.000713893               0.000000000               0.000000000               0.000000000               0.000000000               0.000298094               0.002620806              -0.000605584              -0.000215815               0.000945532               0.000729716               0.000000000               0.000000000               0.000000000               0.000000000               0.000252237               0.002696339              -0.000481045              -0.000242453               0.000979588               0.000737135               0.000000000               0.000000000               0.000000000               0.000000000               0.000217806               0.002740731              -0.000392374              -0.000260914               0.001000539               0.000739625               0.000000000               0.000000000               0.000000000               0.000000000               0.000191692               0.002768872              -0.000327068              -0.000274224               0.001014356               0.000740132               0.000000000               0.000000000               0.000000000               0.000000000               0.000171573               0.002791191              -0.000276936              -0.000284558               0.001025240               0.000740682               0.000000000               0.000000000               0.000000000               0.000000000               0.000161232               0.002814569              -0.000234813              -0.000291359               0.001035300               0.000743941               0.000000000               0.000000000               0.000000000               0.000000000               0.000155329               0.002846072              -0.000195913              -0.000297510               0.001047851               0.000750341               0.000000000               0.000000000               0.000000000               0.000000000               0.000144853               0.002887922              -0.000157214              -0.000306670               0.001064854               0.000758185               0.000000000               0.000000000               0.000000000               0.000000000               0.000128265               0.002930439              -0.000121106              -0.000318205               0.001082871               0.000764667               0.000000000               0.000000000               0.000000000               0.000000000               0.000105078               0.002964428              -0.000090241              -0.000331149               0.001098516               0.000767367               0.000000000               0.000000000               0.000000000               0.000000000               0.000076011               0.002983337              -0.000063291              -0.000344412               0.001109240               0.000764828               0.000000000               0.000000000               0.000000000               0.000000000               0.000045682               0.002988854              -0.000036963              -0.000356475               0.001115100               0.000758625               0.000000000               0.000000000               0.000000000               0.000000000               0.000017677               0.002987110              -0.000012969              -0.000366759               0.001117946               0.000751187               0.000000000               0.000000000               0.000000000               0.000000000              -0.000000433               0.002981193              -0.000000500              -0.000372811               0.001117991               0.000745181               0.000000000               0.000000000               0.000000000               0.000000000               0.000952433               0.001330806              -0.000980353               0.000190809               0.000379994               0.000570803               0.000000000               0.000000000               0.000000000               0.000000000               0.000701431               0.001675033              -0.000948536               0.000053656               0.000540453               0.000594109               0.000000000               0.000000000               0.000000000               0.000000000               0.000442162               0.002146876              -0.000843955              -0.000102550               0.000749801               0.000647251               0.000000000               0.000000000               0.000000000               0.000000000               0.000349381               0.002381272              -0.000697902              -0.000166641               0.000849296               0.000682655               0.000000000               0.000000000               0.000000000               0.000000000               0.000300297               0.002518263              -0.000574886              -0.000202171               0.000906803               0.000704632               0.000000000               0.000000000               0.000000000               0.000000000               0.000263537               0.002610745              -0.000479361              -0.000227517               0.000946078               0.000718562               0.000000000               0.000000000               0.000000000               0.000000000               0.000231895               0.002673047              -0.000405817              -0.000247170               0.000973397               0.000726227               0.000000000               0.000000000               0.000000000               0.000000000               0.000207746               0.002718761              -0.000350591              -0.000261940               0.000993558               0.000731618               0.000000000               0.000000000               0.000000000               0.000000000               0.000192584               0.002757894              -0.000305825              -0.000272517               0.001010128               0.000737611               0.000000000               0.000000000               0.000000000               0.000000000               0.000185197               0.002802504              -0.000260397              -0.000280864               0.001027780               0.000746916               0.000000000               0.000000000               0.000000000               0.000000000               0.000175264               0.002854959              -0.000211575              -0.000291145               0.001048692               0.000757547               0.000000000               0.000000000               0.000000000               0.000000000               0.000158078               0.002905630              -0.000167068              -0.000303924               0.001069842               0.000765918               0.000000000               0.000000000               0.000000000               0.000000000               0.000133398               0.002943231              -0.000128674              -0.000317879               0.001087027               0.000769148               0.000000000               0.000000000               0.000000000               0.000000000               0.000101455               0.002966281              -0.000094009              -0.000332739               0.001099664               0.000766925               0.000000000               0.000000000               0.000000000               0.000000000               0.000064831               0.002978753              -0.000059029              -0.000348032               0.001108918               0.000760887               0.000000000               0.000000000               0.000000000               0.000000000               0.000024083               0.002983312              -0.000025209              -0.000363882               0.001115721               0.000751839               0.000000000               0.000000000               0.000000000               0.000000000              -0.000006366               0.002977527              -0.000005899              -0.000374577               0.001117358               0.000742781               0.000000000               0.000000000               0.000000000               0.000000000               0.000797228               0.000918256              -0.000777548               0.000184176               0.000244690               0.000428866               0.000000000               0.000000000               0.000000000               0.000000000               0.000682484               0.001296665              -0.000849098               0.000093847               0.000400934               0.000494781               0.000000000               0.000000000               0.000000000               0.000000000               0.000505634               0.001794048              -0.000849841              -0.000034644               0.000609558               0.000574913               0.000000000               0.000000000               0.000000000               0.000000000               0.000426101               0.002089110              -0.000747361              -0.000101351               0.000730147               0.000628795               0.000000000               0.000000000               0.000000000               0.000000000               0.000377361               0.002285354              -0.000638001              -0.000144159               0.000809830               0.000665671               0.000000000               0.000000000               0.000000000               0.000000000               0.000337181               0.002429325              -0.000544783              -0.000177223               0.000868841               0.000691618               0.000000000               0.000000000               0.000000000               0.000000000               0.000299936               0.002530948              -0.000470265              -0.000203892               0.000911605               0.000707713               0.000000000               0.000000000               0.000000000               0.000000000               0.000267582               0.002607510              -0.000414223              -0.000225595               0.000944359               0.000718764               0.000000000               0.000000000               0.000000000               0.000000000               0.000244406               0.002674797              -0.000367163              -0.000242697               0.000972489               0.000729792               0.000000000               0.000000000               0.000000000               0.000000000               0.000228791               0.002737596              -0.000318355              -0.000256402               0.000997990               0.000741588               0.000000000               0.000000000               0.000000000               0.000000000               0.000216541               0.002801329              -0.000264727              -0.000268963               0.001023421               0.000754459               0.000000000               0.000000000               0.000000000               0.000000000               0.000198814               0.002864342              -0.000215547              -0.000283487               0.001049267               0.000765780               0.000000000               0.000000000               0.000000000               0.000000000               0.000172628               0.002912309              -0.000173194              -0.000299303               0.001070528               0.000771225               0.000000000               0.000000000               0.000000000               0.000000000               0.000141040               0.002944953              -0.000134498              -0.000315228               0.001086717               0.000771489               0.000000000               0.000000000               0.000000000               0.000000000               0.000099439               0.002962287              -0.000091229              -0.000332995               0.001098418               0.000765422               0.000000000               0.000000000               0.000000000               0.000000000               0.000047317               0.002974303              -0.000043224              -0.000354043               0.001109439               0.000755396               0.000000000               0.000000000               0.000000000               0.000000000               0.000003742               0.002971201              -0.000013801              -0.000369996               0.001113722               0.000743727               0.000000000               0.000000000               0.000000000               0.000000000               0.000606595               0.000584696              -0.000571695               0.000154384               0.000143435               0.000297819               0.000000000               0.000000000               0.000000000               0.000000000               0.000641888               0.000951985              -0.000712487               0.000121708               0.000276755               0.000398463               0.000000000               0.000000000               0.000000000               0.000000000               0.000575476               0.001433007              -0.000791636               0.000036676               0.000465439               0.000502115               0.000000000               0.000000000               0.000000000               0.000000000               0.000523085               0.001763493              -0.000734596              -0.000024281               0.000595919               0.000571638               0.000000000               0.000000000               0.000000000               0.000000000               0.000480728               0.002008064              -0.000648157              -0.000070735               0.000692926               0.000622191               0.000000000               0.000000000               0.000000000               0.000000000               0.000436749               0.002197540              -0.000565536              -0.000110912               0.000769476               0.000658565               0.000000000               0.000000000               0.000000000               0.000000000               0.000395573               0.002342363              -0.000497503              -0.000144455               0.000828931               0.000684476               0.000000000               0.000000000               0.000000000               0.000000000               0.000353277               0.002453355              -0.000443980              -0.000174190               0.000875840               0.000701650               0.000000000               0.000000000               0.000000000               0.000000000               0.000319256               0.002548452              -0.000398581              -0.000198835               0.000915754               0.000716919               0.000000000               0.000000000               0.000000000               0.000000000               0.000295715               0.002636120              -0.000350649              -0.000218622               0.000951572               0.000732950               0.000000000               0.000000000               0.000000000               0.000000000               0.000280432               0.002721585              -0.000297706              -0.000235036               0.000985531               0.000750495               0.000000000               0.000000000               0.000000000               0.000000000               0.000262940               0.002799977              -0.000247225              -0.000251394               0.001017114               0.000765720               0.000000000               0.000000000               0.000000000               0.000000000               0.000237655               0.002862315              -0.000206247              -0.000268668               0.001043652               0.000774983               0.000000000               0.000000000               0.000000000               0.000000000               0.000206367               0.002909140              -0.000166913              -0.000286254               0.001065122               0.000778867               0.000000000               0.000000000               0.000000000               0.000000000               0.000166283               0.002941051              -0.000117587              -0.000305275               0.001082099               0.000776824               0.000000000               0.000000000               0.000000000               0.000000000               0.000116015               0.002966116              -0.000059842              -0.000327258               0.001097781               0.000770523               0.000000000               0.000000000               0.000000000               0.000000000               0.000072008               0.002967910              -0.000024706              -0.000343985               0.001103955               0.000759970               0.000000000               0.000000000               0.000000000               0.000000000               0.000410046               0.000341423              -0.000383811               0.000111088               0.000076777               0.000187865               0.000000000               0.000000000               0.000000000               0.000000000               0.000590473               0.000664037              -0.000548617               0.000138421               0.000175203               0.000313624               0.000000000               0.000000000               0.000000000               0.000000000               0.000642797               0.001095330              -0.000667782               0.000104131               0.000330396               0.000434527               0.000000000               0.000000000               0.000000000               0.000000000               0.000629215               0.001440752              -0.000647909               0.000055860               0.000461626               0.000517486               0.000000000               0.000000000               0.000000000               0.000000000               0.000598322               0.001717323              -0.000587382               0.000009705               0.000569200               0.000578905               0.000000000               0.000000000               0.000000000               0.000000000               0.000557591               0.001944711              -0.000522763              -0.000033993               0.000659561               0.000625569               0.000000000               0.000000000               0.000000000               0.000000000               0.000512309               0.002125796              -0.000466724              -0.000073609               0.000733128               0.000659519               0.000000000               0.000000000               0.000000000               0.000000000               0.000463299               0.002265047              -0.000420497              -0.000109394               0.000791473               0.000682079               0.000000000               0.000000000               0.000000000               0.000000000               0.000416677               0.002389874              -0.000381738              -0.000142480               0.000844110               0.000701630               0.000000000               0.000000000               0.000000000               0.000000000               0.000380583               0.002509392              -0.000340625              -0.000170955               0.000893441               0.000722486               0.000000000               0.000000000               0.000000000               0.000000000               0.000357280               0.002619596              -0.000293718              -0.000193469               0.000937680               0.000744210               0.000000000               0.000000000               0.000000000               0.000000000               0.000338614               0.002714112              -0.000246947              -0.000212283               0.000975456               0.000763173               0.000000000               0.000000000               0.000000000               0.000000000               0.000313486               0.002795826              -0.000207383              -0.000231920               0.001009239               0.000777319               0.000000000               0.000000000               0.000000000               0.000000000               0.000282258               0.002863669              -0.000171297              -0.000252111               0.001038584               0.000786472               0.000000000               0.000000000               0.000000000               0.000000000               0.000252716               0.002914637              -0.000126917              -0.000269560               0.001061389               0.000791829               0.000000000               0.000000000               0.000000000               0.000000000               0.000222463               0.002954767              -0.000068037              -0.000285922               0.001080220               0.000794298               0.000000000               0.000000000               0.000000000               0.000000000               0.000194510               0.002966005              -0.000032371              -0.000297808               0.001087928               0.000790119               0.000000000               0.000000000               0.000000000               0.000000000               0.000233275               0.000176932              -0.000229588               0.000065361               0.000037190               0.000102550               0.000000000               0.000000000               0.000000000               0.000000000               0.000538185               0.000447631              -0.000370125               0.000145864               0.000100587               0.000246451               0.000000000               0.000000000               0.000000000               0.000000000               0.000699098               0.000821072              -0.000482054               0.000159526               0.000220512               0.000380038               0.000000000               0.000000000               0.000000000               0.000000000               0.000727425               0.001163298              -0.000485094               0.000127371               0.000345305               0.000472676               0.000000000               0.000000000               0.000000000               0.000000000               0.000710249               0.001455433              -0.000449255               0.000084413               0.000457002               0.000541415               0.000000000               0.000000000               0.000000000               0.000000000               0.000674613               0.001706374              -0.000405529               0.000039683               0.000555558               0.000595241               0.000000000               0.000000000               0.000000000               0.000000000               0.000626190               0.001913317              -0.000366243              -0.000004344               0.000639214               0.000634870               0.000000000               0.000000000               0.000000000               0.000000000               0.000573645               0.002085669              -0.000333193              -0.000045592               0.000710413               0.000664821               0.000000000               0.000000000               0.000000000               0.000000000               0.000518471               0.002241702              -0.000304502              -0.000085786               0.000775822               0.000690036               0.000000000               0.000000000               0.000000000               0.000000000               0.000467382               0.002385284              -0.000276202              -0.000122892               0.000836051               0.000713159               0.000000000               0.000000000               0.000000000               0.000000000               0.000431679               0.002516229              -0.000243602              -0.000152649               0.000889617               0.000736969               0.000000000               0.000000000               0.000000000               0.000000000               0.000405881               0.002631599              -0.000203466              -0.000176744               0.000936105               0.000759361               0.000000000               0.000000000               0.000000000               0.000000000               0.000380752               0.002734280              -0.000167280              -0.000199003               0.000977752               0.000778749               0.000000000               0.000000000               0.000000000               0.000000000               0.000360449               0.002821594              -0.000142754              -0.000217530               0.001013032               0.000795502               0.000000000               0.000000000               0.000000000               0.000000000               0.000346580               0.002887393              -0.000114058              -0.000230956               0.001039440               0.000808484               0.000000000               0.000000000               0.000000000               0.000000000               0.000339872               0.002938904              -0.000064998              -0.000239910               0.001059595               0.000819685               0.000000000               0.000000000               0.000000000               0.000000000               0.000334393               0.002960222              -0.000033755              -0.000244630               0.001068274               0.000823644               0.000000000               0.000000000               0.000000000               0.000000000               0.000106755               0.000082055              -0.000104967               0.000029776               0.000017426               0.000047202               0.000000000               0.000000000               0.000000000               0.000000000               0.000493878               0.000310088              -0.000185637               0.000146442               0.000054548               0.000200989               0.000000000               0.000000000               0.000000000               0.000000000               0.000733618               0.000638457              -0.000252445               0.000195298               0.000147718               0.000343015               0.000000000               0.000000000               0.000000000               0.000000000               0.000795035               0.000974447              -0.000260068               0.000176331               0.000266035               0.000442366               0.000000000               0.000000000               0.000000000               0.000000000               0.000786784               0.001271621              -0.000244158               0.000136090               0.000378506               0.000514596               0.000000000               0.000000000               0.000000000               0.000000000               0.000754066               0.001532088              -0.000221444               0.000091263               0.000480270               0.000571533               0.000000000               0.000000000               0.000000000               0.000000000               0.000707614               0.001762201              -0.000201831               0.000045080               0.000572368               0.000617448               0.000000000               0.000000000               0.000000000               0.000000000               0.000653129               0.001963969              -0.000186429              -0.000000573               0.000654841               0.000654268               0.000000000               0.000000000               0.000000000               0.000000000               0.000594149               0.002136883              -0.000171209              -0.000044304               0.000727055               0.000682751               0.000000000               0.000000000               0.000000000               0.000000000               0.000536256               0.002289555              -0.000157752              -0.000085098               0.000791543               0.000706445               0.000000000               0.000000000               0.000000000               0.000000000               0.000487072               0.002432751              -0.000140820              -0.000121442               0.000851390               0.000729948               0.000000000               0.000000000               0.000000000               0.000000000               0.000453492               0.002566246              -0.000113777              -0.000150721               0.000905647               0.000754926               0.000000000               0.000000000               0.000000000               0.000000000               0.000437303               0.002685723              -0.000092234              -0.000171726               0.000952474               0.000780748               0.000000000               0.000000000               0.000000000               0.000000000               0.000430823               0.002789049              -0.000082638              -0.000187072               0.000992031               0.000804959               0.000000000               0.000000000               0.000000000               0.000000000               0.000428092               0.002872878              -0.000069637              -0.000198575               0.001023808               0.000825233               0.000000000               0.000000000               0.000000000               0.000000000               0.000435929               0.002934778              -0.000041218              -0.000203373               0.001046041               0.000842667               0.000000000               0.000000000               0.000000000               0.000000000               0.000449258               0.002962118              -0.000022379              -0.000201793               0.001054627               0.000852834               0.000000000               0.000000000               0.000000000               0.000000000               0.000000000               0.000000000               0.000000000               0.000000000               0.000000000               0.000000000               0.000000000               0.000000000               0.000000000               0.000000000               0.000000000               0.000000000               0.000000000               0.000000000               0.000000000               0.000000000               0.000000000               0.000000000               0.000000000               0.000000000               0.000000000               0.000000000               0.000000000               0.000000000               0.000000000               0.000000000               0.000000000               0.000000000               0.000000000               0.000000000               0.000000000               0.000000000               0.000000000               0.000000000               0.000000000               0.000000000               0.000000000               0.000000000               0.000000000               0.000000000               0.000000000               0.000000000               0.000000000               0.000000000               0.000000000               0.000000000               0.000000000               0.000000000               0.000000000               0.000000000               0.000000000               0.000000000               0.000000000               0.000000000               0.000000000               0.000000000               0.000000000               0.000000000               0.000000000               0.000000000               0.000000000               0.000000000               0.000000000               0.000000000               0.000000000               0.000000000               0.000000000               0.000000000               0.000000000               0.000000000               0.000000000               0.000000000               0.000000000               0.000000000               0.000000000               0.000000000               0.000000000               0.000000000               0.000000000               0.000000000               0.000000000               0.000000000               0.000000000               0.000000000               0.000000000               0.000000000               0.000000000               0.000000000               0.000000000               0.000000000               0.000000000               0.000000000               0.000000000               0.000000000               0.000000000               0.000000000               0.000000000               0.000000000               0.000000000               0.000000000               0.000000000               0.000000000               0.000000000               0.000000000               0.000000000               0.000000000               0.000000000               0.000000000               0.000000000               0.000000000               0.000000000               0.000000000               0.000000000               0.000000000               0.000000000               0.000000000               0.000000000               0.000000000               0.000000000               0.000000000               0.000000000               0.000000000               0.000000000               0.000000000               0.000000000               0.000000000               0.000000000               0.000000000               0.000000000               0.000000000               0.000000000               0.000000000               0.000000000               0.000000000               0.000000000               0.000000000               0.000000000               0.000000000               0.000000000               0.000000000               0.000000000               0.000000000               0.000000000               0.000000000               0.000000000               0.000000000               0.000000000               0.000000000               0.000000000               0.000000000               0.000000000               0.000000000               0.000000000               0.000000000               0.000000000               0.000000000               0.000000000               0.000000000               0.000000000               0.000000000               0.000000000               0.000000000               0.000000000               0.000000000               0.000000000               0.000000000               0.000000000               0.000000000               0.000000000               0.000000000               0.000000000               0.000000000               0.000000000               0.000000000               0.000000000               0.000000000               0.000000000               0.000000000               0.000000000               0.000000000               0.000000000               0.000000000               0.000000000               0.000000000               0.000000000               0.000000000               0.000000000               0.000000000               0.000000000               0.000000000               0.000000000               0.000000000               0.000000000               0.000000000               0.000000000               0.000000000               0.000000000               0.000000000               0.000000000               0.000000000               0.000000000               0.000000000               0.000000000               0.000000000               0.000000000               0.000000000               0.000000000               0.000000000               0.000000000               0.000000000               0.000000000               0.000000000               0.000000000               0.000000000               0.000000000               0.000000000               0.000000000               0.000000000               0.000000000               0.000000000               0.000000000               0.000000000               0.000000000               0.000000000               0.000000000               0.000000000               0.000000000               0.000000000               0.000000000               0.000000000               0.000000000               0.000000000               0.000000000               0.000000000               0.000000000               0.000000000               0.000000000               0.000000000               0.000000000               0.000000000               0.000000000               0.000000000               0.000000000               0.000000000               0.000000000               0.000000000               0.000000000               0.000000000               0.000000000               0.000000000               0.000000000               0.000000000               0.000000000               0.000000000               0.000000000               0.000000000               0.000000000               0.000000000               0.000000000               0.000000000               0.000000000               0.000000000               0.000000000               0.000000000               0.000000000               0.000000000               0.000000000               0.000000000               0.000000000               0.000000000               0.000000000               0.000000000               0.000000000               0.000000000               0.000000000               0.000000000               0.000000000               0.000000000               0.000000000               0.000000000               0.000000000               0.000000000               0.000000000               0.000000000               0.000000000               0.000000000               0.000000000               0.000000000               0.000000000               0.000000000               0.000000000               0.000000000               0.000000000               0.000000000               0.000000000               0.000000000               0.000000000               0.000000000               0.000000000               0.000000000               0.000000000               0.000000000               0.000000000               0.000000000               0.000000000               0.000000000               0.000000000               0.000000000               0.000000000               0.000000000               0.000000000               0.000000000               0.000000000               0.000000000               0.000000000               0.000000000               0.000000000               0.000000000               0.000000000               0.000000000               0.000000000               0.000000000               0.000000000               0.000000000               0.000000000               0.000000000               0.000000000               0.000000000               0.000000000               0.000000000               0.000000000               0.000000000               0.000000000               0.000000000               0.000000000               0.000000000               0.000000000               0.000000000               0.000000000               0.000000000               0.000531073               0.005796703               0.000449832              -0.000525434               0.002107360               0.001581926               0.000000000               0.000000000               0.000000000               0.000000000               0.000564203               0.004829218               0.000293980              -0.000392075               0.001740415               0.001348340               0.000000000               0.000000000               0.000000000               0.000000000               0.000760716               0.004056450               0.000130522              -0.000221787               0.001426065               0.001204278               0.000000000               0.000000000               0.000000000               0.000000000               0.000779644               0.003631313               0.000051476              -0.000161547               0.001264275               0.001102728               0.000000000               0.000000000               0.000000000               0.000000000               0.000729399               0.003380194               0.000013302              -0.000148999               0.001176387               0.001027387               0.000000000               0.000000000               0.000000000               0.000000000               0.000658884               0.003226582              -0.000005101              -0.000156241               0.001127597               0.000971356               0.000000000               0.000000000               0.000000000               0.000000000               0.000587591               0.003130982              -0.000014548              -0.000171026               0.001100659               0.000929633               0.000000000               0.000000000               0.000000000               0.000000000               0.000517311               0.003070531              -0.000018392              -0.000189824               0.001086775               0.000896951               0.000000000               0.000000000               0.000000000               0.000000000               0.000452186               0.003034359              -0.000019692              -0.000209725               0.001081351               0.000871627               0.000000000               0.000000000               0.000000000               0.000000000               0.000392766               0.003015808              -0.000020208              -0.000229688               0.001081822               0.000852134               0.000000000               0.000000000               0.000000000               0.000000000               0.000337877               0.003010369              -0.000018057              -0.000249592               0.001086643               0.000837052               0.000000000               0.000000000               0.000000000               0.000000000               0.000286049               0.003009500              -0.000015340              -0.000268918               0.001092796               0.000823878               0.000000000               0.000000000               0.000000000               0.000000000               0.000234579               0.003013958              -0.000015505              -0.000288777               0.001100902               0.000812125               0.000000000               0.000000000               0.000000000               0.000000000               0.000180066               0.003023059              -0.000014997              -0.000310357               0.001111129               0.000800772               0.000000000               0.000000000               0.000000000               0.000000000               0.000121103               0.003033845              -0.000012425              -0.000333816               0.001122543               0.000788727               0.000000000               0.000000000               0.000000000               0.000000000               0.000060212               0.003043975              -0.000007268              -0.000357916               0.001133954               0.000776037               0.000000000               0.000000000               0.000000000               0.000000000               0.000032361               0.003054066              -0.000002584              -0.000369622               0.001141219               0.000771597               0.000000000               0.000000000               0.000000000               0.000000000               0.000624032               0.005519522               0.000852809              -0.000455927               0.001991798               0.001535871               0.000000000               0.000000000               0.000000000               0.000000000               0.000596930               0.004629192               0.000557244              -0.000354800               0.001661315               0.001306515               0.000000000               0.000000000               0.000000000               0.000000000               0.000729648               0.003947061               0.000250964              -0.000219764               0.001388929               0.001169164               0.000000000               0.000000000               0.000000000               0.000000000               0.000718721               0.003569273               0.000106989              -0.000176639               0.001248625               0.001071987               0.000000000               0.000000000               0.000000000               0.000000000               0.000658837               0.003341331               0.000036022              -0.000170602               0.001170633               0.001000031               0.000000000               0.000000000               0.000000000               0.000000000               0.000590274               0.003202873               0.000000562              -0.000179006               0.001127282               0.000948277               0.000000000               0.000000000               0.000000000               0.000000000               0.000522106               0.003117549              -0.000016217              -0.000193903               0.001103807               0.000909904               0.000000000               0.000000000               0.000000000               0.000000000               0.000454783               0.003064468              -0.000022680              -0.000212514               0.001092317               0.000879803               0.000000000               0.000000000               0.000000000               0.000000000               0.000393539               0.003033836              -0.000024276              -0.000231652               0.001088486               0.000856834               0.000000000               0.000000000               0.000000000               0.000000000               0.000338531               0.003017645              -0.000026044              -0.000250256               0.001089290               0.000839035               0.000000000               0.000000000               0.000000000               0.000000000               0.000289455               0.003011931              -0.000023066              -0.000267945               0.001093282               0.000825337               0.000000000               0.000000000               0.000000000               0.000000000               0.000245975               0.003012707              -0.000017581              -0.000284347               0.001099008               0.000814661               0.000000000               0.000000000               0.000000000               0.000000000               0.000202194               0.003017664              -0.000017853              -0.000301385               0.001106340               0.000804955               0.000000000               0.000000000               0.000000000               0.000000000               0.000155089               0.003028269              -0.000018768              -0.000320375               0.001116204               0.000795830               0.000000000               0.000000000               0.000000000               0.000000000               0.000103587               0.003044584              -0.000016184              -0.000341727               0.001128760               0.000787033               0.000000000               0.000000000               0.000000000               0.000000000               0.000050325               0.003064915              -0.000009870              -0.000364242               0.001143042               0.000778800               0.000000000               0.000000000               0.000000000               0.000000000               0.000028039               0.003084316              -0.000004195              -0.000375024               0.001153103               0.000778079               0.000000000               0.000000000               0.000000000               0.000000000               0.000755097               0.005092169               0.001175037              -0.000353360               0.001815159               0.001461799               0.000000000               0.000000000               0.000000000               0.000000000               0.000637541               0.004329795               0.000769845              -0.000302146               0.001543966               0.001241820               0.000000000               0.000000000               0.000000000               0.000000000               0.000676797               0.003784965               0.000355177              -0.000219321               0.001334750               0.001115428               0.000000000               0.000000000               0.000000000               0.000000000               0.000633357               0.003476933               0.000166275              -0.000197107               0.001224669               0.001027561               0.000000000               0.000000000               0.000000000               0.000000000               0.000565267               0.003289423               0.000073350              -0.000199202               0.001162864               0.000963662               0.000000000               0.000000000               0.000000000               0.000000000               0.000496134               0.003172261               0.000026583              -0.000210482               0.001127570               0.000917088               0.000000000               0.000000000               0.000000000               0.000000000               0.000432469               0.003100212               0.000004962              -0.000225350               0.001108510               0.000883160               0.000000000               0.000000000               0.000000000               0.000000000               0.000372889               0.003056362              -0.000003582              -0.000242211               0.001099514               0.000857303               0.000000000               0.000000000               0.000000000               0.000000000               0.000321375               0.003029493              -0.000006779              -0.000258171               0.001095878               0.000837707               0.000000000               0.000000000               0.000000000               0.000000000               0.000276256               0.003014863              -0.000008761              -0.000273261               0.001096031               0.000822770               0.000000000               0.000000000               0.000000000               0.000000000               0.000232171               0.003006784              -0.000006907              -0.000288783               0.001098512               0.000809729               0.000000000               0.000000000               0.000000000               0.000000000               0.000192629               0.003007116              -0.000000983              -0.000303653               0.001103580               0.000799927               0.000000000               0.000000000               0.000000000               0.000000000               0.000155167               0.003010922              -0.000001129              -0.000318177               0.001109690               0.000791513               0.000000000               0.000000000               0.000000000               0.000000000               0.000116901               0.003020601              -0.000006220              -0.000333736               0.001118102               0.000784366               0.000000000               0.000000000               0.000000000               0.000000000               0.000077075               0.003038007              -0.000008601              -0.000350847               0.001129608               0.000778761               0.000000000               0.000000000               0.000000000               0.000000000               0.000036872               0.003061210              -0.000006425              -0.000368823               0.001143334               0.000774511               0.000000000               0.000000000               0.000000000               0.000000000               0.000021349               0.003082430              -0.000001994              -0.000377297               0.001153232               0.000775935               0.000000000               0.000000000               0.000000000               0.000000000               0.000896306               0.004562403               0.001393155              -0.000234186               0.001598848               0.001364661               0.000000000               0.000000000               0.000000000               0.000000000               0.000676642               0.003965087               0.000921091              -0.000241895               0.001402314               0.001160419               0.000000000               0.000000000               0.000000000               0.000000000               0.000608715               0.003589539               0.000442612              -0.000220424               0.001269976               0.001049552               0.000000000               0.000000000               0.000000000               0.000000000               0.000534499               0.003364210               0.000230666              -0.000220089               0.001194755               0.000974666               0.000000000               0.000000000               0.000000000               0.000000000               0.000464208               0.003221187               0.000127178              -0.000228570               0.001149908               0.000921339               0.000000000               0.000000000               0.000000000               0.000000000               0.000397111               0.003127728               0.000074235              -0.000242049               0.001123249               0.000881200               0.000000000               0.000000000               0.000000000               0.000000000               0.000339383               0.003068414               0.000046878              -0.000256283               0.001108222               0.000851940               0.000000000               0.000000000               0.000000000               0.000000000               0.000290552               0.003030102               0.000034060              -0.000269805               0.001099959               0.000830154               0.000000000               0.000000000               0.000000000               0.000000000               0.000247806               0.003005511               0.000028775              -0.000282761               0.001096081               0.000813320               0.000000000               0.000000000               0.000000000               0.000000000               0.000209796               0.002990149               0.000025464              -0.000295094               0.001095071               0.000799977               0.000000000               0.000000000               0.000000000               0.000000000               0.000174344               0.002981531               0.000024915              -0.000307312               0.001096271               0.000788959               0.000000000               0.000000000               0.000000000               0.000000000               0.000140641               0.002980994               0.000028572              -0.000319883               0.001100283               0.000780399               0.000000000               0.000000000               0.000000000               0.000000000               0.000108897               0.002986031               0.000026596              -0.000332417               0.001106139               0.000773723               0.000000000               0.000000000               0.000000000               0.000000000               0.000078992               0.002995263               0.000014782              -0.000344785               0.001113339               0.000768554               0.000000000               0.000000000               0.000000000               0.000000000               0.000049414               0.003011121               0.000004580              -0.000357859               0.001122983               0.000765124               0.000000000               0.000000000               0.000000000               0.000000000               0.000022235               0.003031488               0.000000250              -0.000370597               0.001134018               0.000763421               0.000000000               0.000000000               0.000000000               0.000000000               0.000013836               0.003049283               0.000001099              -0.000375971               0.001141741               0.000765770               0.000000000               0.000000000               0.000000000               0.000000000               0.001010799               0.003977859               0.001502705              -0.000118184               0.001365334               0.001247150               0.000000000               0.000000000               0.000000000               0.000000000               0.000701380               0.003571175               0.001013047              -0.000183380               0.001251506               0.001068126               0.000000000               0.000000000               0.000000000               0.000000000               0.000535203               0.003377440               0.000517198              -0.000221479               0.001199628               0.000978150               0.000000000               0.000000000               0.000000000               0.000000000               0.000436591               0.003230878               0.000300079              -0.000240138               0.001156995               0.000916857               0.000000000               0.000000000               0.000000000               0.000000000               0.000367309               0.003129462               0.000191374              -0.000253441               0.001127624               0.000874183               0.000000000               0.000000000               0.000000000               0.000000000               0.000309719               0.003061192               0.000132373              -0.000266504               0.001109222               0.000842718               0.000000000               0.000000000               0.000000000               0.000000000               0.000262060               0.003015532               0.000099630              -0.000278668               0.001098057               0.000819388               0.000000000               0.000000000               0.000000000               0.000000000               0.000222550               0.002983819               0.000082436              -0.000289520               0.001091103               0.000801583               0.000000000               0.000000000               0.000000000               0.000000000               0.000187697               0.002964023               0.000073869              -0.000300116               0.001088036               0.000787921               0.000000000               0.000000000               0.000000000               0.000000000               0.000157361               0.002951884               0.000068049              -0.000309975               0.001087276               0.000777302               0.000000000               0.000000000               0.000000000               0.000000000               0.000127814               0.002945428               0.000060565              -0.000320247               0.001088549               0.000768301               0.000000000               0.000000000               0.000000000               0.000000000               0.000100584               0.002949554               0.000055665              -0.000330974               0.001093500               0.000762525               0.000000000               0.000000000               0.000000000               0.000000000               0.000074148               0.002959936               0.000048786              -0.000342186               0.001100697               0.000758512               0.000000000               0.000000000               0.000000000               0.000000000               0.000049411               0.002973039               0.000031841              -0.000353100               0.001108703               0.000755603               0.000000000               0.000000000               0.000000000               0.000000000               0.000029189               0.002988283               0.000014207              -0.000362589               0.001116947               0.000754359               0.000000000               0.000000000               0.000000000               0.000000000               0.000012730               0.003004421               0.000004424              -0.000370778               0.001125056               0.000754278               0.000000000               0.000000000               0.000000000               0.000000000               0.000007873               0.003015252               0.000002632              -0.000373953               0.001129725               0.000755772               0.000000000               0.000000000               0.000000000               0.000000000               0.001080953               0.003378143               0.001515057              -0.000016912               0.001131673               0.001114761               0.000000000               0.000000000               0.000000000               0.000000000               0.000707862               0.003175292               0.001054514              -0.000131464               0.001102241               0.000970777               0.000000000               0.000000000               0.000000000               0.000000000               0.000463629               0.003159162               0.000582649              -0.000221034               0.001126722               0.000905687               0.000000000               0.000000000               0.000000000               0.000000000               0.000355357               0.003086959               0.000371613              -0.000252610               0.001113180               0.000860569               0.000000000               0.000000000               0.000000000               0.000000000               0.000293669               0.003027870               0.000258617              -0.000268357               0.001098732               0.000830375               0.000000000               0.000000000               0.000000000               0.000000000               0.000246723               0.002984435               0.000194085              -0.000280533               0.001088313               0.000807780               0.000000000               0.000000000               0.000000000               0.000000000               0.000207461               0.002951075               0.000156661              -0.000291086               0.001080711               0.000789625               0.000000000               0.000000000               0.000000000               0.000000000               0.000176338               0.002927055               0.000133443              -0.000299755               0.001075594               0.000775839               0.000000000               0.000000000               0.000000000               0.000000000               0.000149410               0.002914966               0.000117220              -0.000308341               0.001074426               0.000766085               0.000000000               0.000000000               0.000000000               0.000000000               0.000128211               0.002912864               0.000104349              -0.000316028               0.001076288               0.000760260               0.000000000               0.000000000               0.000000000               0.000000000               0.000108912               0.002919439               0.000088475              -0.000324087               0.001081166               0.000757078               0.000000000               0.000000000               0.000000000               0.000000000               0.000086843               0.002931386               0.000074312              -0.000333856               0.001088404               0.000754548               0.000000000               0.000000000               0.000000000               0.000000000               0.000062555               0.002948298               0.000061798              -0.000345078               0.001097782               0.000752704               0.000000000               0.000000000               0.000000000               0.000000000               0.000039675               0.002966471               0.000042410              -0.000355930               0.001107457               0.000751527               0.000000000               0.000000000               0.000000000               0.000000000               0.000022642               0.002980470               0.000022204              -0.000364067               0.001114836               0.000750769               0.000000000               0.000000000               0.000000000               0.000000000               0.000010941               0.002987528               0.000009547              -0.000369337               0.001118945               0.000749608               0.000000000               0.000000000               0.000000000               0.000000000               0.000006473               0.002989262               0.000005617              -0.000371230               0.001120154               0.000748924               0.000000000               0.000000000               0.000000000               0.000000000               0.001105452               0.002801883               0.001442764               0.000064307               0.000912515               0.000976822               0.000000000               0.000000000               0.000000000               0.000000000               0.000695406               0.002798897               0.001053467              -0.000089086               0.000962651               0.000873565               0.000000000               0.000000000               0.000000000               0.000000000               0.000404299               0.002943065               0.000640029              -0.000216271               0.001053102               0.000836831               0.000000000               0.000000000               0.000000000               0.000000000               0.000300095               0.002944105               0.000439199              -0.000255477               0.001066517               0.000811040               0.000000000               0.000000000               0.000000000               0.000000000               0.000246870               0.002925758               0.000322296              -0.000273143               0.001066290               0.000793147               0.000000000               0.000000000               0.000000000               0.000000000               0.000209476               0.002905029               0.000252680              -0.000284575               0.001063192               0.000778617               0.000000000               0.000000000               0.000000000               0.000000000               0.000176721               0.002885434               0.000208689              -0.000294408               0.001059938               0.000765529               0.000000000               0.000000000               0.000000000               0.000000000               0.000153219               0.002875435               0.000175845              -0.000301971               0.001059126               0.000757154               0.000000000               0.000000000               0.000000000               0.000000000               0.000135465               0.002877149               0.000148463              -0.000308843               0.001061988               0.000753144               0.000000000               0.000000000               0.000000000               0.000000000               0.000120199               0.002888704               0.000125692              -0.000316013               0.001068229               0.000752217               0.000000000               0.000000000               0.000000000               0.000000000               0.000105336               0.002909716               0.000104445              -0.000324213               0.001077967               0.000753754               0.000000000               0.000000000               0.000000000               0.000000000               0.000085637               0.002932744               0.000084600              -0.000334478               0.001089064               0.000754586               0.000000000               0.000000000               0.000000000               0.000000000               0.000062852               0.002956977               0.000066354              -0.000346052               0.001101000               0.000754948               0.000000000               0.000000000               0.000000000               0.000000000               0.000040628               0.002975830               0.000045421              -0.000356743               0.001110848               0.000754105               0.000000000               0.000000000               0.000000000               0.000000000               0.000025082               0.002983853               0.000025308              -0.000363575               0.001115799               0.000752225               0.000000000               0.000000000               0.000000000               0.000000000               0.000012529               0.002980772               0.000011043              -0.000367897               0.001116213               0.000748316               0.000000000               0.000000000               0.000000000               0.000000000               0.000004998               0.002975138               0.000004535              -0.000370017               0.001115042               0.000745025               0.000000000               0.000000000               0.000000000               0.000000000               0.001099962               0.002294079               0.001313907               0.000125723               0.000722777               0.000848500               0.000000000               0.000000000               0.000000000               0.000000000               0.000687188               0.002458641               0.001032514              -0.000049636               0.000836084               0.000786448               0.000000000               0.000000000               0.000000000               0.000000000               0.000376689               0.002746643               0.000704470              -0.000202072               0.000982896               0.000780824               0.000000000               0.000000000               0.000000000               0.000000000               0.000281141               0.002821689               0.000511526              -0.000247283               0.001022981               0.000775698               0.000000000               0.000000000               0.000000000               0.000000000               0.000231003               0.002842234               0.000391204              -0.000268653               0.001036953               0.000768300               0.000000000               0.000000000               0.000000000               0.000000000               0.000197731               0.002846014               0.000314107              -0.000281602               0.001042529               0.000760927               0.000000000               0.000000000               0.000000000               0.000000000               0.000171998               0.002845582               0.000259606              -0.000291198               0.001045584               0.000754386               0.000000000               0.000000000               0.000000000               0.000000000               0.000153996               0.002851986               0.000217178              -0.000298749               0.001050236               0.000751486               0.000000000               0.000000000               0.000000000               0.000000000               0.000142920               0.002864630               0.000180038              -0.000304483               0.001056361               0.000751879               0.000000000               0.000000000               0.000000000               0.000000000               0.000131653               0.002885870               0.000148722              -0.000311363               0.001065735               0.000754372               0.000000000               0.000000000               0.000000000               0.000000000               0.000120283               0.002917718               0.000120135              -0.000319608               0.001079099               0.000759491               0.000000000               0.000000000               0.000000000               0.000000000               0.000103928               0.002951594               0.000093192              -0.000329976               0.001093847               0.000763871               0.000000000               0.000000000               0.000000000               0.000000000               0.000080728               0.002979452               0.000069870              -0.000342158               0.001107193               0.000765036               0.000000000               0.000000000               0.000000000               0.000000000               0.000055679               0.002995256               0.000048255              -0.000353526               0.001116251               0.000762724               0.000000000               0.000000000               0.000000000               0.000000000               0.000036516               0.002996929               0.000027100              -0.000360922               0.001119274               0.000758352               0.000000000               0.000000000               0.000000000               0.000000000               0.000018142               0.002987949               0.000009728              -0.000366690               0.001118203               0.000751513               0.000000000               0.000000000               0.000000000               0.000000000               0.000004534               0.002978544               0.000001380              -0.000370617               0.001116377               0.000745760               0.000000000               0.000000000               0.000000000               0.000000000               0.001054862               0.001797687               0.001159942               0.000170860               0.000542269               0.000713129               0.000000000               0.000000000               0.000000000               0.000000000               0.000695558               0.002065982               0.001004032               0.000002585               0.000687792               0.000690377               0.000000000               0.000000000               0.000000000               0.000000000               0.000391940               0.002463667               0.000783308              -0.000160981               0.000874874               0.000713893               0.000000000               0.000000000               0.000000000               0.000000000               0.000298094               0.002620806               0.000605584              -0.000215815               0.000945532               0.000729716               0.000000000               0.000000000               0.000000000               0.000000000               0.000252237               0.002696339               0.000481045              -0.000242453               0.000979588               0.000737135               0.000000000               0.000000000               0.000000000               0.000000000               0.000217806               0.002740731               0.000392374              -0.000260914               0.001000539               0.000739625               0.000000000               0.000000000               0.000000000               0.000000000               0.000191692               0.002768872               0.000327068              -0.000274224               0.001014356               0.000740132               0.000000000               0.000000000               0.000000000               0.000000000               0.000171573               0.002791191               0.000276936              -0.000284558               0.001025240               0.000740682               0.000000000               0.000000000               0.000000000               0.000000000               0.000161232               0.002814569               0.000234813              -0.000291359               0.001035300               0.000743941               0.000000000               0.000000000               0.000000000               0.000000000               0.000155329               0.002846072               0.000195913              -0.000297510               0.001047851               0.000750341               0.000000000               0.000000000               0.000000000               0.000000000               0.000144853               0.002887922               0.000157214              -0.000306670               0.001064854               0.000758185               0.000000000               0.000000000               0.000000000               0.000000000               0.000128265               0.002930439               0.000121106              -0.000318205               0.001082871               0.000764667               0.000000000               0.000000000               0.000000000               0.000000000               0.000105078               0.002964428               0.000090241              -0.000331149               0.001098516               0.000767367               0.000000000               0.000000000               0.000000000               0.000000000               0.000076011               0.002983337               0.000063291              -0.000344412               0.001109240               0.000764828               0.000000000               0.000000000               0.000000000               0.000000000               0.000045682               0.002988854               0.000036963              -0.000356475               0.001115100               0.000758625               0.000000000               0.000000000               0.000000000               0.000000000               0.000017677               0.002987110               0.000012969              -0.000366759               0.001117946               0.000751187               0.000000000               0.000000000               0.000000000               0.000000000              -0.000000433               0.002981193               0.000000500              -0.000372811               0.001117991               0.000745181               0.000000000               0.000000000               0.000000000               0.000000000               0.000952433               0.001330806               0.000980353               0.000190809               0.000379994               0.000570803               0.000000000               0.000000000               0.000000000               0.000000000               0.000701431               0.001675033               0.000948536               0.000053656               0.000540453               0.000594109               0.000000000               0.000000000               0.000000000               0.000000000               0.000442162               0.002146876               0.000843955              -0.000102550               0.000749801               0.000647251               0.000000000               0.000000000               0.000000000               0.000000000               0.000349381               0.002381272               0.000697902              -0.000166641               0.000849296               0.000682655               0.000000000               0.000000000               0.000000000               0.000000000               0.000300297               0.002518263               0.000574886              -0.000202171               0.000906803               0.000704632               0.000000000               0.000000000               0.000000000               0.000000000               0.000263537               0.002610745               0.000479361              -0.000227517               0.000946078               0.000718562               0.000000000               0.000000000               0.000000000               0.000000000               0.000231895               0.002673047               0.000405817              -0.000247170               0.000973397               0.000726227               0.000000000               0.000000000               0.000000000               0.000000000               0.000207746               0.002718761               0.000350591              -0.000261940               0.000993558               0.000731618               0.000000000               0.000000000               0.000000000               0.000000000               0.000192584               0.002757894               0.000305825              -0.000272517               0.001010128               0.000737611               0.000000000               0.000000000               0.000000000               0.000000000               0.000185197               0.002802504               0.000260397              -0.000280864               0.001027780               0.000746916               0.000000000               0.000000000               0.000000000               0.000000000               0.000175264               0.002854959               0.000211575              -0.000291145               0.001048692               0.000757547               0.000000000               0.000000000               0.000000000               0.000000000               0.000158078               0.002905630               0.000167068              -0.000303924               0.001069842               0.000765918               0.000000000               0.000000000               0.000000000               0.000000000               0.000133398               0.002943231               0.000128674              -0.000317879               0.001087027               0.000769148               0.000000000               0.000000000               0.000000000               0.000000000               0.000101455               0.002966281               0.000094009              -0.000332739               0.001099664               0.000766925               0.000000000               0.000000000               0.000000000               0.000000000               0.000064831               0.002978753               0.000059029              -0.000348032               0.001108918               0.000760887               0.000000000               0.000000000               0.000000000               0.000000000               0.000024083               0.002983312               0.000025209              -0.000363882               0.001115721               0.000751839               0.000000000               0.000000000               0.000000000               0.000000000              -0.000006366               0.002977527               0.000005899              -0.000374577               0.001117358               0.000742781               0.000000000               0.000000000               0.000000000               0.000000000               0.000797228               0.000918256               0.000777548               0.000184176               0.000244690               0.000428866               0.000000000               0.000000000               0.000000000               0.000000000               0.000682484               0.001296665               0.000849098               0.000093847               0.000400934               0.000494781               0.000000000               0.000000000               0.000000000               0.000000000               0.000505634               0.001794048               0.000849841              -0.000034644               0.000609558               0.000574913               0.000000000               0.000000000               0.000000000               0.000000000               0.000426101               0.002089110               0.000747361              -0.000101351               0.000730147               0.000628795               0.000000000               0.000000000               0.000000000               0.000000000               0.000377361               0.002285354               0.000638001              -0.000144159               0.000809830               0.000665671               0.000000000               0.000000000               0.000000000               0.000000000               0.000337181               0.002429325               0.000544783              -0.000177223               0.000868841               0.000691618               0.000000000               0.000000000               0.000000000               0.000000000               0.000299936               0.002530948               0.000470265              -0.000203892               0.000911605               0.000707713               0.000000000               0.000000000               0.000000000               0.000000000               0.000267582               0.002607510               0.000414223              -0.000225595               0.000944359               0.000718764               0.000000000               0.000000000               0.000000000               0.000000000               0.000244406               0.002674797               0.000367163              -0.000242697               0.000972489               0.000729792               0.000000000               0.000000000               0.000000000               0.000000000               0.000228791               0.002737596               0.000318355              -0.000256402               0.000997990               0.000741588               0.000000000               0.000000000               0.000000000               0.000000000               0.000216541               0.002801329               0.000264727              -0.000268963               0.001023421               0.000754459               0.000000000               0.000000000               0.000000000               0.000000000               0.000198814               0.002864342               0.000215547              -0.000283487               0.001049267               0.000765780               0.000000000               0.000000000               0.000000000               0.000000000               0.000172628               0.002912309               0.000173194              -0.000299303               0.001070528               0.000771225               0.000000000               0.000000000               0.000000000               0.000000000               0.000141040               0.002944953               0.000134498              -0.000315228               0.001086717               0.000771489               0.000000000               0.000000000               0.000000000               0.000000000               0.000099439               0.002962287               0.000091229              -0.000332995               0.001098418               0.000765422               0.000000000               0.000000000               0.000000000               0.000000000               0.000047317               0.002974303               0.000043224              -0.000354043               0.001109439               0.000755396               0.000000000               0.000000000               0.000000000               0.000000000               0.000003742               0.002971201               0.000013801              -0.000369996               0.001113722               0.000743727               0.000000000               0.000000000               0.000000000               0.000000000               0.000606595               0.000584696               0.000571695               0.000154384               0.000143435               0.000297819               0.000000000               0.000000000               0.000000000               0.000000000               0.000641888               0.000951985               0.000712487               0.000121708               0.000276755               0.000398463               0.000000000               0.000000000               0.000000000               0.000000000               0.000575476               0.001433007               0.000791636               0.000036676               0.000465439               0.000502115               0.000000000               0.000000000               0.000000000               0.000000000               0.000523085               0.001763493               0.000734596              -0.000024281               0.000595919               0.000571638               0.000000000               0.000000000               0.000000000               0.000000000               0.000480728               0.002008064               0.000648157              -0.000070735               0.000692926               0.000622191               0.000000000               0.000000000               0.000000000               0.000000000               0.000436749               0.002197540               0.000565536              -0.000110912               0.000769476               0.000658565               0.000000000               0.000000000               0.000000000               0.000000000               0.000395573               0.002342363               0.000497503              -0.000144455               0.000828931               0.000684476               0.000000000               0.000000000               0.000000000               0.000000000               0.000353277               0.002453355               0.000443980              -0.000174190               0.000875840               0.000701650               0.000000000               0.000000000               0.000000000               0.000000000               0.000319256               0.002548452               0.000398581              -0.000198835               0.000915754               0.000716919               0.000000000               0.000000000               0.000000000               0.000000000               0.000295715               0.002636120               0.000350649              -0.000218622               0.000951572               0.000732950               0.000000000               0.000000000               0.000000000               0.000000000               0.000280432               0.002721585               0.000297706              -0.000235036               0.000985531               0.000750495               0.000000000               0.000000000               0.000000000               0.000000000               0.000262940               0.002799977               0.000247225              -0.000251394               0.001017114               0.000765720               0.000000000               0.000000000               0.000000000               0.000000000               0.000237655               0.002862315               0.000206247              -0.000268668               0.001043652               0.000774983               0.000000000               0.000000000               0.000000000               0.000000000               0.000206367               0.002909140               0.000166913              -0.000286254               0.001065122               0.000778867               0.000000000               0.000000000               0.000000000               0.000000000               0.000166283               0.002941051               0.000117587              -0.000305275               0.001082099               0.000776824               0.000000000               0.000000000               0.000000000               0.000000000               0.000116015               0.002966116               0.000059842              -0.000327258               0.001097781               0.000770523               0.000000000               0.000000000               0.000000000               0.000000000               0.000072008               0.002967910               0.000024706              -0.000343985               0.001103955               0.000759970               0.000000000               0.000000000               0.000000000               0.000000000               0.000410046               0.000341423               0.000383811               0.000111088               0.000076777               0.000187865               0.000000000               0.000000000               0.000000000               0.000000000               0.000590473               0.000664037               0.000548617               0.000138421               0.000175203               0.000313624               0.000000000               0.000000000               0.000000000               0.000000000               0.000642797               0.001095330               0.000667782               0.000104131               0.000330396               0.000434527               0.000000000               0.000000000               0.000000000               0.000000000               0.000629215               0.001440752               0.000647909               0.000055860               0.000461626               0.000517486               0.000000000               0.000000000               0.000000000               0.000000000               0.000598322               0.001717323               0.000587382               0.000009705               0.000569200               0.000578905               0.000000000               0.000000000               0.000000000               0.000000000               0.000557591               0.001944711               0.000522763              -0.000033993               0.000659561               0.000625569               0.000000000               0.000000000               0.000000000               0.000000000               0.000512309               0.002125796               0.000466724              -0.000073609               0.000733128               0.000659519               0.000000000               0.000000000               0.000000000               0.000000000               0.000463299               0.002265047               0.000420497              -0.000109394               0.000791473               0.000682079               0.000000000               0.000000000               0.000000000               0.000000000               0.000416677               0.002389874               0.000381738              -0.000142480               0.000844110               0.000701630               0.000000000               0.000000000               0.000000000               0.000000000               0.000380583               0.002509392               0.000340625              -0.000170955               0.000893441               0.000722486               0.000000000               0.000000000               0.000000000               0.000000000               0.000357280               0.002619596               0.000293718              -0.000193469               0.000937680               0.000744210               0.000000000               0.000000000               0.000000000               0.000000000               0.000338614               0.002714112               0.000246947              -0.000212283               0.000975456               0.000763173               0.000000000               0.000000000               0.000000000               0.000000000               0.000313486               0.002795826               0.000207383              -0.000231920               0.001009239               0.000777319               0.000000000               0.000000000               0.000000000               0.000000000               0.000282258               0.002863669               0.000171297              -0.000252111               0.001038584               0.000786472               0.000000000               0.000000000               0.000000000               0.000000000               0.000252716               0.002914637               0.000126917              -0.000269560               0.001061389               0.000791829               0.000000000               0.000000000               0.000000000               0.000000000               0.000222463               0.002954767               0.000068037              -0.000285922               0.001080220               0.000794298               0.000000000               0.000000000               0.000000000               0.000000000               0.000194510               0.002966005               0.000032371              -0.000297808               0.001087928               0.000790119               0.000000000               0.000000000               0.000000000               0.000000000               0.000233275               0.000176932               0.000229588               0.000065361               0.000037190               0.000102550               0.000000000               0.000000000               0.000000000               0.000000000               0.000538185               0.000447631               0.000370125               0.000145864               0.000100587               0.000246451               0.000000000               0.000000000               0.000000000               0.000000000               0.000699098               0.000821072               0.000482054               0.000159526               0.000220512               0.000380038               0.000000000               0.000000000               0.000000000               0.000000000               0.000727425               0.001163298               0.000485094               0.000127371               0.000345305               0.000472676               0.000000000               0.000000000               0.000000000               0.000000000               0.000710249               0.001455433               0.000449255               0.000084413               0.000457002               0.000541415               0.000000000               0.000000000               0.000000000               0.000000000               0.000674613               0.001706374               0.000405529               0.000039683               0.000555558               0.000595241               0.000000000               0.000000000               0.000000000               0.000000000               0.000626190               0.001913317               0.000366243              -0.000004344               0.000639214               0.000634870               0.000000000               0.000000000               0.000000000               0.000000000               0.000573645               0.002085669               0.000333193              -0.000045592               0.000710413               0.000664821               0.000000000               0.000000000               0.000000000               0.000000000               0.000518471               0.002241702               0.000304502              -0.000085786               0.000775822               0.000690036               0.000000000               0.000000000               0.000000000               0.000000000               0.000467382               0.002385284               0.000276202              -0.000122892               0.000836051               0.000713159               0.000000000               0.000000000               0.000000000               0.000000000               0.000431679               0.002516229               0.000243602              -0.000152649               0.000889617               0.000736969               0.000000000               0.000000000               0.000000000               0.000000000               0.000405881               0.002631599               0.000203466              -0.000176744               0.000936105               0.000759361               0.000000000               0.000000000               0.000000000               0.000000000               0.000380752               0.002734280               0.000167280              -0.000199003               0.000977752               0.000778749               0.000000000               0.000000000               0.000000000               0.000000000               0.000360449               0.002821594               0.000142754              -0.000217530               0.001013032               0.000795502               0.000000000               0.000000000               0.000000000               0.000000000               0.000346580               0.002887393               0.000114058              -0.000230956               0.001039440               0.000808484               0.000000000               0.000000000               0.000000000               0.000000000               0.000339872               0.002938904               0.000064998              -0.000239910               0.001059595               0.000819685               0.000000000               0.000000000               0.000000000               0.000000000               0.000334393               0.002960222               0.000033755              -0.000244630               0.001068274               0.000823644               0.000000000               0.000000000               0.000000000               0.000000000               0.000106755               0.000082055               0.000104967               0.000029776               0.000017426               0.000047202               0.000000000               0.000000000               0.000000000               0.000000000               0.000493878               0.000310088               0.000185637               0.000146442               0.000054548               0.000200989               0.000000000               0.000000000               0.000000000               0.000000000               0.000733618               0.000638457               0.000252445               0.000195298               0.000147718               0.000343015               0.000000000               0.000000000               0.000000000               0.000000000               0.000795035               0.000974447               0.000260068               0.000176331               0.000266035               0.000442366               0.000000000               0.000000000               0.000000000               0.000000000               0.000786784               0.001271621               0.000244158               0.000136090               0.000378506               0.000514596               0.000000000               0.000000000               0.000000000               0.000000000               0.000754066               0.001532088               0.000221444               0.000091263               0.000480270               0.000571533               0.000000000               0.000000000               0.000000000               0.000000000               0.000707614               0.001762201               0.000201831               0.000045080               0.000572368               0.000617448               0.000000000               0.000000000               0.000000000               0.000000000               0.000653129               0.001963969               0.000186429              -0.000000573               0.000654841               0.000654268               0.000000000               0.000000000               0.000000000               0.000000000               0.000594149               0.002136883               0.000171209              -0.000044304               0.000727055               0.000682751               0.000000000               0.000000000               0.000000000               0.000000000               0.000536256               0.002289555               0.000157752              -0.000085098               0.000791543               0.000706445               0.000000000               0.000000000               0.000000000               0.000000000               0.000487072               0.002432751               0.000140820              -0.000121442               0.000851390               0.000729948               0.000000000               0.000000000               0.000000000               0.000000000               0.000453492               0.002566246               0.000113777              -0.000150721               0.000905647               0.000754926               0.000000000               0.000000000               0.000000000               0.000000000               0.000437303               0.002685723               0.000092234              -0.000171726               0.000952474               0.000780748               0.000000000               0.000000000               0.000000000               0.000000000               0.000430823               0.002789049               0.000082638              -0.000187072               0.000992031               0.000804959               0.000000000               0.000000000               0.000000000               0.000000000               0.000428092               0.002872878               0.000069637              -0.000198575               0.001023808               0.000825233               0.000000000               0.000000000               0.000000000               0.000000000               0.000435929               0.002934778               0.000041218              -0.000203373               0.001046041               0.000842667               0.000000000               0.000000000               0.000000000               0.000000000               0.000449258               0.002962118               0.000022379              -0.000201793               0.001054627               0.000852834               0.000000000               0.000000000               0.000000000               0.000000000               0.000000000               0.000000000               0.000000000               0.000000000               0.000000000               0.000000000               0.000000000               0.000000000               0.000000000               0.000000000               0.000000000               0.000000000               0.000000000               0.000000000               0.000000000               0.000000000               0.000000000               0.000000000               0.000000000               0.000000000               0.000000000               0.000000000               0.000000000               0.000000000               0.000000000               0.000000000               0.000000000               0.000000000               0.000000000               0.000000000               0.000000000               0.000000000               0.000000000               0.000000000               0.000000000               0.000000000               0.000000000               0.000000000               0.000000000               0.000000000               0.000000000               0.000000000               0.000000000               0.000000000               0.000000000               0.000000000               0.000000000               0.000000000               0.000000000               0.000000000               0.000000000               0.000000000               0.000000000               0.000000000               0.000000000               0.000000000               0.000000000               0.000000000               0.000000000               0.000000000               0.000000000               0.000000000               0.000000000               0.000000000               0.000000000               0.000000000               0.000000000               0.000000000               0.000000000               0.000000000               0.000000000               0.000000000               0.000000000               0.000000000               0.000000000               0.000000000               0.000000000               0.000000000               0.000000000               0.000000000               0.000000000               0.000000000               0.000000000               0.000000000               0.000000000               0.000000000               0.000000000               0.000000000               0.000000000               0.000000000               0.000000000               0.000000000               0.000000000               0.000000000               0.000000000               0.000000000               0.000000000               0.000000000               0.000000000               0.000000000               0.000000000               0.000000000               0.000000000               0.000000000               0.000000000               0.000000000               0.000000000               0.000000000               0.000000000               0.000000000               0.000000000               0.000000000               0.000000000               0.000000000               0.000000000               0.000000000               0.000000000               0.000000000               0.000000000               0.000000000               0.000000000               0.000000000               0.000000000               0.000000000               0.000000000               0.000000000               0.000000000               0.000000000               0.000000000               0.000000000               0.000000000               0.000000000               0.000000000               0.000000000               0.000000000               0.000000000               0.000000000               0.000000000               0.000000000               0.000000000               0.000000000               0.000000000               0.000000000               0.000000000               0.000000000               0.000000000               0.000000000               0.000000000               0.000000000               0.000000000               0.000000000               0.000000000               0.000000000               0.000000000               0.000000000               0.000000000               0.000000000               0.000000000               0.000000000               0.000000000               0.000000000               0.000000000               0.000000000               0.000000000               0.000000000               0.000000000               0.000000000               0.000000000               0.000000000               0.000000000 </DataArray>
</PointData>
</Piece>
</UnstructuredGrid> </VTKFile>
